Fe
 1.0000000000000000
    11.3600280233159872   -0.0000000331395586   -0.0000000130163576
    -0.0000000331395355   11.3600217302758058   -0.0000000251331751
    -0.0000000130163575   -0.0000000251331874   11.3600280488334366
 Fe 
 127
Cartesian
  1.3725021321103412  1.3725112332680545  1.3726821393043267
  0.0000005386617734 -0.0000003138966230  2.8727394342422912
  1.4213738142062153  1.4191577688960315  4.2564090243026316
  0.0000001755748981  0.0000000903114794  5.6800141139851306
  1.4193613865689645  1.4209544198489039  7.1035010105346972
  0.0000004355151737  0.0000001521343304  8.4872884357279883
  1.3726817748001883  1.3725113194775349  9.9875260387776859
 -0.0000000902210369  2.8725823211522443  0.0000001562441739
  1.4190469683752311  4.2564696753633671  1.4211283380241713
 -0.0000268038037031  2.8312479709445002  2.8313448479839538
  1.4194873931645304  4.2575295190144686  4.2584544556228066
  0.0000002215024636  2.8414610738439521  5.6800138953695098
  1.4195290649360153  4.2583956182645322  7.1024285333218682
  0.0000269678633282  2.8312479196930749  8.5286830768691644
  1.4211280468281218  4.2564694144021598  9.9409807739538980
  0.0000000699550575  5.6800108034101484 -0.0000002569764120
  1.4211282442094237  7.1035521597167302  1.4190470337685046
  0.0000003754121384  5.6800108916683136  2.8415889244886543
  1.4195293456535656  7.1016256034937966  4.2575994638622374
  0.0000004494211220  5.6800109443580924  5.6800138568126766
  1.4194877705940279  7.1024922203624081  7.1015734530804551
 -0.0000001253475036  5.6800105994417915  8.5184387740336458
  1.4190469840680087  7.1035522568036633  9.9388993310364757
 -0.0000001312029229  8.4874394479216093  0.0000002974073874
  1.3726823675255790  9.9875104243317931  1.3725023121072109
  0.0000268566368242  8.5287737087060513  2.8313449559668520
  1.4193616832016878  9.9390675536447777  4.2565268819652644
  0.0000003783717717  8.5185604968187132  5.6800139424872391
  1.4213739091101834  9.9408641316490520  7.1036190499044807
 -0.0000268364556790  8.5287743116487924  8.5286833969609148
  1.3725021650283749  9.9875102428911777  9.9873454835593289
  2.8727393913498700  0.0000000025857960  0.0000005916812632
  4.2565270080846913  1.4209543531802984  1.4193615334847656
  2.8314749096739522 -0.0000002627911684  2.8314749641472337
  4.2585818408712353  1.4199179295699542  4.2575808247695290
  2.8421581733236896 -0.0000001990983961  5.6800139761253705
  4.2575809035599486  1.4199179869095120  7.1014460499573531
  2.8314749380838897 -0.0000003736996255  8.5285532057759532
  4.2564096222004082  1.4191578223228150  9.9386538516184206
  2.8313449330303202  2.8312477372282752  0.0000268695432282
  4.2575995517208272  4.2583956834621608  1.4195290383443129
  2.8325970951797457  2.8326057547801562  2.8324280390866399
  4.2593548224601276  4.2595215831449442  4.2593659116280103
  2.8389641002709549  2.8391681391812180  5.6799017645448284
  4.2593659940470996  4.2595216409540315  7.1006730523119810
  2.8324278688345563  2.8326056031874374  8.5274305349754833
  4.2584544991111910  4.2575296995853069  9.9405407581154179
  2.8415891200143708  5.6800106798369123  0.0000003130541641
  4.2584544499189372  7.1024918681179914  1.4194878190528888
  2.8390214466610382  5.6800107974658127  2.8390216542766877
  4.2593664348970197  7.1005000653120520  4.2593547511012311
  2.8380730262258482  5.6800110276750058  5.6800139683683222
  4.2593547194989023  7.1005000373825293  7.1006617120267324
  2.8390218083147425  5.6800108271459386  8.5210064688521285
  4.2575992228837540  7.1016254576057536  9.9404987161093370
  2.8313447811035131  8.5287741249506261 -0.0000268488043783
  4.2564087046313954  9.9408640632284886  1.4213736228193707
  2.8324283073143643  8.5274162492320773  2.8325969647387401
  4.2575807673186139  9.9401035897807688  4.2585817888615294
  2.8389641831192769  8.5208535219076076  5.6801260937950468
  4.2585816146580200  9.9401035831180753  7.1024473791186473
  2.8325972970479314  8.5274165915578184  8.5275995303506598
  4.2565267800102893  9.9390674412284810  9.9406660980523913
  5.6800142781109599 -0.0000003769334896  0.0000000598127000
  7.1036188037280459  1.4191576287564660  1.4213740063245421
  5.6800142974384613  0.0000004179956052  2.8421581130224052
  7.1024470020585877  1.4199176411425933  4.2585817807723476
  5.6800138750650060 -0.0000001765417104  5.6800139519558943
  7.1014458955907571  1.4199177626279318  7.1024473509683999
  5.6800140266152663  0.0000003167568189  8.5178696113279511
  7.1035009973617180  1.4209544007780546  9.9406664446018524
  5.6800137709191585  2.8414610700197382 -0.0000001041067093
  7.1015732698028291  4.2575297997055150  1.4194875503817097
  5.6801261167596486  2.8391678448573545  2.8389640541543750
  7.1006619566587226  4.2595215268280784  4.2593546705400129
  5.6800139932596796  2.8385244775988272  5.6800138575767791
  7.1006732045981620  4.2595217868936013  7.1006617316464604
  5.6799020522723334  2.8391679999627772  8.5210637727667145
  7.1024285246348402  4.2583956198896882  9.9404988896970199
  5.6800139878257641  5.6800107429431606 -0.0000001722235230
  7.1024284131038025  7.1016254891843094  1.4195291478396794
  5.6800137863977094  5.6800109237515590  2.8380729773435318
  7.1006729134114437  7.1005001904873382  4.2593661264621847
  5.6800135780668635  5.6800107905972235  5.6800141165671123
  7.1006619313009605  7.1004999611523267  7.1006731654345119
  5.6800141233575943  5.6800106047805849  8.5219547002522251
  7.1015733503360119  7.1024920447149631  9.9405400796646806
  5.6800140018752590  8.5185614080410037  0.0000003706675485
  7.1035011399202688  9.9390673729376022  1.4193611674140456
  5.6799014879425265  8.5208534977973382  2.8389640643111607
  7.1014461220652034  9.9401037062232032  4.2575810941414440
  5.6800141522845360  8.5214978336309457  5.6800141609281605
  7.1024469084327100  9.9401040598938089  7.1014459133092505
  5.6801259037607705  8.5208535952187017  8.5210639131853974
  7.1036191030447569  9.9408639240871501  9.9386544386160551
  8.4872881107684339 -0.0000007057934133 -0.0000000966805356
  9.9873460260507763  1.3725115649982387  1.3725020356813287
  8.5285531864939763 -0.0000000701360619  2.8314749919902766
  9.9406662816396274  1.4209543099280746  4.2565273439153728
  8.5178694391239187  0.0000004150847885  5.6800140059309197
  9.9386546082029206  1.4191577683784149  7.1036185464684394
  8.5285529782992402  0.0000002472859446  8.5285529467712600
  9.9875258606085726  1.3725113942291445  9.9873456155496996
  8.5286833916342939  2.8312478665585759 -0.0000263044171356
  9.9388994666363590  4.2564692429586115  1.4190469993903601
  8.5275994657999465  2.8326056409818201  2.8325971485510921
  9.9404991281517407  4.2583954840113574  4.2575997283063582
  8.5210636487596165  2.8391680230354486  5.6801260764933135
  9.9405400058406848  4.2575295678696783  7.1015732361223920
  8.5274305266741006  2.8326057804359426  8.5276000564139220
  9.9409811248026134  4.2564694638655878  9.9388995366297195
  8.5184384667786031  5.6800108313288948  0.0000000501645986
  9.9409810692795215  7.1035526400301983  1.4211281751279508
  8.5210061007385729  5.6800107678851237  2.8390216696638810
  9.9405400266611892  7.1024923467876739  4.2584542338683775
  8.5219548933416238  5.6800108894932517  5.6800140961042658
  9.9404986867438918  7.1016260438903966  7.1024283451194457
  8.5210062912326272  5.6800110080328423  8.5210063457129852
  9.9388995212807618  7.1035525442372602  9.9409809148578727
  8.5286836231419336  8.5287743307718316  0.0000267110260113
  9.9875256959167693  9.9875100908436050  1.3726822286625107
  8.5274310439177690  8.5274161837398275  2.8324279772269367
  9.9386537499744225  9.9408639624554578  4.2564091113248388
  8.5210640207059232  8.5208535412413955  5.6799021684456994
  9.9406666947114690  9.9390671040418326  7.1035009828269233
  8.5275994618614792  8.5274152811072916  8.5274308531541845
  9.9873460050779688  9.9875099260792695  9.9875265204552015
