Fe
 1.0000000000000000
    11.3653911802341909    0.0000000000000000    0.0000000000000000
     0.0000000000000000    8.0365451743813754    0.0000000000000000
     0.0000000000000000    0.0000000000000000   78.1735895783115353
 Fe 
 320
Cartesian
  0.0000000000000000  2.0091362935953438 20.0000000000000000
  2.8413477950585477  2.0091362935953438 20.0000000000000000
  5.6826955901170955  2.0091362935953438 20.0000000000000000
  8.5240433851756432  2.0091362935953438 20.0000000000000000
  1.4206738975292739  4.0182725871906877 20.0000000000000000
  4.2620216925878216  4.0182725871906877 20.0000000000000000
  7.1033694876463693  4.0182725871906877 20.0000000000000000
  9.9447172827049179  4.0182725871906877 20.0000000000000000
  0.0000000000000000  6.0274088807860320 20.0000000000000000
  2.8413477950585477  6.0274088807860320 20.0000000000000000
  5.6826955901170955  6.0274088807860320 20.0000000000000000
  8.5240433851756432  6.0274088807860320 20.0000000000000000
  1.4206738975292739  8.0365451743813754 20.0000000000000000
  4.2620216925878216  8.0365451743813754 20.0000000000000000
  7.1033694876463693  8.0365451743813754 20.0000000000000000
  9.9447172827049179  8.0365451743813754 20.0000000000000000
  0.0000000000000000  0.0000000000000000 22.0091362935953434
  2.8413477950585477  0.0000000000000000 22.0091362935953434
  5.6826955901170955  0.0000000000000000 22.0091362935953434
  8.5240433851756432  0.0000000000000000 22.0091362935953434
  1.4206738975292739  2.0091362935953438 22.0091362935953434
  4.2620216925878216  2.0091362935953438 22.0091362935953434
  7.1033694876463693  2.0091362935953438 22.0091362935953434
  9.9447172827049179  2.0091362935953438 22.0091362935953434
  0.0000000000000000  4.0182725871906877 22.0091362935953434
  2.8413477950585477  4.0182725871906877 22.0091362935953434
  5.6826955901170955  4.0182725871906877 22.0091362935953434
  8.5240433851756432  4.0182725871906877 22.0091362935953434
  1.4206738975292739  6.0274088807860320 22.0091362935953434
  4.2620216925878216  6.0274088807860320 22.0091362935953434
  7.1033694876463693  6.0274088807860320 22.0091362935953434
  9.9447172827049179  6.0274088807860320 22.0091362935953434
  0.0000000000000000  2.0091362935953438 24.0182725871906868
  2.8413477950585477  2.0091362935953438 24.0182725871906868
  5.6826955901170955  2.0091362935953438 24.0182725871906868
  8.5240433851756432  2.0091362935953438 24.0182725871906868
  1.4206738975292739  4.0182725871906877 24.0182725871906868
  4.2620216925878216  4.0182725871906877 24.0182725871906868
  7.1033694876463693  4.0182725871906877 24.0182725871906868
  9.9447172827049179  4.0182725871906877 24.0182725871906868
  0.0000000000000000  6.0274088807860320 24.0182725871906868
  2.8413477950585477  6.0274088807860320 24.0182725871906868
  5.6826955901170955  6.0274088807860320 24.0182725871906868
  8.5240433851756432  6.0274088807860320 24.0182725871906868
  1.4206738975292739  8.0365451743813754 24.0182725871906868
  4.2620216925878216  8.0365451743813754 24.0182725871906868
  7.1033694876463693  8.0365451743813754 24.0182725871906868
  9.9447172827049179  8.0365451743813754 24.0182725871906868
  0.0000000000000000  0.0000000000000000 26.0274088807860338
  2.8413477950585477  0.0000000000000000 26.0274088807860338
  5.6826955901170955  0.0000000000000000 26.0274088807860338
  8.5240433851756432  0.0000000000000000 26.0274088807860338
  1.4206738975292739  2.0091362935953438 26.0274088807860338
  4.2620216925878216  2.0091362935953438 26.0274088807860338
  7.1033694876463693  2.0091362935953438 26.0274088807860338
  9.9447172827049179  2.0091362935953438 26.0274088807860338
  0.0000000000000000  4.0182725871906877 26.0274088807860338
  2.8413477950585477  4.0182725871906877 26.0274088807860338
  5.6826955901170955  4.0182725871906877 26.0274088807860338
  8.5240433851756432  4.0182725871906877 26.0274088807860338
  1.4206738975292739  6.0274088807860320 26.0274088807860338
  4.2620216925878216  6.0274088807860320 26.0274088807860338
  7.1033694876463693  6.0274088807860320 26.0274088807860338
  9.9447172827049179  6.0274088807860320 26.0274088807860338
  0.0000000000000000  2.0091362935953438 28.0365451743813736
  2.8413477950585477  2.0091362935953438 28.0365451743813736
  5.6826955901170955  2.0091362935953438 28.0365451743813736
  8.5240433851756432  2.0091362935953438 28.0365451743813736
  1.4206738975292739  4.0182725871906877 28.0365451743813736
  4.2620216925878216  4.0182725871906877 28.0365451743813736
  7.1033694876463693  4.0182725871906877 28.0365451743813736
  9.9447172827049179  4.0182725871906877 28.0365451743813736
  0.0000000000000000  6.0274088807860320 28.0365451743813736
  2.8413477950585477  6.0274088807860320 28.0365451743813736
  5.6826955901170955  6.0274088807860320 28.0365451743813736
  8.5240433851756432  6.0274088807860320 28.0365451743813736
  1.4206738975292739  8.0365451743813754 28.0365451743813736
  4.2620216925878216  8.0365451743813754 28.0365451743813736
  7.1033694876463693  8.0365451743813754 28.0365451743813736
  9.9447172827049179  8.0365451743813754 28.0365451743813736
  0.0000000000000000  0.0000000000000000 30.0456814679767206
  2.8413477950585477  0.0000000000000000 30.0456814679767206
  5.6826955901170955  0.0000000000000000 30.0456814679767206
  8.5240433851756432  0.0000000000000000 30.0456814679767206
  1.4206738975292739  2.0091362935953438 30.0456814679767206
  4.2620216925878216  2.0091362935953438 30.0456814679767206
  7.1033694876463693  2.0091362935953438 30.0456814679767206
  9.9447172827049179  2.0091362935953438 30.0456814679767206
  0.0000000000000000  4.0182725871906877 30.0456814679767206
  2.8413477950585477  4.0182725871906877 30.0456814679767206
  5.6826955901170955  4.0182725871906877 30.0456814679767206
  8.5240433851756432  4.0182725871906877 30.0456814679767206
  1.4206738975292739  6.0274088807860320 30.0456814679767206
  4.2620216925878216  6.0274088807860320 30.0456814679767206
  7.1033694876463693  6.0274088807860320 30.0456814679767206
  9.9447172827049179  6.0274088807860320 30.0456814679767206
  0.0000000000000000  2.0091362935953438 32.0548177615720675
  2.8413477950585477  2.0091362935953438 32.0548177615720675
  5.6826955901170955  2.0091362935953438 32.0548177615720675
  8.5240433851756432  2.0091362935953438 32.0548177615720675
  1.4206738975292739  4.0182725871906877 32.0548177615720675
  4.2620216925878216  4.0182725871906877 32.0548177615720675
  7.1033694876463693  4.0182725871906877 32.0548177615720675
  9.9447172827049179  4.0182725871906877 32.0548177615720675
  0.0000000000000000  6.0274088807860320 32.0548177615720675
  2.8413477950585477  6.0274088807860320 32.0548177615720675
  5.6826955901170955  6.0274088807860320 32.0548177615720675
  8.5240433851756432  6.0274088807860320 32.0548177615720675
  1.4206738975292739  8.0365451743813754 32.0548177615720675
  4.2620216925878216  8.0365451743813754 32.0548177615720675
  7.1033694876463693  8.0365451743813754 32.0548177615720675
  9.9447172827049179  8.0365451743813754 32.0548177615720675
  0.0000000000000000  0.0000000000000000 34.0639540551674074
  2.8413477950585477  0.0000000000000000 34.0639540551674074
  5.6826955901170955  0.0000000000000000 34.0639540551674074
  8.5240433851756432  0.0000000000000000 34.0639540551674074
  1.4206738975292739  2.0091362935953438 34.0639540551674074
  4.2620216925878216  2.0091362935953438 34.0639540551674074
  7.1033694876463693  2.0091362935953438 34.0639540551674074
  9.9447172827049179  2.0091362935953438 34.0639540551674074
  0.0000000000000000  4.0182725871906877 34.0639540551674074
  2.8413477950585477  4.0182725871906877 34.0639540551674074
  5.6826955901170955  4.0182725871906877 34.0639540551674074
  8.5240433851756432  4.0182725871906877 34.0639540551674074
  1.4206738975292739  6.0274088807860320 34.0639540551674074
  4.2620216925878216  6.0274088807860320 34.0639540551674074
  7.1033694876463693  6.0274088807860320 34.0639540551674074
  9.9447172827049179  6.0274088807860320 34.0639540551674074
  0.0000000000000000  2.0091362935953438 36.0730903487627472
  2.8413477950585477  2.0091362935953438 36.0730903487627472
  5.6826955901170955  2.0091362935953438 36.0730903487627472
  8.5240433851756432  2.0091362935953438 36.0730903487627472
  1.4206738975292739  4.0182725871906877 36.0730903487627472
  4.2620216925878216  4.0182725871906877 36.0730903487627472
  7.1033694876463693  4.0182725871906877 36.0730903487627472
  9.9447172827049179  4.0182725871906877 36.0730903487627472
  0.0000000000000000  6.0274088807860320 36.0730903487627472
  2.8413477950585477  6.0274088807860320 36.0730903487627472
  5.6826955901170955  6.0274088807860320 36.0730903487627472
  8.5240433851756432  6.0274088807860320 36.0730903487627472
  1.4206738975292739  8.0365451743813754 36.0730903487627472
  4.2620216925878216  8.0365451743813754 36.0730903487627472
  7.1033694876463693  8.0365451743813754 36.0730903487627472
  9.9447172827049179  8.0365451743813754 36.0730903487627472
  0.0000000000000000  0.0000000000000000 38.0822266423580942
  2.8413477950585477  0.0000000000000000 38.0822266423580942
  5.6826955901170955  0.0000000000000000 38.0822266423580942
  8.5240433851756432  0.0000000000000000 38.0822266423580942
  1.4206738975292739  2.0091362935953438 38.0822266423580942
  4.2620216925878216  2.0091362935953438 38.0822266423580942
  7.1033694876463693  2.0091362935953438 38.0822266423580942
  9.9447172827049179  2.0091362935953438 38.0822266423580942
  0.0000000000000000  4.0182725871906877 38.0822266423580942
  2.8413477950585477  4.0182725871906877 38.0822266423580942
  5.6826955901170955  4.0182725871906877 38.0822266423580942
  8.5240433851756432  4.0182725871906877 38.0822266423580942
  1.4206738975292739  6.0274088807860320 38.0822266423580942
  4.2620216925878216  6.0274088807860320 38.0822266423580942
  7.1033694876463693  6.0274088807860320 38.0822266423580942
  9.9447172827049179  6.0274088807860320 38.0822266423580942
  0.0000000000000000  2.0091362935953438 40.0913629359534411
  2.8413477950585477  2.0091362935953438 40.0913629359534411
  5.6826955901170955  2.0091362935953438 40.0913629359534411
  8.5240433851756432  2.0091362935953438 40.0913629359534411
  1.4206738975292739  4.0182725871906877 40.0913629359534411
  4.2620216925878216  4.0182725871906877 40.0913629359534411
  7.1033694876463693  4.0182725871906877 40.0913629359534411
  9.9447172827049179  4.0182725871906877 40.0913629359534411
  0.0000000000000000  6.0274088807860320 40.0913629359534411
  2.8413477950585477  6.0274088807860320 40.0913629359534411
  5.6826955901170955  6.0274088807860320 40.0913629359534411
  8.5240433851756432  6.0274088807860320 40.0913629359534411
  1.4206738975292739  8.0365451743813754 40.0913629359534411
  4.2620216925878216  8.0365451743813754 40.0913629359534411
  7.1033694876463693  8.0365451743813754 40.0913629359534411
  9.9447172827049179  8.0365451743813754 40.0913629359534411
  0.0000000000000000  0.0000000000000000 42.1004992295487810
  2.8413477950585477  0.0000000000000000 42.1004992295487810
  5.6826955901170955  0.0000000000000000 42.1004992295487810
  8.5240433851756432  0.0000000000000000 42.1004992295487810
  1.4206738975292739  2.0091362935953438 42.1004992295487810
  4.2620216925878216  2.0091362935953438 42.1004992295487810
  7.1033694876463693  2.0091362935953438 42.1004992295487810
  9.9447172827049179  2.0091362935953438 42.1004992295487810
  0.0000000000000000  4.0182725871906877 42.1004992295487810
  2.8413477950585477  4.0182725871906877 42.1004992295487810
  5.6826955901170955  4.0182725871906877 42.1004992295487810
  8.5240433851756432  4.0182725871906877 42.1004992295487810
  1.4206738975292739  6.0274088807860320 42.1004992295487810
  4.2620216925878216  6.0274088807860320 42.1004992295487810
  7.1033694876463693  6.0274088807860320 42.1004992295487810
  9.9447172827049179  6.0274088807860320 42.1004992295487810
  0.0000000000000000  2.0091362935953438 44.1096355231441279
  2.8413477950585477  2.0091362935953438 44.1096355231441279
  5.6826955901170955  2.0091362935953438 44.1096355231441279
  8.5240433851756432  2.0091362935953438 44.1096355231441279
  1.4206738975292739  4.0182725871906877 44.1096355231441279
  4.2620216925878216  4.0182725871906877 44.1096355231441279
  7.1033694876463693  4.0182725871906877 44.1096355231441279
  9.9447172827049179  4.0182725871906877 44.1096355231441279
  0.0000000000000000  6.0274088807860320 44.1096355231441279
  2.8413477950585477  6.0274088807860320 44.1096355231441279
  5.6826955901170955  6.0274088807860320 44.1096355231441279
  8.5240433851756432  6.0274088807860320 44.1096355231441279
  1.4206738975292739  8.0365451743813754 44.1096355231441279
  4.2620216925878216  8.0365451743813754 44.1096355231441279
  7.1033694876463693  8.0365451743813754 44.1096355231441279
  9.9447172827049179  8.0365451743813754 44.1096355231441279
  0.0000000000000000  0.0000000000000000 46.1187718167394678
  2.8413477950585477  0.0000000000000000 46.1187718167394678
  5.6826955901170955  0.0000000000000000 46.1187718167394678
  8.5240433851756432  0.0000000000000000 46.1187718167394678
  1.4206738975292739  2.0091362935953438 46.1187718167394678
  4.2620216925878216  2.0091362935953438 46.1187718167394678
  7.1033694876463693  2.0091362935953438 46.1187718167394678
  9.9447172827049179  2.0091362935953438 46.1187718167394678
  0.0000000000000000  4.0182725871906877 46.1187718167394678
  2.8413477950585477  4.0182725871906877 46.1187718167394678
  5.6826955901170955  4.0182725871906877 46.1187718167394678
  8.5240433851756432  4.0182725871906877 46.1187718167394678
  1.4206738975292739  6.0274088807860320 46.1187718167394678
  4.2620216925878216  6.0274088807860320 46.1187718167394678
  7.1033694876463693  6.0274088807860320 46.1187718167394678
  9.9447172827049179  6.0274088807860320 46.1187718167394678
  0.0000000000000000  2.0091362935953438 48.1279081103348148
  2.8413477950585477  2.0091362935953438 48.1279081103348148
  5.6826955901170955  2.0091362935953438 48.1279081103348148
  8.5240433851756432  2.0091362935953438 48.1279081103348148
  1.4206738975292739  4.0182725871906877 48.1279081103348148
  4.2620216925878216  4.0182725871906877 48.1279081103348148
  7.1033694876463693  4.0182725871906877 48.1279081103348148
  9.9447172827049179  4.0182725871906877 48.1279081103348148
  0.0000000000000000  6.0274088807860320 48.1279081103348148
  2.8413477950585477  6.0274088807860320 48.1279081103348148
  5.6826955901170955  6.0274088807860320 48.1279081103348148
  8.5240433851756432  6.0274088807860320 48.1279081103348148
  1.4206738975292739  8.0365451743813754 48.1279081103348148
  4.2620216925878216  8.0365451743813754 48.1279081103348148
  7.1033694876463693  8.0365451743813754 48.1279081103348148
  9.9447172827049179  8.0365451743813754 48.1279081103348148
  0.0000000000000000  0.0000000000000000 50.1370444039301617
  2.8413477950585477  0.0000000000000000 50.1370444039301617
  5.6826955901170955  0.0000000000000000 50.1370444039301617
  8.5240433851756432  0.0000000000000000 50.1370444039301617
  1.4206738975292739  2.0091362935953438 50.1370444039301617
  4.2620216925878216  2.0091362935953438 50.1370444039301617
  7.1033694876463693  2.0091362935953438 50.1370444039301617
  9.9447172827049179  2.0091362935953438 50.1370444039301617
  0.0000000000000000  4.0182725871906877 50.1370444039301617
  2.8413477950585477  4.0182725871906877 50.1370444039301617
  5.6826955901170955  4.0182725871906877 50.1370444039301617
  8.5240433851756432  4.0182725871906877 50.1370444039301617
  1.4206738975292739  6.0274088807860320 50.1370444039301617
  4.2620216925878216  6.0274088807860320 50.1370444039301617
  7.1033694876463693  6.0274088807860320 50.1370444039301617
  9.9447172827049179  6.0274088807860320 50.1370444039301617
  0.0000000000000000  2.0091362935953438 52.1461806975255016
  2.8413477950585477  2.0091362935953438 52.1461806975255016
  5.6826955901170955  2.0091362935953438 52.1461806975255016
  8.5240433851756432  2.0091362935953438 52.1461806975255016
  1.4206738975292739  4.0182725871906877 52.1461806975255016
  4.2620216925878216  4.0182725871906877 52.1461806975255016
  7.1033694876463693  4.0182725871906877 52.1461806975255016
  9.9447172827049179  4.0182725871906877 52.1461806975255016
  0.0000000000000000  6.0274088807860320 52.1461806975255016
  2.8413477950585477  6.0274088807860320 52.1461806975255016
  5.6826955901170955  6.0274088807860320 52.1461806975255016
  8.5240433851756432  6.0274088807860320 52.1461806975255016
  1.4206738975292739  8.0365451743813754 52.1461806975255016
  4.2620216925878216  8.0365451743813754 52.1461806975255016
  7.1033694876463693  8.0365451743813754 52.1461806975255016
  9.9447172827049179  8.0365451743813754 52.1461806975255016
  0.0000000000000000  0.0000000000000000 54.1553169911208485
  2.8413477950585477  0.0000000000000000 54.1553169911208485
  5.6826955901170955  0.0000000000000000 54.1553169911208485
  8.5240433851756432  0.0000000000000000 54.1553169911208485
  1.4206738975292739  2.0091362935953438 54.1553169911208485
  4.2620216925878216  2.0091362935953438 54.1553169911208485
  7.1033694876463693  2.0091362935953438 54.1553169911208485
  9.9447172827049179  2.0091362935953438 54.1553169911208485
  0.0000000000000000  4.0182725871906877 54.1553169911208485
  2.8413477950585477  4.0182725871906877 54.1553169911208485
  5.6826955901170955  4.0182725871906877 54.1553169911208485
  8.5240433851756432  4.0182725871906877 54.1553169911208485
  1.4206738975292739  6.0274088807860320 54.1553169911208485
  4.2620216925878216  6.0274088807860320 54.1553169911208485
  7.1033694876463693  6.0274088807860320 54.1553169911208485
  9.9447172827049179  6.0274088807860320 54.1553169911208485
  0.0000000000000000  2.0091362935953438 56.1644532847161884
  2.8413477950585477  2.0091362935953438 56.1644532847161884
  5.6826955901170955  2.0091362935953438 56.1644532847161884
  8.5240433851756432  2.0091362935953438 56.1644532847161884
  1.4206738975292739  4.0182725871906877 56.1644532847161884
  4.2620216925878216  4.0182725871906877 56.1644532847161884
  7.1033694876463693  4.0182725871906877 56.1644532847161884
  9.9447172827049179  4.0182725871906877 56.1644532847161884
  0.0000000000000000  6.0274088807860320 56.1644532847161884
  2.8413477950585477  6.0274088807860320 56.1644532847161884
  5.6826955901170955  6.0274088807860320 56.1644532847161884
  8.5240433851756432  6.0274088807860320 56.1644532847161884
  1.4206738975292739  8.0365451743813754 56.1644532847161884
  4.2620216925878216  8.0365451743813754 56.1644532847161884
  7.1033694876463693  8.0365451743813754 56.1644532847161884
  9.9447172827049179  8.0365451743813754 56.1644532847161884
  0.0000000000000000  0.0000000000000000 58.1735895783115353
  2.8413477950585477  0.0000000000000000 58.1735895783115353
  5.6826955901170955  0.0000000000000000 58.1735895783115353
  8.5240433851756432  0.0000000000000000 58.1735895783115353
  1.4206738975292739  2.0091362935953438 58.1735895783115353
  4.2620216925878216  2.0091362935953438 58.1735895783115353
  7.1033694876463693  2.0091362935953438 58.1735895783115353
  9.9447172827049179  2.0091362935953438 58.1735895783115353
  0.0000000000000000  4.0182725871906877 58.1735895783115353
  2.8413477950585477  4.0182725871906877 58.1735895783115353
  5.6826955901170955  4.0182725871906877 58.1735895783115353
  8.5240433851756432  4.0182725871906877 58.1735895783115353
  1.4206738975292739  6.0274088807860320 58.1735895783115353
  4.2620216925878216  6.0274088807860320 58.1735895783115353
  7.1033694876463693  6.0274088807860320 58.1735895783115353
  9.9447172827049179  6.0274088807860320 58.1735895783115353
