Fe
 1.0000000000000000
    11.3653911802341909    0.0000000000000000    0.0000000000000000
     0.0000000000000000   11.3653911802341909    0.0000000000000000
     0.0000000000000000    0.0000000000000000   66.9928040530562043
 Fe 
 320
Cartesian
  1.4206738975292739  1.4206738975292739 20.0000000000000000
  4.2620216925878216  1.4206738975292739 20.0000000000000000
  7.1033694876463693  1.4206738975292739 20.0000000000000000
  9.9447172827049179  1.4206738975292739 20.0000000000000000
  1.4206738975292739  4.2620216925878216 20.0000000000000000
  4.2620216925878216  4.2620216925878216 20.0000000000000000
  7.1033694876463693  4.2620216925878216 20.0000000000000000
  9.9447172827049179  4.2620216925878216 20.0000000000000000
  1.4206738975292739  7.1033694876463693 20.0000000000000000
  4.2620216925878216  7.1033694876463693 20.0000000000000000
  7.1033694876463693  7.1033694876463693 20.0000000000000000
  9.9447172827049179  7.1033694876463693 20.0000000000000000
  1.4206738975292739  9.9447172827049179 20.0000000000000000
  4.2620216925878216  9.9447172827049179 20.0000000000000000
  7.1033694876463693  9.9447172827049179 20.0000000000000000
  9.9447172827049179  9.9447172827049179 20.0000000000000000
  0.0000000000000000  0.0000000000000000 21.4206738975292730
  2.8413477950585477  0.0000000000000000 21.4206738975292730
  5.6826955901170955  0.0000000000000000 21.4206738975292730
  8.5240433851756432  0.0000000000000000 21.4206738975292730
  0.0000000000000000  2.8413477950585477 21.4206738975292730
  2.8413477950585477  2.8413477950585477 21.4206738975292730
  5.6826955901170955  2.8413477950585477 21.4206738975292730
  8.5240433851756432  2.8413477950585477 21.4206738975292730
  0.0000000000000000  5.6826955901170955 21.4206738975292730
  2.8413477950585477  5.6826955901170955 21.4206738975292730
  5.6826955901170955  5.6826955901170955 21.4206738975292730
  8.5240433851756432  5.6826955901170955 21.4206738975292730
  0.0000000000000000  8.5240433851756432 21.4206738975292730
  2.8413477950585477  8.5240433851756432 21.4206738975292730
  5.6826955901170955  8.5240433851756432 21.4206738975292730
  8.5240433851756432  8.5240433851756432 21.4206738975292730
  1.4206738975292739  1.4206738975292739 22.8413477950585460
  4.2620216925878216  1.4206738975292739 22.8413477950585460
  7.1033694876463693  1.4206738975292739 22.8413477950585460
  9.9447172827049179  1.4206738975292739 22.8413477950585460
  1.4206738975292739  4.2620216925878216 22.8413477950585460
  4.2620216925878216  4.2620216925878216 22.8413477950585460
  7.1033694876463693  4.2620216925878216 22.8413477950585460
  9.9447172827049179  4.2620216925878216 22.8413477950585460
  1.4206738975292739  7.1033694876463693 22.8413477950585460
  4.2620216925878216  7.1033694876463693 22.8413477950585460
  7.1033694876463693  7.1033694876463693 22.8413477950585460
  9.9447172827049179  7.1033694876463693 22.8413477950585460
  1.4206738975292739  9.9447172827049179 22.8413477950585460
  4.2620216925878216  9.9447172827049179 22.8413477950585460
  7.1033694876463693  9.9447172827049179 22.8413477950585460
  9.9447172827049179  9.9447172827049179 22.8413477950585460
  0.0000000000000000  0.0000000000000000 24.2620216925878225
  2.8413477950585477  0.0000000000000000 24.2620216925878225
  5.6826955901170955  0.0000000000000000 24.2620216925878225
  8.5240433851756432  0.0000000000000000 24.2620216925878225
  0.0000000000000000  2.8413477950585477 24.2620216925878225
  2.8413477950585477  2.8413477950585477 24.2620216925878225
  5.6826955901170955  2.8413477950585477 24.2620216925878225
  8.5240433851756432  2.8413477950585477 24.2620216925878225
  0.0000000000000000  5.6826955901170955 24.2620216925878225
  2.8413477950585477  5.6826955901170955 24.2620216925878225
  5.6826955901170955  5.6826955901170955 24.2620216925878225
  8.5240433851756432  5.6826955901170955 24.2620216925878225
  0.0000000000000000  8.5240433851756432 24.2620216925878225
  2.8413477950585477  8.5240433851756432 24.2620216925878225
  5.6826955901170955  8.5240433851756432 24.2620216925878225
  8.5240433851756432  8.5240433851756432 24.2620216925878225
  1.4206738975292739  1.4206738975292739 25.6826955901170955
  4.2620216925878216  1.4206738975292739 25.6826955901170955
  7.1033694876463693  1.4206738975292739 25.6826955901170955
  9.9447172827049179  1.4206738975292739 25.6826955901170955
  1.4206738975292739  4.2620216925878216 25.6826955901170955
  4.2620216925878216  4.2620216925878216 25.6826955901170955
  7.1033694876463693  4.2620216925878216 25.6826955901170955
  9.9447172827049179  4.2620216925878216 25.6826955901170955
  1.4206738975292739  7.1033694876463693 25.6826955901170955
  4.2620216925878216  7.1033694876463693 25.6826955901170955
  7.1033694876463693  7.1033694876463693 25.6826955901170955
  9.9447172827049179  7.1033694876463693 25.6826955901170955
  1.4206738975292739  9.9447172827049179 25.6826955901170955
  4.2620216925878216  9.9447172827049179 25.6826955901170955
  7.1033694876463693  9.9447172827049179 25.6826955901170955
  9.9447172827049179  9.9447172827049179 25.6826955901170955
  0.0000000000000000  0.0000000000000000 27.1033694876463684
  2.8413477950585477  0.0000000000000000 27.1033694876463684
  5.6826955901170955  0.0000000000000000 27.1033694876463684
  8.5240433851756432  0.0000000000000000 27.1033694876463684
  0.0000000000000000  2.8413477950585477 27.1033694876463684
  2.8413477950585477  2.8413477950585477 27.1033694876463684
  5.6826955901170955  2.8413477950585477 27.1033694876463684
  8.5240433851756432  2.8413477950585477 27.1033694876463684
  0.0000000000000000  5.6826955901170955 27.1033694876463684
  2.8413477950585477  5.6826955901170955 27.1033694876463684
  5.6826955901170955  5.6826955901170955 27.1033694876463684
  8.5240433851756432  5.6826955901170955 27.1033694876463684
  0.0000000000000000  8.5240433851756432 27.1033694876463684
  2.8413477950585477  8.5240433851756432 27.1033694876463684
  5.6826955901170955  8.5240433851756432 27.1033694876463684
  8.5240433851756432  8.5240433851756432 27.1033694876463684
  1.4206738975292739  1.4206738975292739 28.5240433851756450
  4.2620216925878216  1.4206738975292739 28.5240433851756450
  7.1033694876463693  1.4206738975292739 28.5240433851756450
  9.9447172827049179  1.4206738975292739 28.5240433851756450
  1.4206738975292739  4.2620216925878216 28.5240433851756450
  4.2620216925878216  4.2620216925878216 28.5240433851756450
  7.1033694876463693  4.2620216925878216 28.5240433851756450
  9.9447172827049179  4.2620216925878216 28.5240433851756450
  1.4206738975292739  7.1033694876463693 28.5240433851756450
  4.2620216925878216  7.1033694876463693 28.5240433851756450
  7.1033694876463693  7.1033694876463693 28.5240433851756450
  9.9447172827049179  7.1033694876463693 28.5240433851756450
  1.4206738975292739  9.9447172827049179 28.5240433851756450
  4.2620216925878216  9.9447172827049179 28.5240433851756450
  7.1033694876463693  9.9447172827049179 28.5240433851756450
  9.9447172827049179  9.9447172827049179 28.5240433851756450
  0.0000000000000000  0.0000000000000000 29.9447172827049179
  2.8413477950585477  0.0000000000000000 29.9447172827049179
  5.6826955901170955  0.0000000000000000 29.9447172827049179
  8.5240433851756432  0.0000000000000000 29.9447172827049179
  0.0000000000000000  2.8413477950585477 29.9447172827049179
  2.8413477950585477  2.8413477950585477 29.9447172827049179
  5.6826955901170955  2.8413477950585477 29.9447172827049179
  8.5240433851756432  2.8413477950585477 29.9447172827049179
  0.0000000000000000  5.6826955901170955 29.9447172827049179
  2.8413477950585477  5.6826955901170955 29.9447172827049179
  5.6826955901170955  5.6826955901170955 29.9447172827049179
  8.5240433851756432  5.6826955901170955 29.9447172827049179
  0.0000000000000000  8.5240433851756432 29.9447172827049179
  2.8413477950585477  8.5240433851756432 29.9447172827049179
  5.6826955901170955  8.5240433851756432 29.9447172827049179
  8.5240433851756432  8.5240433851756432 29.9447172827049179
  1.4206738975292739  1.4206738975292739 31.3653911802341909
  4.2620216925878216  1.4206738975292739 31.3653911802341909
  7.1033694876463693  1.4206738975292739 31.3653911802341909
  9.9447172827049179  1.4206738975292739 31.3653911802341909
  1.4206738975292739  4.2620216925878216 31.3653911802341909
  4.2620216925878216  4.2620216925878216 31.3653911802341909
  7.1033694876463693  4.2620216925878216 31.3653911802341909
  9.9447172827049179  4.2620216925878216 31.3653911802341909
  1.4206738975292739  7.1033694876463693 31.3653911802341909
  4.2620216925878216  7.1033694876463693 31.3653911802341909
  7.1033694876463693  7.1033694876463693 31.3653911802341909
  9.9447172827049179  7.1033694876463693 31.3653911802341909
  1.4206738975292739  9.9447172827049179 31.3653911802341909
  4.2620216925878216  9.9447172827049179 31.3653911802341909
  7.1033694876463693  9.9447172827049179 31.3653911802341909
  9.9447172827049179  9.9447172827049179 31.3653911802341909
  0.0000000000000000  0.0000000000000000 32.7860650777634675
  2.8413477950585477  0.0000000000000000 32.7860650777634675
  5.6826955901170955  0.0000000000000000 32.7860650777634675
  8.5240433851756432  0.0000000000000000 32.7860650777634675
  0.0000000000000000  2.8413477950585477 32.7860650777634675
  2.8413477950585477  2.8413477950585477 32.7860650777634675
  5.6826955901170955  2.8413477950585477 32.7860650777634675
  8.5240433851756432  2.8413477950585477 32.7860650777634675
  0.0000000000000000  5.6826955901170955 32.7860650777634675
  2.8413477950585477  5.6826955901170955 32.7860650777634675
  5.6826955901170955  5.6826955901170955 32.7860650777634675
  8.5240433851756432  5.6826955901170955 32.7860650777634675
  0.0000000000000000  8.5240433851756432 32.7860650777634675
  2.8413477950585477  8.5240433851756432 32.7860650777634675
  5.6826955901170955  8.5240433851756432 32.7860650777634675
  8.5240433851756432  8.5240433851756432 32.7860650777634675
  1.4206738975292739  1.4206738975292739 34.2067389752927369
  4.2620216925878216  1.4206738975292739 34.2067389752927369
  7.1033694876463693  1.4206738975292739 34.2067389752927369
  9.9447172827049179  1.4206738975292739 34.2067389752927369
  1.4206738975292739  4.2620216925878216 34.2067389752927369
  4.2620216925878216  4.2620216925878216 34.2067389752927369
  7.1033694876463693  4.2620216925878216 34.2067389752927369
  9.9447172827049179  4.2620216925878216 34.2067389752927369
  1.4206738975292739  7.1033694876463693 34.2067389752927369
  4.2620216925878216  7.1033694876463693 34.2067389752927369
  7.1033694876463693  7.1033694876463693 34.2067389752927369
  9.9447172827049179  7.1033694876463693 34.2067389752927369
  1.4206738975292739  9.9447172827049179 34.2067389752927369
  4.2620216925878216  9.9447172827049179 34.2067389752927369
  7.1033694876463693  9.9447172827049179 34.2067389752927369
  9.9447172827049179  9.9447172827049179 34.2067389752927369
  0.0000000000000000  0.0000000000000000 35.6274128728220134
  2.8413477950585477  0.0000000000000000 35.6274128728220134
  5.6826955901170955  0.0000000000000000 35.6274128728220134
  8.5240433851756432  0.0000000000000000 35.6274128728220134
  0.0000000000000000  2.8413477950585477 35.6274128728220134
  2.8413477950585477  2.8413477950585477 35.6274128728220134
  5.6826955901170955  2.8413477950585477 35.6274128728220134
  8.5240433851756432  2.8413477950585477 35.6274128728220134
  0.0000000000000000  5.6826955901170955 35.6274128728220134
  2.8413477950585477  5.6826955901170955 35.6274128728220134
  5.6826955901170955  5.6826955901170955 35.6274128728220134
  8.5240433851756432  5.6826955901170955 35.6274128728220134
  0.0000000000000000  8.5240433851756432 35.6274128728220134
  2.8413477950585477  8.5240433851756432 35.6274128728220134
  5.6826955901170955  8.5240433851756432 35.6274128728220134
  8.5240433851756432  8.5240433851756432 35.6274128728220134
  1.4206738975292739  1.4206738975292739 37.0480867703512899
  4.2620216925878216  1.4206738975292739 37.0480867703512899
  7.1033694876463693  1.4206738975292739 37.0480867703512899
  9.9447172827049179  1.4206738975292739 37.0480867703512899
  1.4206738975292739  4.2620216925878216 37.0480867703512899
  4.2620216925878216  4.2620216925878216 37.0480867703512899
  7.1033694876463693  4.2620216925878216 37.0480867703512899
  9.9447172827049179  4.2620216925878216 37.0480867703512899
  1.4206738975292739  7.1033694876463693 37.0480867703512899
  4.2620216925878216  7.1033694876463693 37.0480867703512899
  7.1033694876463693  7.1033694876463693 37.0480867703512899
  9.9447172827049179  7.1033694876463693 37.0480867703512899
  1.4206738975292739  9.9447172827049179 37.0480867703512899
  4.2620216925878216  9.9447172827049179 37.0480867703512899
  7.1033694876463693  9.9447172827049179 37.0480867703512899
  9.9447172827049179  9.9447172827049179 37.0480867703512899
  0.0000000000000000  0.0000000000000000 38.4687606678805594
  2.8413477950585477  0.0000000000000000 38.4687606678805594
  5.6826955901170955  0.0000000000000000 38.4687606678805594
  8.5240433851756432  0.0000000000000000 38.4687606678805594
  0.0000000000000000  2.8413477950585477 38.4687606678805594
  2.8413477950585477  2.8413477950585477 38.4687606678805594
  5.6826955901170955  2.8413477950585477 38.4687606678805594
  8.5240433851756432  2.8413477950585477 38.4687606678805594
  0.0000000000000000  5.6826955901170955 38.4687606678805594
  2.8413477950585477  5.6826955901170955 38.4687606678805594
  5.6826955901170955  5.6826955901170955 38.4687606678805594
  8.5240433851756432  5.6826955901170955 38.4687606678805594
  0.0000000000000000  8.5240433851756432 38.4687606678805594
  2.8413477950585477  8.5240433851756432 38.4687606678805594
  5.6826955901170955  8.5240433851756432 38.4687606678805594
  8.5240433851756432  8.5240433851756432 38.4687606678805594
  1.4206738975292739  1.4206738975292739 39.8894345654098359
  4.2620216925878216  1.4206738975292739 39.8894345654098359
  7.1033694876463693  1.4206738975292739 39.8894345654098359
  9.9447172827049179  1.4206738975292739 39.8894345654098359
  1.4206738975292739  4.2620216925878216 39.8894345654098359
  4.2620216925878216  4.2620216925878216 39.8894345654098359
  7.1033694876463693  4.2620216925878216 39.8894345654098359
  9.9447172827049179  4.2620216925878216 39.8894345654098359
  1.4206738975292739  7.1033694876463693 39.8894345654098359
  4.2620216925878216  7.1033694876463693 39.8894345654098359
  7.1033694876463693  7.1033694876463693 39.8894345654098359
  9.9447172827049179  7.1033694876463693 39.8894345654098359
  1.4206738975292739  9.9447172827049179 39.8894345654098359
  4.2620216925878216  9.9447172827049179 39.8894345654098359
  7.1033694876463693  9.9447172827049179 39.8894345654098359
  9.9447172827049179  9.9447172827049179 39.8894345654098359
  0.0000000000000000  0.0000000000000000 41.3101084629391124
  2.8413477950585477  0.0000000000000000 41.3101084629391124
  5.6826955901170955  0.0000000000000000 41.3101084629391124
  8.5240433851756432  0.0000000000000000 41.3101084629391124
  0.0000000000000000  2.8413477950585477 41.3101084629391124
  2.8413477950585477  2.8413477950585477 41.3101084629391124
  5.6826955901170955  2.8413477950585477 41.3101084629391124
  8.5240433851756432  2.8413477950585477 41.3101084629391124
  0.0000000000000000  5.6826955901170955 41.3101084629391124
  2.8413477950585477  5.6826955901170955 41.3101084629391124
  5.6826955901170955  5.6826955901170955 41.3101084629391124
  8.5240433851756432  5.6826955901170955 41.3101084629391124
  0.0000000000000000  8.5240433851756432 41.3101084629391124
  2.8413477950585477  8.5240433851756432 41.3101084629391124
  5.6826955901170955  8.5240433851756432 41.3101084629391124
  8.5240433851756432  8.5240433851756432 41.3101084629391124
  1.4206738975292739  1.4206738975292739 42.7307823604683819
  4.2620216925878216  1.4206738975292739 42.7307823604683819
  7.1033694876463693  1.4206738975292739 42.7307823604683819
  9.9447172827049179  1.4206738975292739 42.7307823604683819
  1.4206738975292739  4.2620216925878216 42.7307823604683819
  4.2620216925878216  4.2620216925878216 42.7307823604683819
  7.1033694876463693  4.2620216925878216 42.7307823604683819
  9.9447172827049179  4.2620216925878216 42.7307823604683819
  1.4206738975292739  7.1033694876463693 42.7307823604683819
  4.2620216925878216  7.1033694876463693 42.7307823604683819
  7.1033694876463693  7.1033694876463693 42.7307823604683819
  9.9447172827049179  7.1033694876463693 42.7307823604683819
  1.4206738975292739  9.9447172827049179 42.7307823604683819
  4.2620216925878216  9.9447172827049179 42.7307823604683819
  7.1033694876463693  9.9447172827049179 42.7307823604683819
  9.9447172827049179  9.9447172827049179 42.7307823604683819
  0.0000000000000000  0.0000000000000000 44.1514562579976513
  2.8413477950585477  0.0000000000000000 44.1514562579976513
  5.6826955901170955  0.0000000000000000 44.1514562579976513
  8.5240433851756432  0.0000000000000000 44.1514562579976513
  0.0000000000000000  2.8413477950585477 44.1514562579976513
  2.8413477950585477  2.8413477950585477 44.1514562579976513
  5.6826955901170955  2.8413477950585477 44.1514562579976513
  8.5240433851756432  2.8413477950585477 44.1514562579976513
  0.0000000000000000  5.6826955901170955 44.1514562579976513
  2.8413477950585477  5.6826955901170955 44.1514562579976513
  5.6826955901170955  5.6826955901170955 44.1514562579976513
  8.5240433851756432  5.6826955901170955 44.1514562579976513
  0.0000000000000000  8.5240433851756432 44.1514562579976513
  2.8413477950585477  8.5240433851756432 44.1514562579976513
  5.6826955901170955  8.5240433851756432 44.1514562579976513
  8.5240433851756432  8.5240433851756432 44.1514562579976513
  1.4206738975292739  1.4206738975292739 45.5721301555269278
  4.2620216925878216  1.4206738975292739 45.5721301555269278
  7.1033694876463693  1.4206738975292739 45.5721301555269278
  9.9447172827049179  1.4206738975292739 45.5721301555269278
  1.4206738975292739  4.2620216925878216 45.5721301555269278
  4.2620216925878216  4.2620216925878216 45.5721301555269278
  7.1033694876463693  4.2620216925878216 45.5721301555269278
  9.9447172827049179  4.2620216925878216 45.5721301555269278
  1.4206738975292739  7.1033694876463693 45.5721301555269278
  4.2620216925878216  7.1033694876463693 45.5721301555269278
  7.1033694876463693  7.1033694876463693 45.5721301555269278
  9.9447172827049179  7.1033694876463693 45.5721301555269278
  1.4206738975292739  9.9447172827049179 45.5721301555269278
  4.2620216925878216  9.9447172827049179 45.5721301555269278
  7.1033694876463693  9.9447172827049179 45.5721301555269278
  9.9447172827049179  9.9447172827049179 45.5721301555269278
  0.0000000000000000  0.0000000000000000 46.9928040530562043
  2.8413477950585477  0.0000000000000000 46.9928040530562043
  5.6826955901170955  0.0000000000000000 46.9928040530562043
  8.5240433851756432  0.0000000000000000 46.9928040530562043
  0.0000000000000000  2.8413477950585477 46.9928040530562043
  2.8413477950585477  2.8413477950585477 46.9928040530562043
  5.6826955901170955  2.8413477950585477 46.9928040530562043
  8.5240433851756432  2.8413477950585477 46.9928040530562043
  0.0000000000000000  5.6826955901170955 46.9928040530562043
  2.8413477950585477  5.6826955901170955 46.9928040530562043
  5.6826955901170955  5.6826955901170955 46.9928040530562043
  8.5240433851756432  5.6826955901170955 46.9928040530562043
  0.0000000000000000  8.5240433851756432 46.9928040530562043
  2.8413477950585477  8.5240433851756432 46.9928040530562043
  5.6826955901170955  8.5240433851756432 46.9928040530562043
  8.5240433851756432  8.5240433851756432 46.9928040530562043
