Fe
 1.0000000000000000
    16.0730903487627508    0.0000000000000000    0.0000000000000000
     0.0000000000000000   13.9197045593510236    0.0000000000000000
     0.0000000000000000    0.0000000000000000   55.5843026862148193
 Fe 
 320
Cartesian
  0.0000000000000000  2.3199507598918370 20.0000000000000000
  4.0182725871906877  2.3199507598918370 20.0000000000000000
  8.0365451743813754  2.3199507598918370 20.0000000000000000
 12.0548177615720640  2.3199507598918370 20.0000000000000000
  2.0091362935953438  5.7998768997295924 20.0000000000000000
  6.0274088807860320  5.7998768997295924 20.0000000000000000
 10.0456814679767188  5.7998768997295924 20.0000000000000000
 14.0639540551674074  5.7998768997295924 20.0000000000000000
  0.0000000000000000  9.2798030395673479 20.0000000000000000
  4.0182725871906877  9.2798030395673479 20.0000000000000000
  8.0365451743813754  9.2798030395673479 20.0000000000000000
 12.0548177615720640  9.2798030395673479 20.0000000000000000
  2.0091362935953438 12.7597291794051042 20.0000000000000000
  6.0274088807860320 12.7597291794051042 20.0000000000000000
 10.0456814679767188 12.7597291794051042 20.0000000000000000
 14.0639540551674074 12.7597291794051042 20.0000000000000000
  0.0000000000000000  0.0000000000000000 20.8202264571692020
  4.0182725871906877  0.0000000000000000 20.8202264571692020
  8.0365451743813754  0.0000000000000000 20.8202264571692020
 12.0548177615720640  0.0000000000000000 20.8202264571692020
  2.0091362935953438  3.4799261398377559 20.8202264571692020
  6.0274088807860320  3.4799261398377559 20.8202264571692020
 10.0456814679767188  3.4799261398377559 20.8202264571692020
 14.0639540551674074  3.4799261398377559 20.8202264571692020
  0.0000000000000000  6.9598522796755118 20.8202264571692020
  4.0182725871906877  6.9598522796755118 20.8202264571692020
  8.0365451743813754  6.9598522796755118 20.8202264571692020
 12.0548177615720640  6.9598522796755118 20.8202264571692020
  2.0091362935953438 10.4397784195132672 20.8202264571692020
  6.0274088807860320 10.4397784195132672 20.8202264571692020
 10.0456814679767188 10.4397784195132672 20.8202264571692020
 14.0639540551674074 10.4397784195132672 20.8202264571692020
  2.0091362935953438  1.1599753799459185 21.6404529143384039
  6.0274088807860320  1.1599753799459185 21.6404529143384039
 10.0456814679767188  1.1599753799459185 21.6404529143384039
 14.0639540551674074  1.1599753799459185 21.6404529143384039
  0.0000000000000000  4.6399015197836739 21.6404529143384039
  4.0182725871906877  4.6399015197836739 21.6404529143384039
  8.0365451743813754  4.6399015197836739 21.6404529143384039
 12.0548177615720640  4.6399015197836739 21.6404529143384039
  2.0091362935953438  8.1198276596214303 21.6404529143384039
  6.0274088807860320  8.1198276596214303 21.6404529143384039
 10.0456814679767188  8.1198276596214303 21.6404529143384039
 14.0639540551674074  8.1198276596214303 21.6404529143384039
  0.0000000000000000 11.5997537994591866 21.6404529143384039
  4.0182725871906877 11.5997537994591866 21.6404529143384039
  8.0365451743813754 11.5997537994591866 21.6404529143384039
 12.0548177615720640 11.5997537994591866 21.6404529143384039
  0.0000000000000000  2.3199507598918370 22.4606793715076023
  4.0182725871906877  2.3199507598918370 22.4606793715076023
  8.0365451743813754  2.3199507598918370 22.4606793715076023
 12.0548177615720640  2.3199507598918370 22.4606793715076023
  2.0091362935953438  5.7998768997295924 22.4606793715076023
  6.0274088807860320  5.7998768997295924 22.4606793715076023
 10.0456814679767188  5.7998768997295924 22.4606793715076023
 14.0639540551674074  5.7998768997295924 22.4606793715076023
  0.0000000000000000  9.2798030395673479 22.4606793715076023
  4.0182725871906877  9.2798030395673479 22.4606793715076023
  8.0365451743813754  9.2798030395673479 22.4606793715076023
 12.0548177615720640  9.2798030395673479 22.4606793715076023
  2.0091362935953438 12.7597291794051042 22.4606793715076023
  6.0274088807860320 12.7597291794051042 22.4606793715076023
 10.0456814679767188 12.7597291794051042 22.4606793715076023
 14.0639540551674074 12.7597291794051042 22.4606793715076023
  0.0000000000000000  0.0000000000000000 23.2809058286768042
  4.0182725871906877  0.0000000000000000 23.2809058286768042
  8.0365451743813754  0.0000000000000000 23.2809058286768042
 12.0548177615720640  0.0000000000000000 23.2809058286768042
  2.0091362935953438  3.4799261398377559 23.2809058286768042
  6.0274088807860320  3.4799261398377559 23.2809058286768042
 10.0456814679767188  3.4799261398377559 23.2809058286768042
 14.0639540551674074  3.4799261398377559 23.2809058286768042
  0.0000000000000000  6.9598522796755118 23.2809058286768042
  4.0182725871906877  6.9598522796755118 23.2809058286768042
  8.0365451743813754  6.9598522796755118 23.2809058286768042
 12.0548177615720640  6.9598522796755118 23.2809058286768042
  2.0091362935953438 10.4397784195132672 23.2809058286768042
  6.0274088807860320 10.4397784195132672 23.2809058286768042
 10.0456814679767188 10.4397784195132672 23.2809058286768042
 14.0639540551674074 10.4397784195132672 23.2809058286768042
  2.0091362935953438  1.1599753799459185 24.1011322858460062
  6.0274088807860320  1.1599753799459185 24.1011322858460062
 10.0456814679767188  1.1599753799459185 24.1011322858460062
 14.0639540551674074  1.1599753799459185 24.1011322858460062
  0.0000000000000000  4.6399015197836739 24.1011322858460062
  4.0182725871906877  4.6399015197836739 24.1011322858460062
  8.0365451743813754  4.6399015197836739 24.1011322858460062
 12.0548177615720640  4.6399015197836739 24.1011322858460062
  2.0091362935953438  8.1198276596214303 24.1011322858460062
  6.0274088807860320  8.1198276596214303 24.1011322858460062
 10.0456814679767188  8.1198276596214303 24.1011322858460062
 14.0639540551674074  8.1198276596214303 24.1011322858460062
  0.0000000000000000 11.5997537994591866 24.1011322858460062
  4.0182725871906877 11.5997537994591866 24.1011322858460062
  8.0365451743813754 11.5997537994591866 24.1011322858460062
 12.0548177615720640 11.5997537994591866 24.1011322858460062
  0.0000000000000000  2.3199507598918370 24.9213587430152046
  4.0182725871906877  2.3199507598918370 24.9213587430152046
  8.0365451743813754  2.3199507598918370 24.9213587430152046
 12.0548177615720640  2.3199507598918370 24.9213587430152046
  2.0091362935953438  5.7998768997295924 24.9213587430152046
  6.0274088807860320  5.7998768997295924 24.9213587430152046
 10.0456814679767188  5.7998768997295924 24.9213587430152046
 14.0639540551674074  5.7998768997295924 24.9213587430152046
  0.0000000000000000  9.2798030395673479 24.9213587430152046
  4.0182725871906877  9.2798030395673479 24.9213587430152046
  8.0365451743813754  9.2798030395673479 24.9213587430152046
 12.0548177615720640  9.2798030395673479 24.9213587430152046
  2.0091362935953438 12.7597291794051042 24.9213587430152046
  6.0274088807860320 12.7597291794051042 24.9213587430152046
 10.0456814679767188 12.7597291794051042 24.9213587430152046
 14.0639540551674074 12.7597291794051042 24.9213587430152046
  0.0000000000000000  0.0000000000000000 25.7415852001844065
  4.0182725871906877  0.0000000000000000 25.7415852001844065
  8.0365451743813754  0.0000000000000000 25.7415852001844065
 12.0548177615720640  0.0000000000000000 25.7415852001844065
  2.0091362935953438  3.4799261398377559 25.7415852001844065
  6.0274088807860320  3.4799261398377559 25.7415852001844065
 10.0456814679767188  3.4799261398377559 25.7415852001844065
 14.0639540551674074  3.4799261398377559 25.7415852001844065
  0.0000000000000000  6.9598522796755118 25.7415852001844065
  4.0182725871906877  6.9598522796755118 25.7415852001844065
  8.0365451743813754  6.9598522796755118 25.7415852001844065
 12.0548177615720640  6.9598522796755118 25.7415852001844065
  2.0091362935953438 10.4397784195132672 25.7415852001844065
  6.0274088807860320 10.4397784195132672 25.7415852001844065
 10.0456814679767188 10.4397784195132672 25.7415852001844065
 14.0639540551674074 10.4397784195132672 25.7415852001844065
  2.0091362935953438  1.1599753799459185 26.5618116573536085
  6.0274088807860320  1.1599753799459185 26.5618116573536085
 10.0456814679767188  1.1599753799459185 26.5618116573536085
 14.0639540551674074  1.1599753799459185 26.5618116573536085
  0.0000000000000000  4.6399015197836739 26.5618116573536085
  4.0182725871906877  4.6399015197836739 26.5618116573536085
  8.0365451743813754  4.6399015197836739 26.5618116573536085
 12.0548177615720640  4.6399015197836739 26.5618116573536085
  2.0091362935953438  8.1198276596214303 26.5618116573536085
  6.0274088807860320  8.1198276596214303 26.5618116573536085
 10.0456814679767188  8.1198276596214303 26.5618116573536085
 14.0639540551674074  8.1198276596214303 26.5618116573536085
  0.0000000000000000 11.5997537994591866 26.5618116573536085
  4.0182725871906877 11.5997537994591866 26.5618116573536085
  8.0365451743813754 11.5997537994591866 26.5618116573536085
 12.0548177615720640 11.5997537994591866 26.5618116573536085
  0.0000000000000000  2.3199507598918370 27.3820381145228104
  4.0182725871906877  2.3199507598918370 27.3820381145228104
  8.0365451743813754  2.3199507598918370 27.3820381145228104
 12.0548177615720640  2.3199507598918370 27.3820381145228104
  2.0091362935953438  5.7998768997295924 27.3820381145228104
  6.0274088807860320  5.7998768997295924 27.3820381145228104
 10.0456814679767188  5.7998768997295924 27.3820381145228104
 14.0639540551674074  5.7998768997295924 27.3820381145228104
  0.0000000000000000  9.2798030395673479 27.3820381145228104
  4.0182725871906877  9.2798030395673479 27.3820381145228104
  8.0365451743813754  9.2798030395673479 27.3820381145228104
 12.0548177615720640  9.2798030395673479 27.3820381145228104
  2.0091362935953438 12.7597291794051042 27.3820381145228104
  6.0274088807860320 12.7597291794051042 27.3820381145228104
 10.0456814679767188 12.7597291794051042 27.3820381145228104
 14.0639540551674074 12.7597291794051042 27.3820381145228104
  0.0000000000000000  0.0000000000000000 28.2022645716920124
  4.0182725871906877  0.0000000000000000 28.2022645716920124
  8.0365451743813754  0.0000000000000000 28.2022645716920124
 12.0548177615720640  0.0000000000000000 28.2022645716920124
  2.0091362935953438  3.4799261398377559 28.2022645716920124
  6.0274088807860320  3.4799261398377559 28.2022645716920124
 10.0456814679767188  3.4799261398377559 28.2022645716920124
 14.0639540551674074  3.4799261398377559 28.2022645716920124
  0.0000000000000000  6.9598522796755118 28.2022645716920124
  4.0182725871906877  6.9598522796755118 28.2022645716920124
  8.0365451743813754  6.9598522796755118 28.2022645716920124
 12.0548177615720640  6.9598522796755118 28.2022645716920124
  2.0091362935953438 10.4397784195132672 28.2022645716920124
  6.0274088807860320 10.4397784195132672 28.2022645716920124
 10.0456814679767188 10.4397784195132672 28.2022645716920124
 14.0639540551674074 10.4397784195132672 28.2022645716920124
  2.0091362935953438  1.1599753799459185 29.0224910288612108
  6.0274088807860320  1.1599753799459185 29.0224910288612108
 10.0456814679767188  1.1599753799459185 29.0224910288612108
 14.0639540551674074  1.1599753799459185 29.0224910288612108
  0.0000000000000000  4.6399015197836739 29.0224910288612108
  4.0182725871906877  4.6399015197836739 29.0224910288612108
  8.0365451743813754  4.6399015197836739 29.0224910288612108
 12.0548177615720640  4.6399015197836739 29.0224910288612108
  2.0091362935953438  8.1198276596214303 29.0224910288612108
  6.0274088807860320  8.1198276596214303 29.0224910288612108
 10.0456814679767188  8.1198276596214303 29.0224910288612108
 14.0639540551674074  8.1198276596214303 29.0224910288612108
  0.0000000000000000 11.5997537994591866 29.0224910288612108
  4.0182725871906877 11.5997537994591866 29.0224910288612108
  8.0365451743813754 11.5997537994591866 29.0224910288612108
 12.0548177615720640 11.5997537994591866 29.0224910288612108
  0.0000000000000000  2.3199507598918370 29.8427174860304127
  4.0182725871906877  2.3199507598918370 29.8427174860304127
  8.0365451743813754  2.3199507598918370 29.8427174860304127
 12.0548177615720640  2.3199507598918370 29.8427174860304127
  2.0091362935953438  5.7998768997295924 29.8427174860304127
  6.0274088807860320  5.7998768997295924 29.8427174860304127
 10.0456814679767188  5.7998768997295924 29.8427174860304127
 14.0639540551674074  5.7998768997295924 29.8427174860304127
  0.0000000000000000  9.2798030395673479 29.8427174860304127
  4.0182725871906877  9.2798030395673479 29.8427174860304127
  8.0365451743813754  9.2798030395673479 29.8427174860304127
 12.0548177615720640  9.2798030395673479 29.8427174860304127
  2.0091362935953438 12.7597291794051042 29.8427174860304127
  6.0274088807860320 12.7597291794051042 29.8427174860304127
 10.0456814679767188 12.7597291794051042 29.8427174860304127
 14.0639540551674074 12.7597291794051042 29.8427174860304127
  0.0000000000000000  0.0000000000000000 30.6629439431996147
  4.0182725871906877  0.0000000000000000 30.6629439431996147
  8.0365451743813754  0.0000000000000000 30.6629439431996147
 12.0548177615720640  0.0000000000000000 30.6629439431996147
  2.0091362935953438  3.4799261398377559 30.6629439431996147
  6.0274088807860320  3.4799261398377559 30.6629439431996147
 10.0456814679767188  3.4799261398377559 30.6629439431996147
 14.0639540551674074  3.4799261398377559 30.6629439431996147
  0.0000000000000000  6.9598522796755118 30.6629439431996147
  4.0182725871906877  6.9598522796755118 30.6629439431996147
  8.0365451743813754  6.9598522796755118 30.6629439431996147
 12.0548177615720640  6.9598522796755118 30.6629439431996147
  2.0091362935953438 10.4397784195132672 30.6629439431996147
  6.0274088807860320 10.4397784195132672 30.6629439431996147
 10.0456814679767188 10.4397784195132672 30.6629439431996147
 14.0639540551674074 10.4397784195132672 30.6629439431996147
  2.0091362935953438  1.1599753799459185 31.4831704003688131
  6.0274088807860320  1.1599753799459185 31.4831704003688131
 10.0456814679767188  1.1599753799459185 31.4831704003688131
 14.0639540551674074  1.1599753799459185 31.4831704003688131
  0.0000000000000000  4.6399015197836739 31.4831704003688131
  4.0182725871906877  4.6399015197836739 31.4831704003688131
  8.0365451743813754  4.6399015197836739 31.4831704003688131
 12.0548177615720640  4.6399015197836739 31.4831704003688131
  2.0091362935953438  8.1198276596214303 31.4831704003688131
  6.0274088807860320  8.1198276596214303 31.4831704003688131
 10.0456814679767188  8.1198276596214303 31.4831704003688131
 14.0639540551674074  8.1198276596214303 31.4831704003688131
  0.0000000000000000 11.5997537994591866 31.4831704003688131
  4.0182725871906877 11.5997537994591866 31.4831704003688131
  8.0365451743813754 11.5997537994591866 31.4831704003688131
 12.0548177615720640 11.5997537994591866 31.4831704003688131
  0.0000000000000000  2.3199507598918370 32.3033968575380186
  4.0182725871906877  2.3199507598918370 32.3033968575380186
  8.0365451743813754  2.3199507598918370 32.3033968575380186
 12.0548177615720640  2.3199507598918370 32.3033968575380186
  2.0091362935953438  5.7998768997295924 32.3033968575380186
  6.0274088807860320  5.7998768997295924 32.3033968575380186
 10.0456814679767188  5.7998768997295924 32.3033968575380186
 14.0639540551674074  5.7998768997295924 32.3033968575380186
  0.0000000000000000  9.2798030395673479 32.3033968575380186
  4.0182725871906877  9.2798030395673479 32.3033968575380186
  8.0365451743813754  9.2798030395673479 32.3033968575380186
 12.0548177615720640  9.2798030395673479 32.3033968575380186
  2.0091362935953438 12.7597291794051042 32.3033968575380186
  6.0274088807860320 12.7597291794051042 32.3033968575380186
 10.0456814679767188 12.7597291794051042 32.3033968575380186
 14.0639540551674074 12.7597291794051042 32.3033968575380186
  0.0000000000000000  0.0000000000000000 33.1236233147072170
  4.0182725871906877  0.0000000000000000 33.1236233147072170
  8.0365451743813754  0.0000000000000000 33.1236233147072170
 12.0548177615720640  0.0000000000000000 33.1236233147072170
  2.0091362935953438  3.4799261398377559 33.1236233147072170
  6.0274088807860320  3.4799261398377559 33.1236233147072170
 10.0456814679767188  3.4799261398377559 33.1236233147072170
 14.0639540551674074  3.4799261398377559 33.1236233147072170
  0.0000000000000000  6.9598522796755118 33.1236233147072170
  4.0182725871906877  6.9598522796755118 33.1236233147072170
  8.0365451743813754  6.9598522796755118 33.1236233147072170
 12.0548177615720640  6.9598522796755118 33.1236233147072170
  2.0091362935953438 10.4397784195132672 33.1236233147072170
  6.0274088807860320 10.4397784195132672 33.1236233147072170
 10.0456814679767188 10.4397784195132672 33.1236233147072170
 14.0639540551674074 10.4397784195132672 33.1236233147072170
  2.0091362935953438  1.1599753799459185 33.9438497718764154
  6.0274088807860320  1.1599753799459185 33.9438497718764154
 10.0456814679767188  1.1599753799459185 33.9438497718764154
 14.0639540551674074  1.1599753799459185 33.9438497718764154
  0.0000000000000000  4.6399015197836739 33.9438497718764154
  4.0182725871906877  4.6399015197836739 33.9438497718764154
  8.0365451743813754  4.6399015197836739 33.9438497718764154
 12.0548177615720640  4.6399015197836739 33.9438497718764154
  2.0091362935953438  8.1198276596214303 33.9438497718764154
  6.0274088807860320  8.1198276596214303 33.9438497718764154
 10.0456814679767188  8.1198276596214303 33.9438497718764154
 14.0639540551674074  8.1198276596214303 33.9438497718764154
  0.0000000000000000 11.5997537994591866 33.9438497718764154
  4.0182725871906877 11.5997537994591866 33.9438497718764154
  8.0365451743813754 11.5997537994591866 33.9438497718764154
 12.0548177615720640 11.5997537994591866 33.9438497718764154
  0.0000000000000000  2.3199507598918370 34.7640762290456209
  4.0182725871906877  2.3199507598918370 34.7640762290456209
  8.0365451743813754  2.3199507598918370 34.7640762290456209
 12.0548177615720640  2.3199507598918370 34.7640762290456209
  2.0091362935953438  5.7998768997295924 34.7640762290456209
  6.0274088807860320  5.7998768997295924 34.7640762290456209
 10.0456814679767188  5.7998768997295924 34.7640762290456209
 14.0639540551674074  5.7998768997295924 34.7640762290456209
  0.0000000000000000  9.2798030395673479 34.7640762290456209
  4.0182725871906877  9.2798030395673479 34.7640762290456209
  8.0365451743813754  9.2798030395673479 34.7640762290456209
 12.0548177615720640  9.2798030395673479 34.7640762290456209
  2.0091362935953438 12.7597291794051042 34.7640762290456209
  6.0274088807860320 12.7597291794051042 34.7640762290456209
 10.0456814679767188 12.7597291794051042 34.7640762290456209
 14.0639540551674074 12.7597291794051042 34.7640762290456209
  0.0000000000000000  0.0000000000000000 35.5843026862148193
  4.0182725871906877  0.0000000000000000 35.5843026862148193
  8.0365451743813754  0.0000000000000000 35.5843026862148193
 12.0548177615720640  0.0000000000000000 35.5843026862148193
  2.0091362935953438  3.4799261398377559 35.5843026862148193
  6.0274088807860320  3.4799261398377559 35.5843026862148193
 10.0456814679767188  3.4799261398377559 35.5843026862148193
 14.0639540551674074  3.4799261398377559 35.5843026862148193
  0.0000000000000000  6.9598522796755118 35.5843026862148193
  4.0182725871906877  6.9598522796755118 35.5843026862148193
  8.0365451743813754  6.9598522796755118 35.5843026862148193
 12.0548177615720640  6.9598522796755118 35.5843026862148193
  2.0091362935953438 10.4397784195132672 35.5843026862148193
  6.0274088807860320 10.4397784195132672 35.5843026862148193
 10.0456814679767188 10.4397784195132672 35.5843026862148193
 14.0639540551674074 10.4397784195132672 35.5843026862148193
