Fe
 1.0000000000000000
    11.3653911802341909    0.0000000000000000    0.0000000000000000
     0.0000000000000000   11.3653911547613085    0.0000000000000000
     0.0000000000000000    0.0000000000000000   11.3653912129372650
 Fe 
 127
Cartesian
  1.4206739931138079  1.4206719509347570  1.4206741442813762
 -0.0000003638562388 -0.0000009175751526  2.8413443401852643
  1.4206759495569667  1.4206738584998746  4.2620233555805980
  0.0000019413000091 -0.0000000970021929  5.6826965166481651
  1.4206740378433727  1.4206731184080184  7.1033680006695628
 -0.0000002249725809  0.0000010507287411  8.5240418283067800
  1.4206738466439284  1.4206739439141471  9.9447169072509318
 -0.0000013327961469  2.8413486080767432 -0.0000003976929603
  1.4206748596661125  4.2620219714231267  1.4206754574635816
 -0.0000000364185076  2.8413478453047434  2.8413467139209252
  1.4206746572199263  4.2620214219311707  4.2620222391819622
  0.0000012616357487  2.8413483791366780  5.6826963124832268
  1.4206743566243678  4.2620194032389653  7.1033696252241691
  0.0000003971013809  2.8413485561930680  8.5240442194651518
  1.4206722924005373  4.2620216466562537  9.9447151402964558
 -0.0000018252664403  5.6826947869274926 -0.0000008329992879
  1.4206763086791732  7.1033688799698815  1.4206738801843297
 -0.0000009477847290  5.6826962353265635  2.8413486106528039
  1.4206741479506415  7.1033684930324359  4.2620214366680509
 -0.0000025255368638  5.6826954311492903  5.6826938902090438
  1.4206745105602503  7.1033718967553412  7.1033704610443635
  0.0000004569691270  5.6826945664216559  8.5240450631804823
  1.4206740838279677  7.1033702479966880  9.9447162242569842
  0.0000013986652162  8.5240455610602250  0.0000000839135558
  1.4206705599134386  9.9447193417363042  1.4206725609612205
 -0.0000020378434467  8.5240446910135059  2.8413469292694833
  1.4206739728475566  9.9447172762603557  4.2620228464450314
  0.0000001585664832  8.5240435233739760  5.6826958320752290
  1.4206752547555290  9.9447175783106534  7.1033693274872238
  0.0000015811942630  8.5240428186259152  8.5240448738513450
  1.4206733920004162  9.9447157494899390  9.9447172181645946
  2.8413476631925523  0.0000007292407349  0.0000012713728028
  4.2620207354800481  1.4206746364242735  1.4206749920164190
  2.8413483068434191  0.0000014087788681  2.8413472714058861
  4.2620225612362717  1.4206729843355648  4.2620208297561719
  2.8413459326156350  0.0000002444937314  5.6826961496463815
  4.2620215684939806  1.4206743461014688  7.1033697378705574
  2.8413479787731100 -0.0000002864027556  8.5240435757930175
  4.2620226767712772  1.4206744413536729  9.9447172943846844
  2.8413495504712363  2.8413467822777245  0.0000001905633984
  4.2620213489643186  4.2620217790752806  1.4206743731359917
  2.8413483050953716  2.8413480444423973  2.8413469223770691
  4.2620218452854211  4.2620214625659472  4.2620221534685268
  2.8413458714243944  2.8413481079198801  5.6826955744694851
  4.2620229034032526  4.2620209309401407  7.1033698319092089
  2.8413486653373172  2.8413489825568883  8.5240436459439923
  4.2620230061709101  4.2620207423006571  9.9447159880747442
  2.8413495670711089  5.6826986834580779  0.0000014145563056
  4.2620207038918050  7.1033692536110156  1.4206720063811333
  2.8413474771881617  5.6826960126471482  2.8413468222506952
  4.2620218252398061  7.1033706997608315  4.2620223352403004
  2.8413492356467360  5.6826960080989952  5.6826949482931299
  4.2620220302073228  7.1033715174531666  7.1033680550504616
  2.8413480242195099  5.6826949250742267  8.5240445184650380
  4.2620209005706000  7.1033684248684512  9.9447190209267511
  2.8413480371950071  8.5240419322354324 -0.0000000062909600
  4.2620231101165480  9.9447161449956702  1.4206732638012942
  2.8413490924098639  8.5240415947210799  2.8413481717257039
  4.2620222186171803  9.9447165584493078  4.2620221404811547
  2.8413486654969855  8.5240422847375807  5.6826967446270702
  4.2620205868335352  9.9447151520265713  7.1033706217521226
  2.8413472246551010  8.5240438261855687  8.5240417469876526
  4.2620222831807597  9.9447189051045815  9.9447164138385542
  5.6826964025410831 -0.0000003572387628 -0.0000013253562501
  7.1033686518953045  1.4206741522507367  1.4206747306897867
  5.6826960719006738  0.0000016123348042  2.8413481252620123
  7.1033680880961096  1.4206740879673196  4.2620213634621003
  5.6826954975505393  0.0000024480039765  5.6826942855787648
  7.1033687789943709  1.4206741396622196  7.1033692786620817
  5.6826958729545574 -0.0000004617596269  8.5240454310424152
  7.1033696098362267  1.4206718811490886  9.9447172443665597
  5.6826951344508627  2.8413478836413399  0.0000002450443839
  7.1033707669455408  4.2620213871964712  1.4206734559615275
  5.6826960124225163  2.8413465655524255  2.8413484746662454
  7.1033695995489863  4.2620199733006237  4.2620217057251679
  5.6826963872163816  2.8413474302725610  5.6826954213319967
  7.1033683496066296  4.2620225421540274  7.1033693022951212
  5.6826937310704162  2.8413486851493421  8.5240426135822354
  7.1033682928818909  4.2620227306232952  9.9447170399233595
  5.6826956332500966  5.6826972126513242 -0.0000001748543970
  7.1033681039288821  7.1033698093595561  1.4206723921483739
  5.6826956194162763  5.6826959347360386  2.8413480844508774
  7.1033677747487367  7.1033721569995691  4.2620224410219052
  5.6826948889005795  5.6826959717871803  5.6826963373790713
  7.1033695157192165  7.1033693528122051  7.1033704392863113
  5.6826964131395687  5.6826948917155660  8.5240427420510390
  7.1033696168783447  7.1033679689103542  9.9447185397761846
  5.6826952052953992  8.5240419370704821  0.0000011060757907
  7.1033675445037234  9.9447160873823890  1.4206740695433817
  5.6826961496817390  8.5240430001424112  2.8413484734881007
  7.1033705963167444  9.9447158307622381  4.2620203510271422
  5.6826946176431656  8.5240415082282954  5.6826947503123515
  7.1033712432505647  9.9447153612515073  7.1033708387533574
  5.6826956334278238  8.5240435052918162  8.5240413736186387
  7.1033696260759269  9.9447187665435823  9.9447171998435770
  8.5240413669913089  0.0000006113202605 -0.0000019837892302
  9.9447179838088058  1.4206741839861310  1.4206746673759210
  8.5240430579121966 -0.0000003856964438  2.8413488754603660
  9.9447165618821298  1.4206743326940980  4.2620215002296131
  8.5240430336361914 -0.0000004193447464  5.6826956721840665
  9.9447165383445952  1.4206741486016063  7.1033711140829423
  8.5240429231772410 -0.0000002069765359  8.5240430310018329
  9.9447165425577690  1.4206747843978456  9.9447159997906791
  8.5240428910118240  2.8413487883253037  0.0000013928872950
  9.9447161981892798  4.2620215211357113  1.4206731889467543
  8.5240430251217916  2.8413481276272488  2.8413473456920677
  9.9447172494772165  4.2620226707337263  4.2620222853284089
  8.5240428822429948  2.8413484762558157  5.6826959042699459
  9.9447173198252781  4.2620216901340653  7.1033677345652935
  8.5240443527952525  2.8413465237334949  8.5240432830838913
  9.9447190947008153  4.2620215721472219  9.9447184855966739
  8.5240428344506913  5.6826951429350503  0.0000003436458234
  9.9447167235202141  7.1033687327974642  1.4206747136262599
  8.5240450578571743  5.6826946367546425  2.8413472259060431
  9.9447182560402858  7.1033687329017132  4.2620220718050161
  8.5240452687944668  5.6826952289460451  5.6826955704838582
  9.9447155449742368  7.1033694707049060  7.1033687556460556
  8.5240417321658377  5.6826971027466557  8.5240434826641369
  9.9447181379862712  7.1033691099155947  9.9447170527040125
  8.5240428378373814  8.5240427885781944 -0.0000006668269597
  9.9447204328873884  9.9447175949759359  1.4206757935714156
  8.5240434109142758  8.5240446265829277  2.8413500979448543
  9.9447158308313526  9.9447159541758356  4.2620205485530160
  8.5240431861862795  8.5240438105750940  5.6826949817297026
  9.9447150509277122  9.9447165616296740  7.1033694495054363
  8.5240428788791665  8.5240440751080282  8.5240433092223853
  9.9447166658703061  9.9447167337172360  9.9447164799940371
