Fe
 1.0000000000000000
    11.6755647324335303    0.0000000000000000    0.0000000000000000
     0.0000000000000000   11.6755647324335303    0.0000000000000000
     0.0000000000000000    0.0000000000000000   11.6755647324335303
 Fe 
 128
Cartesian
  0.0000000000000000  0.0000000000000000  0.0000000000000000
  1.4594455915541913  1.4594455915541913  1.4594455915541913
  1.4594455915541913  1.4594455915541913  4.3783367746625741
  0.0000000000000000  0.0000000000000000  5.8377823662167643
  1.4594455915541913  1.4594455915541913  7.2972279577709562
  0.0000000000000000  0.0000000000000000  8.7566735493251482
  1.4594455915541913  1.4594455915541913 10.2161191408793410
  0.0000000000000000  2.9188911831083826  0.0000000000000000
  1.4594455915541913  4.3783367746625741  1.4594455915541913
  0.0000000000000000  2.9188911831083826  2.9188911831083826
  1.4594455915541913  4.3783367746625741  4.3783367746625741
  0.0000000000000000  2.9188911831083826  5.8377823662167643
  1.4594455915541913  4.3783367746625741  7.2972279577709562
  0.0000000000000000  2.9188911831083826  8.7566735493251482
  1.4594455915541913  4.3783367746625741 10.2161191408793410
  0.0000000000000000  5.8377823662167643  0.0000000000000000
  1.4594455915541913  7.2972279577709562  1.4594455915541913
  0.0000000000000000  5.8377823662167643  2.9188911831083826
  1.4594455915541913  7.2972279577709562  4.3783367746625741
  0.0000000000000000  5.8377823662167643  5.8377823662167643
  1.4594455915541913  7.2972279577709562  7.2972279577709562
  0.0000000000000000  5.8377823662167643  8.7566735493251482
  1.4594455915541913  7.2972279577709562 10.2161191408793410
  0.0000000000000000  8.7566735493251482  0.0000000000000000
  1.4594455915541913 10.2161191408793410  1.4594455915541913
  0.0000000000000000  8.7566735493251482  2.9188911831083826
  1.4594455915541913 10.2161191408793410  4.3783367746625741
  0.0000000000000000  8.7566735493251482  5.8377823662167643
  1.4594455915541913 10.2161191408793410  7.2972279577709562
  0.0000000000000000  8.7566735493251482  8.7566735493251482
  1.4594455915541913 10.2161191408793410 10.2161191408793410
  4.3783367746625741  1.4594455915541913  1.4594455915541913
  2.9188911831083826  0.0000000000000000  2.9188911831083826
  4.3783367746625741  1.4594455915541913  4.3783367746625741
  2.9188911831083826  0.0000000000000000  5.8377823662167643
  4.3783367746625741  1.4594455915541913  7.2972279577709562
  2.9188911831083826  0.0000000000000000  8.7566735493251482
  4.3783367746625741  1.4594455915541913 10.2161191408793410
  2.9188911831083826  2.9188911831083826  0.0000000000000000
  4.3783367746625741  4.3783367746625741  1.4594455915541913
  2.9188911831083826  2.9188911831083826  2.9188911831083826
  4.3783367746625741  4.3783367746625741  4.3783367746625741
  2.9188911831083826  2.9188911831083826  5.8377823662167643
  4.3783367746625741  4.3783367746625741  7.2972279577709562
  2.9188911831083826  2.9188911831083826  8.7566735493251482
  4.3783367746625741  4.3783367746625741 10.2161191408793410
  2.9188911831083826  5.8377823662167643  0.0000000000000000
  4.3783367746625741  7.2972279577709562  1.4594455915541913
  2.9188911831083826  5.8377823662167643  2.9188911831083826
  4.3783367746625741  7.2972279577709562  4.3783367746625741
  2.9188911831083826  5.8377823662167643  5.8377823662167643
  4.3783367746625741  7.2972279577709562  7.2972279577709562
  2.9188911831083826  5.8377823662167643  8.7566735493251482
  4.3783367746625741  7.2972279577709562 10.2161191408793410
  2.9188911831083826  8.7566735493251482  0.0000000000000000
  4.3783367746625741 10.2161191408793410  1.4594455915541913
  2.9188911831083826  8.7566735493251482  2.9188911831083826
  4.3783367746625741 10.2161191408793410  4.3783367746625741
  2.9188911831083826  8.7566735493251482  5.8377823662167643
  4.3783367746625741 10.2161191408793410  7.2972279577709562
  2.9188911831083826  8.7566735493251482  8.7566735493251482
  4.3783367746625741 10.2161191408793410 10.2161191408793410
  5.8377823662167643  0.0000000000000000  0.0000000000000000
  7.2972279577709562  1.4594455915541913  1.4594455915541913
  5.8377823662167643  0.0000000000000000  2.9188911831083826
  7.2972279577709562  1.4594455915541913  4.3783367746625741
  5.8377823662167643  0.0000000000000000  5.8377823662167643
  7.2972279577709562  1.4594455915541913  7.2972279577709562
  5.8377823662167643  0.0000000000000000  8.7566735493251482
  7.2972279577709562  1.4594455915541913 10.2161191408793410
  5.8377823662167643  2.9188911831083826  0.0000000000000000
  7.2972279577709562  4.3783367746625741  1.4594455915541913
  5.8377823662167643  2.9188911831083826  2.9188911831083826
  7.2972279577709562  4.3783367746625741  4.3783367746625741
  5.8377823662167643  2.9188911831083826  5.8377823662167643
  7.2972279577709562  4.3783367746625741  7.2972279577709562
  5.8377823662167643  2.9188911831083826  8.7566735493251482
  7.2972279577709562  4.3783367746625741 10.2161191408793410
  5.8377823662167643  5.8377823662167643  0.0000000000000000
  7.2972279577709562  7.2972279577709562  1.4594455915541913
  5.8377823662167643  5.8377823662167643  2.9188911831083826
  7.2972279577709562  7.2972279577709562  4.3783367746625741
  5.8377823662167643  5.8377823662167643  5.8377823662167643
  7.2972279577709562  7.2972279577709562  7.2972279577709562
  5.8377823662167643  5.8377823662167643  8.7566735493251482
  7.2972279577709562  7.2972279577709562 10.2161191408793410
  5.8377823662167643  8.7566735493251482  0.0000000000000000
  7.2972279577709562 10.2161191408793410  1.4594455915541913
  5.8377823662167643  8.7566735493251482  2.9188911831083826
  7.2972279577709562 10.2161191408793410  4.3783367746625741
  5.8377823662167643  8.7566735493251482  5.8377823662167643
  7.2972279577709562 10.2161191408793410  7.2972279577709562
  5.8377823662167643  8.7566735493251482  8.7566735493251482
  7.2972279577709562 10.2161191408793410 10.2161191408793410
  8.7566735493251482  0.0000000000000000  0.0000000000000000
 10.2161191408793410  1.4594455915541913  1.4594455915541913
  8.7566735493251482  0.0000000000000000  2.9188911831083826
 10.2161191408793410  1.4594455915541913  4.3783367746625741
  8.7566735493251482  0.0000000000000000  5.8377823662167643
 10.2161191408793410  1.4594455915541913  7.2972279577709562
  8.7566735493251482  0.0000000000000000  8.7566735493251482
 10.2161191408793410  1.4594455915541913 10.2161191408793410
  8.7566735493251482  2.9188911831083826  0.0000000000000000
 10.2161191408793410  4.3783367746625741  1.4594455915541913
  8.7566735493251482  2.9188911831083826  2.9188911831083826
 10.2161191408793410  4.3783367746625741  4.3783367746625741
  8.7566735493251482  2.9188911831083826  5.8377823662167643
 10.2161191408793410  4.3783367746625741  7.2972279577709562
  8.7566735493251482  2.9188911831083826  8.7566735493251482
 10.2161191408793410  4.3783367746625741 10.2161191408793410
  8.7566735493251482  5.8377823662167643  0.0000000000000000
 10.2161191408793410  7.2972279577709562  1.4594455915541913
  8.7566735493251482  5.8377823662167643  2.9188911831083826
 10.2161191408793410  7.2972279577709562  4.3783367746625741
  8.7566735493251482  5.8377823662167643  5.8377823662167643
 10.2161191408793410  7.2972279577709562  7.2972279577709562
  8.7566735493251482  5.8377823662167643  8.7566735493251482
 10.2161191408793410  7.2972279577709562 10.2161191408793410
  8.7566735493251482  8.7566735493251482  0.0000000000000000
 10.2161191408793410 10.2161191408793410  1.4594455915541913
  8.7566735493251482  8.7566735493251482  2.9188911831083826
 10.2161191408793410 10.2161191408793410  4.3783367746625741
  8.7566735493251482  8.7566735493251482  5.8377823662167643
 10.2161191408793410 10.2161191408793410  7.2972279577709562
  8.7566735493251482  8.7566735493251482  8.7566735493251482
 10.2161191408793410 10.2161191408793410 10.2161191408793410
  2.9188911831083826  0.0000000000000000  0.0000000000000000
  0.0000000000000000  0.0000000000000000  2.9188911831083826
