Fe
 1.0000000000000000
    11.3659819319059405    0.0000000000000000    0.0000000000000000
     0.0000000000000000   11.3659819319059405    0.0000000000000000
     0.0000000000000000    0.0000000000000000   46.9942070882766103
 Fe 
 320
Selective dynamics
Cartesian
  1.4207478831435789  1.4207477808580795 10.0604174715220616   T   T   T
  4.2622431559240113  1.4207477157461121 10.0604176822508933   T   T   T
  7.1037386228672048  1.4207478642897091 10.0604176156317546   T   T   T
  9.9452340529258016  1.4207483155466050 10.0604175184497127   T   T   T
  1.4207476198795541  4.2622432383343964 10.0604175947587446   T   T   T
  4.2622431157324980  4.2622430573383259 10.0604176431416601   T   T   T
  7.1037387509724734  4.2622430791744197 10.0604175269699212   T   T   T
  9.9452343043936828  4.2622439122402191 10.0604175525286497   T   T   T
  1.4207476002873927  7.1037389123640908 10.0604176280402200   T   T   T
  4.2622429781683646  7.1037387954279607 10.0604175781369740   T   T   T
  7.1037386310728863  7.1037388657533986 10.0604176172849851   T   T   T
  9.9452346720368503  7.1037379154250448 10.0604175261817872   T   T   T
  1.4207468952021356  9.9452341866743037 10.0604174264742365   T   T   T
  4.2622430574132171  9.9452339056517669 10.0604178498378598   T   T   T
  7.1037392223039717  9.9452342480069564 10.0604173745496261   T   T   T
  9.9452346015228184  9.9452333769889716 10.0604177063052003   T   T   T
  0.0000000989850276 -0.0000000980957495 11.4427271204654240   T   T   T
  2.8414951836810927 -0.0000000397912541 11.4427269867181014   T   T   T
  5.6829911083585083 -0.0000001619053662 11.4427269354250871   T   T   T
  8.5244867447256194 -0.0000000843322872 11.4427271224643992   T   T   T
 -0.0000003347336414  2.8414956800018363 11.4427270570306430   T   T   T
  2.8414953895437134  2.8414954535095154 11.4427272589567863   T   T   T
  5.6829908366567823  2.8414956551120825 11.4427273391350450   T   T   T
  8.5244864286872346  2.8414956685713202 11.4427274015046248   T   T   T
  0.0000001470855530  5.6829909556578286 11.4427273503134046   T   T   T
  2.8414953791057185  5.6829908537683309 11.4427272913238891   T   T   T
  5.6829908673474510  5.6829908672103349 11.4427268190184286   T   T   T
  8.5244865680914543  5.6829907753089755 11.4427273864619838   T   T   T
 -0.0000002349896931  8.5244861296057461 11.4427274285936456   T   T   T
  2.8414953130466261  8.5244866989181602 11.4427271729969995   T   T   T
  5.6829909218313146  8.5244865059199206 11.4427269445708344   T   T   T
  8.5244868228879156  8.5244866618545174 11.4427271247800331   T   T   T
  1.4207477391118204  1.4207475709917212 12.8787755865411846   T   T   T
  4.2622430097150552  1.4207476839147004 12.8787757011169699   T   T   T
  7.1037389515327707  1.4207478628149726 12.8787759433662838   T   T   T
  9.9452341392991546  1.4207478612682363 12.8787756689000918   T   T   T
  1.4207478853242581  4.2622431731375450 12.8787755866354008   T   T   T
  4.2622432407848025  4.2622432436955107 12.8787755720649564   T   T   T
  7.1037387882998049  4.2622432343342131 12.8787760069592654   T   T   T
  9.9452340215422925  4.2622433785856169 12.8787757309203403   T   T   T
  1.4207478100872240  7.1037387909531677 12.8787756186999243   T   T   T
  4.2622433169662974  7.1037388979906098 12.8787755947588156   T   T   T
  7.1037386482896006  7.1037389164404132 12.8787758499917633   T   T   T
  9.9452344795827319  7.1037387484199810 12.8787759749847535   T   T   T
  1.4207474968255618  9.9452344829385595 12.8787755833114392   T   T   T
  4.2622431654986848  9.9452340205437029 12.8787755448952890   T   T   T
  7.1037389594934925  9.9452345584177877 12.8787755437442577   T   T   T
  9.9452340464192197  9.9452340059849949 12.8787755330227842   T   T   T
  0.0000001819928704 -0.0000001681683591 14.3050986256058348   T   T   T
  2.8414952718093844 -0.0000002988326685 14.3050989433252376   T   T   T
  5.6829910552793610 -0.0000002912176522 14.3050987934104352   T   T   T
  8.5244862135832769  0.0000001231541364 14.3050988593786510   T   T   T
  0.0000001986859333  2.8414955570779710 14.3050989437547997   T   T   T
  2.8414955933951598  2.8414954338874541 14.3050987864087826   T   T   T
  5.6829908816258099  2.8414955867792155 14.3050990453386984   T   T   T
  8.5244863321155542  2.8414955022986983 14.3050990483890761   T   T   T
  0.0000000114686483  5.6829912113882637 14.3050990282108312   T   T   T
  2.8414954465944358  5.6829908802874325 14.3050991193651509   T   T   T
  5.6829911111145757  5.6829910419755523 14.3050988861995076   T   T   T
  8.5244864857885947  5.6829910589614148 14.3050989135615456   T   T   T
  0.0000000157244344  8.5244863589823208 14.3050988384368729   T   T   T
  2.8414954494092175  8.5244864671047722 14.3050988393378660   T   T   T
  5.6829910967732378  8.5244863627000917 14.3050987718150182   T   T   T
  8.5244867297742530  8.5244863541485802 14.3050989831238535   T   T   T
  1.4207478724867340  1.4207476798125922 15.7179335376066067   T   T   T
  4.2622430930361723  1.4207477073838721 15.7179336008922537   T   T   T
  7.1037388176642375  1.4207475868752890 15.7179334976420684   T   T   T
  9.9452340829163948  1.4207476854808474 15.7179334427782429   T   T   T
  1.4207478584170881  4.2622432228336908 15.7179336206788989   T   T   T
  4.2622429755475331  4.2622431076029494 15.7179333094934464   T   T   T
  7.1037388779275634  4.2622429957854395 15.7179336790837585   T   T   T
  9.9452344055814681  4.2622432125135932 15.7179337297820769   T   T   T
  1.4207479645296419  7.1037385409680533 15.7179336540895846   T   T   T
  4.2622430681789014  7.1037389141993295 15.7179336894286692   T   T   T
  7.1037388434161830  7.1037387771131151 15.7179336230398103   T   T   T
  9.9452343462772212  7.1037387718341964 15.7179338506857906   T   T   T
  1.4207478686224240  9.9452346268508176 15.7179336844018334   T   T   T
  4.2622430183608442  9.9452346490929990 15.7179335579213237   T   T   T
  7.1037386708018886  9.9452344468300407 15.7179336752367487   T   T   T
  9.9452345822851793  9.9452345495137298 15.7179334606567913   T   T   T
  0.0000003723786856 -0.0000001317265442 17.1341212883312757   T   T   T
  2.8414954616638650 -0.0000001986007251 17.1341221383389168   T   T   T
  5.6829911422942443 -0.0000000713906747 17.1341218509401649   T   T   T
  8.5244863003700289  0.0000000231319183 17.1341216563441314   T   T   T
 -0.0000000266073421  2.8414957732291941 17.1341216303816495   T   T   T
  2.8414953055827636  2.8414956100490008 17.1341217870408791   T   T   T
  5.6829912092131565  2.8414955503129704 17.1341218136373570   T   T   T
  8.5244864411110495  2.8414955174290291 17.1341218201721830   T   T   T
 -0.0000003477769032  5.6829908206118143 17.1341221339254410   T   T   T
  2.8414954077787948  5.6829909721858920 17.1341220190163774   T   T   T
  5.6829910595436983  5.6829909965860210 17.1341217391003262   T   T   T
  8.5244868473551634  5.6829909692470721 17.1341224784458035   T   T   T
 -0.0000000320533313  8.5244864763727097 17.1341219981420920   T   T   T
  2.8414957121573634  8.5244867718026569 17.1341219442079336   T   T   T
  5.6829910581586667  8.5244869232547131 17.1341218990119017   T   T   T
  8.5244863725122251  8.5244864921443018 17.1341220331697386   T   T   T
  1.4207478785205407  1.4207480820383582 18.5453081354540679   T   T   T
  4.2622431517986357  1.4207478463845875 18.5453087130526342   T   T   T
  7.1037388350991080  1.4207478533891071 18.5453081756517371   T   T   T
  9.9452338672180556  1.4207478244840397 18.5453085434369740   T   T   T
  1.4207476095988021  4.2622430978726555 18.5453085979516388   T   T   T
  4.2622431307256168  4.2622434149063819 18.5453089365188148   T   T   T
  7.1037385940109932  4.2622431265982170 18.5453082426180025   T   T   T
  9.9452345000503257  4.2622433821051642 18.5453087476723653   T   T   T
  1.4207479275206771  7.1037386426367366 18.5453092129792800   T   T   T
  4.2622432809163051  7.1037386820345940 18.5453090973440915   T   T   T
  7.1037388374563610  7.1037389178327226 18.5453085324373177   T   T   T
  9.9452340099763017  7.1037387299491765 18.5453090067186679   T   T   T
  1.4207478334754875  9.9452341091293341 18.5453083364653395   T   T   T
  4.2622430293989639  9.9452341899127816 18.5453085019566402   T   T   T
  7.1037389271381013  9.9452339098299625 18.5453084619966084   T   T   T
  9.9452338479240332  9.9452341742170560 18.5453090794085611   T   T   T
 -0.0000001106708790  0.0000000287430344 19.9566654943283055   T   T   T
  2.8414955829340589  0.0000002341462744 19.9566659758451017   T   T   T
  5.6829909373433578  0.0000002428026967 19.9566650439828130   T   T   T
  8.5244869295095196  0.0000001201917829 19.9566656159690936   T   T   T
  0.0000001654189495  2.8414953964934915 19.9566647414572280   T   T   T
  2.8414954460169155  2.8414954918764006 19.9566646276166360   T   T   T
  5.6829911194461191  2.8414955628908221 19.9566651567934308   T   T   T
  8.5244865233154350  2.8414952991121476 19.9566659561714239   T   T   T
  0.0000000524294379  5.6829909477764087 19.9566647896634883   T   T   T
  2.8414956892233061  5.6829910460717370 19.9566647990646473   T   T   T
  5.6829908261437145  5.6829912336857111 19.9566648011628658   T   T   T
  8.5244862796619021  5.6829910783416597 19.9566654827036167   T   T   T
  0.0000001290936712  8.5244867727240532 19.9566646681352751   T   T   T
  2.8414955774366932  8.5244863779320905 19.9566649024162714   T   T   T
  5.6829908669918288  8.5244863598956329 19.9566645769801632   T   T   T
  8.5244864012135881  8.5244864585461873 19.9566652461011067   T   T   T
  1.4207477414882426  1.4207477414882426 21.3659819319059423   F   F   F
  4.2622432244647275  1.4207477414882426 21.3659819319059423   F   F   F
  7.1037387074412131  1.4207477414882426 21.3659819319059423   F   F   F
  9.9452341904176986  1.4207477414882426 21.3659819319059423   F   F   F
  1.4207477414882426  4.2622432244647275 21.3659819319059423   F   F   F
  4.2622432244647275  4.2622432244647275 21.3659819319059423   F   F   F
  7.1037387074412131  4.2622432244647275 21.3659819319059423   F   F   F
  9.9452341904176986  4.2622432244647275 21.3659819319059423   F   F   F
  1.4207477414882426  7.1037387074412131 21.3659819319059423   F   F   F
  4.2622432244647275  7.1037387074412131 21.3659819319059423   F   F   F
  7.1037387074412131  7.1037387074412131 21.3659819319059423   F   F   F
  9.9452341904176986  7.1037387074412131 21.3659819319059423   F   F   F
  1.4207477414882426  9.9452341904176986 21.3659819319059423   F   F   F
  4.2622432244647275  9.9452341904176986 21.3659819319059423   F   F   F
  7.1037387074412131  9.9452341904176986 21.3659819319059423   F   F   F
  9.9452341904176986  9.9452341904176986 21.3659819319059423   F   F   F
  0.0000000000000000  0.0000000000000000 22.7867296733941842   F   F   F
  2.8414954829764851  0.0000000000000000 22.7867296733941842   F   F   F
  5.6829909659529703  0.0000000000000000 22.7867296733941842   F   F   F
  8.5244864489294550  0.0000000000000000 22.7867296733941842   F   F   F
  0.0000000000000000  2.8414954829764851 22.7867296733941842   F   F   F
  2.8414954829764851  2.8414954829764851 22.7867296733941842   F   F   F
  5.6829909659529703  2.8414954829764851 22.7867296733941842   F   F   F
  8.5244864489294550  2.8414954829764851 22.7867296733941842   F   F   F
  0.0000000000000000  5.6829909659529703 22.7867296733941842   F   F   F
  2.8414954829764851  5.6829909659529703 22.7867296733941842   F   F   F
  5.6829909659529703  5.6829909659529703 22.7867296733941842   F   F   F
  8.5244864489294550  5.6829909659529703 22.7867296733941842   F   F   F
  0.0000000000000000  8.5244864489294550 22.7867296733941842   F   F   F
  2.8414954829764851  8.5244864489294550 22.7867296733941842   F   F   F
  5.6829909659529703  8.5244864489294550 22.7867296733941842   F   F   F
  8.5244864489294550  8.5244864489294550 22.7867296733941842   F   F   F
  1.4207477414882426  1.4207477414882426 24.2074774148824261   F   F   F
  4.2622432244647275  1.4207477414882426 24.2074774148824261   F   F   F
  7.1037387074412131  1.4207477414882426 24.2074774148824261   F   F   F
  9.9452341904176986  1.4207477414882426 24.2074774148824261   F   F   F
  1.4207477414882426  4.2622432244647275 24.2074774148824261   F   F   F
  4.2622432244647275  4.2622432244647275 24.2074774148824261   F   F   F
  7.1037387074412131  4.2622432244647275 24.2074774148824261   F   F   F
  9.9452341904176986  4.2622432244647275 24.2074774148824261   F   F   F
  1.4207477414882426  7.1037387074412131 24.2074774148824261   F   F   F
  4.2622432244647275  7.1037387074412131 24.2074774148824261   F   F   F
  7.1037387074412131  7.1037387074412131 24.2074774148824261   F   F   F
  9.9452341904176986  7.1037387074412131 24.2074774148824261   F   F   F
  1.4207477414882426  9.9452341904176986 24.2074774148824261   F   F   F
  4.2622432244647275  9.9452341904176986 24.2074774148824261   F   F   F
  7.1037387074412131  9.9452341904176986 24.2074774148824261   F   F   F
  9.9452341904176986  9.9452341904176986 24.2074774148824261   F   F   F
  0.0000000000000000  0.0000000000000000 25.6282251563706680   F   F   F
  2.8414954829764851  0.0000000000000000 25.6282251563706680   F   F   F
  5.6829909659529703  0.0000000000000000 25.6282251563706680   F   F   F
  8.5244864489294550  0.0000000000000000 25.6282251563706680   F   F   F
  0.0000000000000000  2.8414954829764851 25.6282251563706680   F   F   F
  2.8414954829764851  2.8414954829764851 25.6282251563706680   F   F   F
  5.6829909659529703  2.8414954829764851 25.6282251563706680   F   F   F
  8.5244864489294550  2.8414954829764851 25.6282251563706680   F   F   F
  0.0000000000000000  5.6829909659529703 25.6282251563706680   F   F   F
  2.8414954829764851  5.6829909659529703 25.6282251563706680   F   F   F
  5.6829909659529703  5.6829909659529703 25.6282251563706680   F   F   F
  8.5244864489294550  5.6829909659529703 25.6282251563706680   F   F   F
  0.0000000000000000  8.5244864489294550 25.6282251563706680   F   F   F
  2.8414954829764851  8.5244864489294550 25.6282251563706680   F   F   F
  5.6829909659529703  8.5244864489294550 25.6282251563706680   F   F   F
  8.5244864489294550  8.5244864489294550 25.6282251563706680   F   F   F
  1.4207478240753315  1.4207478953917900 27.0375420389872048   T   T   T
  4.2622431174619253  1.4207477906282673 27.0375424394505153   T   T   T
  7.1037386881315800  1.4207476988346199 27.0375428348418758   T   T   T
  9.9452343663605980  1.4207477448088697 27.0375421978371122   T   T   T
  1.4207475715978384  4.2622430943408354 27.0375414720141585   T   T   T
  4.2622432162369082  4.2622432315773118 27.0375426411179305   T   T   T
  7.1037387163699472  4.2622435531792293 27.0375417483503782   T   T   T
  9.9452343148427023  4.2622433875106536 27.0375425219915293   T   T   T
  1.4207476918680433  7.1037388185583543 27.0375420886627644   T   T   T
  4.2622433225842258  7.1037387178026083 27.0375422471570772   T   T   T
  7.1037389072811665  7.1037386802934082 27.0375426804393371   T   T   T
  9.9452341897595105  7.1037386499650905 27.0375415943384745   T   T   T
  1.4207475697530476  9.9452341985258990 27.0375421983336395   T   T   T
  4.2622430406543454  9.9452345876237658 27.0375420630426291   T   T   T
  7.1037390785813779  9.9452345066573820 27.0375425684503234   T   T   T
  9.9452340374215193  9.9452345284564636 27.0375419899492648   T   T   T
  0.0000001720728388  0.0000002392988590 28.4488985397832650   T   T   T
  2.8414955433831510  0.0000002169159682 28.4488986162317303   T   T   T
  5.6829909358591397 -0.0000001448236623 28.4488987264944804   T   T   T
  8.5244861787382895  0.0000000727302917 28.4488987766373036   T   T   T
 -0.0000003369210129  2.8414955197294494 28.4488986656666718   T   T   T
  2.8414957074212421  2.8414953395643567 28.4488987356099301   T   T   T
  5.6829908089417200  2.8414954039596982 28.4488980628858812   T   T   T
  8.5244866441680482  2.8414955946961276 28.4488988782821757   T   T   T
 -0.0000001982016019  5.6829909063169923 28.4488989255420215   T   T   T
  2.8414955705876381  5.6829912157884168 28.4488986599244775   T   T   T
  5.6829909353157015  5.6829909749765859 28.4488984720548821   T   T   T
  8.5244868266408425  5.6829907215857389 28.4488985028258483   T   T   T
  0.0000001613892612  8.5244867296580988 28.4488989581913039   T   T   T
  2.8414955531892612  8.5244862897930620 28.4488987703480980   T   T   T
  5.6829909454767034  8.5244866752954813 28.4488989110245143   T   T   T
  8.5244862633947367  8.5244863795240864 28.4488987840956540   T   T   T
  1.4207478113567786  1.4207478437884968 29.8600852736850726   T   T   T
  4.2622430493608334  1.4207475609631564 29.8600849616702497   T   T   T
  7.1037386922275960  1.4207475279605559 29.8600854518218028   T   T   T
  9.9452344145888052  1.4207479738125326 29.8600853475671748   T   T   T
  1.4207477870237197  4.2622433997762856 29.8600852909971870   T   T   T
  4.2622427973705737  4.2622431259114295 29.8600854717455064   T   T   T
  7.1037387693742708  4.2622429851105625 29.8600851812264025   T   T   T
  9.9452343254801363  4.2622430718316586 29.8600847357261010   T   T   T
  1.4207476667442920  7.1037385920584084 29.8600855844395241   T   T   T
  4.2622429892390894  7.1037388964177532 29.8600852988684125   T   T   T
  7.1037389873799155  7.1037390245282257 29.8600855500814326   T   T   T
  9.9452345000914182  7.1037386627512920 29.8600862906622311   T   T   T
  1.4207476544781468  9.9452344624660522 29.8600856614249288   T   T   T
  4.2622432207636756  9.9452345290142823 29.8600854129642634   T   T   T
  7.1037388510330164  9.9452343409722275 29.8600852633716052   T   T   T
  9.9452343652963595  9.9452342825599018 29.8600853427455064   T   T   T
  0.0000002847305128  0.0000001787306401 31.2762735437268695   T   T   T
  2.8414954389078102 -0.0000001015094552 31.2762733221092084   T   T   T
  5.6829908086428338 -0.0000000577949199 31.2762739380985231   T   T   T
  8.5244866169597575  0.0000000845036192 31.2762732602688089   T   T   T
  0.0000003070372105  2.8414949506255751 31.2762738898251698   T   T   T
  2.8414957249587642  2.8414955040220988 31.2762739428626659   T   T   T
  5.6829907080498057  2.8414955511600222 31.2762737558511539   T   T   T
  8.5244863193188021  2.8414953290400549 31.2762734412207202   T   T   T
 -0.0000002133158164  5.6829913164802033 31.2762738960384468   T   T   T
  2.8414956816465780  5.6829909989049767 31.2762736776759596   T   T   T
  5.6829907397568373  5.6829907630070178 31.2762738872788155   T   T   T
  8.5244860479097451  5.6829910443786273 31.2762735348226038   T   T   T
  0.0000000538981267  8.5244864342202469 31.2762738806282883   T   T   T
  2.8414955393043591  8.5244861847115718 31.2762737967712781   T   T   T
  5.6829906341808956  8.5244865084309946 31.2762735749764964   T   T   T
  8.5244865409041761  8.5244864754649186 31.2762736501094025   T   T   T
  1.4207479171738042  1.4207475644397354 32.6891081165736139   T   T   T
  4.2622433556899226  1.4207477444985299 32.6891077317954668   T   T   T
  7.1037383906740335  1.4207475537694254 32.6891083513865084   T   T   T
  9.9452345840270571  1.4207475025141414 32.6891077208918901   T   T   T
  1.4207480427454005  4.2622431699236794 32.6891095022198499   T   T   T
  4.2622433760430605  4.2622429577108605 32.6891079681985701   T   T   T
  7.1037384368620078  4.2622433216727771 32.6891080477478866   T   T   T
  9.9452341134416784  4.2622433308063252 32.6891092075941785   T   T   T
  1.4207477561725239  7.1037389618294151 32.6891077116534277   T   T   T
  4.2622434217166898  7.1037388372745260 32.6891082816330467   T   T   T
  7.1037385648220619  7.1037389591926727 32.6891080717062223   T   T   T
  9.9452345055943532  7.1037388874192544 32.6891077762410589   T   T   T
  1.4207475270507612  9.9452340732110436 32.6891080180840916   T   T   T
  4.2622434210314841  9.9452342123365582 32.6891082824488706   T   T   T
  7.1037388020081291  9.9452340364458038 32.6891095886497780   T   T   T
  9.9452346891020476  9.9452343246877337 32.6891096100669145   T   T   T
 -0.0000001118526406 -0.0000002792877874 34.1154317409528147   T   T   T
  2.8414954010297215  0.0000003787868244 34.1154320397667519   T   T   T
  5.6829914069146001 -0.0000000799245905 34.1154314266536431   T   T   T
  8.5244864952791346 -0.0000005287604774 34.1154314351373102   T   T   T
 -0.0000000555496884  2.8414957717086011 34.1154319003476942   T   T   T
  2.8414953618707468  2.8414955273673894 34.1154322262871545   T   T   T
  5.6829910721519825  2.8414952731407719 34.1154311527164822   T   T   T
  8.5244866864183351  2.8414956471268127 34.1154314690400184   T   T   T
 -0.0000000151547010  5.6829905885729088 34.1154315191056767   T   T   T
  2.8414952764480952  5.6829907929335359 34.1154316873626584   T   T   T
  5.6829909013381901  5.6829911801471331 34.1154316423178656   T   T   T
  8.5244867894025074  5.6829906636374208 34.1154313931494286   T   T   T
 -0.0000001378450573  8.5244868620902512 34.1154318463334718   T   T   T
  2.8414952992038072  8.5244864955419057 34.1154308617913458   T   T   T
  5.6829911099818649  8.5244863761537673 34.1154310496527700   T   T   T
  8.5244864689651116  8.5244869950405171 34.1154300453496191   T   T   T
  1.4207481686864363  1.4207478498127275 35.5514811562764521   T   T   T
  4.2622428609968690  1.4207474773216919 35.5514813945722992   T   T   T
  7.1037391699290797  1.4207477921476803 35.5514798740178577   T   T   T
  9.9452339246934471  1.4207478836403242 35.5514801080311500   T   T   T
  1.4207477814761957  4.2622432691971088 35.5514801967201279   T   T   T
  4.2622431611540916  4.2622435410710819 35.5514813434998374   T   T   T
  7.1037388294494912  4.2622433140884199 35.5514792988370374   T   T   T
  9.9452343442961020  4.2622431062920150 35.5514793526920982   T   T   T
  1.4207477278291294  7.1037385033346494 35.5514819611639297   T   T   T
  4.2622431696934067  7.1037383344554179 35.5514804765335768   T   T   T
  7.1037384998561031  7.1037385086011815 35.5514802003049866   T   T   T
  9.9452347300412605  7.1037385717165922 35.5514799297635022   T   T   T
  1.4207477837976550  9.9452342749043314 35.5514799163445829   T   T   T
  4.2622430881210072  9.9452341654435319 35.5514811387841334   T   T   T
  7.1037388271277262  9.9452345894011884 35.5514814941531725   T   T   T
  9.9452345491740886  9.9452345618348357 35.5514807674280888   T   T   T
 -0.0000001624138547 -0.0000001295876062 36.9337890422298400   T   T   T
  2.8414956536699858 -0.0000005240351509 36.9337894935308810   T   T   T
  5.6829908538262979 -0.0000002562926761 36.9337895702116867   T   T   T
  8.5244866723556019 -0.0000001070253181 36.9337891693619440   T   T   T
 -0.0000004403369537  2.8414952348813727 36.9337904207435201   T   T   T
  2.8414955229041987  2.8414954910529207 36.9337895698218759   T   T   T
  5.6829911077389799  2.8414954629834024 36.9337890666438682   T   T   T
  8.5244868550950592  2.8414957331966795 36.9337889034612203   T   T   T
 -0.0000002688416159  5.6829910389231912 36.9337897838309601   T   T   T
  2.8414957578063103  5.6829911908214532 36.9337897701362650   T   T   T
  5.6829909710381594  5.6829913678386088 36.9337895373435572   T   T   T
  8.5244863719756783  5.6829908033797993 36.9337891983721605   T   T   T
  0.0000004764001007  8.5244873692726735 36.9337903802274852   T   T   T
  2.8414953899530575  8.5244868297670706 36.9337890563189859   T   T   T
  5.6829906324297861  8.5244863160474686 36.9337894805553333   T   T   T
  8.5244861463378427  8.5244863908909085 36.9337900242921506   T   T   T
