Fe
 1.0000000000000000
    11.3659819319059405    0.0000000000000000    0.0000000000000000
     0.0000000000000000    8.0369628988944672    0.0000000000000000
     0.0000000000000000    0.0000000000000000   58.1755737697487163
 Fe 
 320
Selective dynamics
Cartesian
 -0.0000001168659146  2.0092408648863120 10.0332514360688769   T   T   T
  2.8414955606925116  2.0092409019593447 10.0332514451473926   T   T   T
  5.6829907763219571  2.0092409786648431 10.0332514048947328   T   T   T
  8.5244861890811592  2.0092408542400597 10.0332513455943548   T   T   T
  1.4207477115379858  4.0184815303174020 10.0332511789399881   T   T   T
  4.2622432664367098  4.0184816180574519 10.0332513760525170   T   T   T
  7.1037386238241726  4.0184814477670443 10.0332514673215858   T   T   T
  9.9452339819070250  4.0184814444080139 10.0332512199489869   T   T   T
 -0.0000000727577399  6.0277218790612936 10.0332509618657717   T   T   T
  2.8414954666470309  6.0277222917735580 10.0332511853804291   T   T   T
  5.6829911050179867  6.0277222130653518 10.0332513720653935   T   T   T
  8.5244865626840607  6.0277220453232117 10.0332512840180570   T   T   T
  1.4207478019807651  8.0369631997154496 10.0332517651963204   T   T   T
  4.2622430576563985  8.0369633260296638 10.0332513762610045   T   T   T
  7.1037388036114981  8.0369630283250633 10.0332509081892951   T   T   T
  9.9452339042811904  8.0369630487569808 10.0332511101537527   T   T   T
  0.0000001447002021  0.0000001942152667 12.0241890222558041   T   T   T
  2.8414955320881612  0.0000001652240459 12.0241889881387305   T   T   T
  5.6829910377424353  0.0000002289330266 12.0241889167413181   T   T   T
  8.5244864014319628  0.0000002259237652 12.0241886253893409   T   T   T
  1.4207477855671196  2.0092407982406737 12.0241896251528910   T   T   T
  4.2622431445037110  2.0092407299058488 12.0241890294078200   T   T   T
  7.1037388060838831  2.0092410305263524 12.0241891196941530   T   T   T
  9.9452343489775803  2.0092410500753535 12.0241893627004561   T   T   T
 -0.0000004194685785  4.0184815478864859 12.0241888733545306   T   T   T
  2.8414955184455013  4.0184817377896120 12.0241890539885397   T   T   T
  5.6829910787804510  4.0184816023044485 12.0241891383073423   T   T   T
  8.5244866743374228  4.0184813033769258 12.0241888573112359   T   T   T
  1.4207479827869978  6.0277220986303748 12.0241887436441175   T   T   T
  4.2622431320908829  6.0277222493759579 12.0241888778473740   T   T   T
  7.1037385313762407  6.0277221750556444 12.0241887760962562   T   T   T
  9.9452343530897789  6.0277221244105892 12.0241888768235832   T   T   T
 -0.0000002661426287  2.0092409869690391 14.0490248783392637   T   T   T
  2.8414951224221885  2.0092409438850862 14.0490248928791743   T   T   T
  5.6829911731734954  2.0092408358837863 14.0490248083241021   T   T   T
  8.5244865803042256  2.0092408754085089 14.0490246623396189   T   T   T
  1.4207477346903186  4.0184815304446611 14.0490250999157791   T   T   T
  4.2622430073676059  4.0184813952462743 14.0490250253850899   T   T   T
  7.1037385449926749  4.0184817038875584 14.0490251248848654   T   T   T
  9.9452344077605961  4.0184815968361303 14.0490254259453486   T   T   T
 -0.0000001119315787  6.0277219554913923 14.0490247721238077   T   T   T
  2.8414953716949052  6.0277218953523892 14.0490250576112832   T   T   T
  5.6829913035820221  6.0277219600809628 14.0490250874432618   T   T   T
  8.5244865757241790  6.0277220830834590 14.0490250212599346   T   T   T
  1.4207474454609212  8.0369629706165515 14.0490255045703645   T   T   T
  4.2622433308343703  8.0369628522034358 14.0490245659933830   T   T   T
  7.1037386013662793  8.0369631609358461 14.0490251208518249   T   T   T
  9.9452345520582330  8.0369630790172479 14.0490254434615114   T   T   T
  0.0000001694973681 -0.0000001627978974 16.0562583233519156   T   T   T
  2.8414955608004218  0.0000000748242550 16.0562589956090704   T   T   T
  5.6829910370120293 -0.0000000362572234 16.0562595340262959   T   T   T
  8.5244862324090214 -0.0000000747598880 16.0562582286710160   T   T   T
  1.4207478445844115  2.0092407099967216 16.0562591518850120   T   T   T
  4.2622434012180852  2.0092405482985902 16.0562593606809756   T   T   T
  7.1037382943244056  2.0092406847417705 16.0562596136493028   T   T   T
  9.9452340875692915  2.0092410401074736 16.0562593519873680   T   T   T
 -0.0000003165893218  4.0184814902617472 16.0562590644382190   T   T   T
  2.8414953385900423  4.0184813801977111 16.0562590887378889   T   T   T
  5.6829910728534800  4.0184811932060578 16.0562592101503441   T   T   T
  8.5244865925100832  4.0184814816389833 16.0562592260189554   T   T   T
  1.4207477127115300  6.0277219736674414 16.0562589519927172   T   T   T
  4.2622432220160587  6.0277219559541697 16.0562591510668362   T   T   T
  7.1037385056121032  6.0277219371682174 16.0562590976469366   T   T   T
  9.9452344132059789  6.0277216750253526 16.0562584490435896   T   T   T
  0.0000002591301243  2.0092408302016600 18.0595392044422987   T   T   T
  2.8414955391978780  2.0092405457249156 18.0595390747407976   T   T   T
  5.6829912822001090  2.0092404974328537 18.0595381254213727   T   T   T
  8.5244861617807643  2.0092406883060749 18.0595390800409561   T   T   T
  1.4207477157855741  4.0184813156630907 18.0595391351700592   T   T   T
  4.2622432163937161  4.0184816121852869 18.0595389373234916   T   T   T
  7.1037386649204173  4.0184812580693796 18.0595393276474887   T   T   T
  9.9452344522271616  4.0184813597087476 18.0595398402091369   T   T   T
  0.0000001645687822  6.0277219519664085 18.0595393292411686   T   T   T
  2.8414954606485998  6.0277220713325894 18.0595392375154766   T   T   T
  5.6829910031331945  6.0277219245146805 18.0595386507620894   T   T   T
  8.5244865462801211  6.0277219921974012 18.0595390879243531   T   T   T
  1.4207478938303182  8.0369629144436008 18.0595401546434751   T   T   T
  4.2622431184653919  8.0369627789257674 18.0595387990204657   T   T   T
  7.1037385678595442  8.0369630630191686 18.0595391333799675   T   T   T
  9.9452344111878812  8.0369626941829075 18.0595397506927213   T   T   T
  0.0000002503717232  0.0000000034097065 20.0624565464033324   T   T   T
  2.8414953522695834 -0.0000000699289294 20.0624562535152471   T   T   T
  5.6829910067253397  0.0000001837666273 20.0624563930807014   T   T   T
  8.5244864981552748  0.0000001199648961 20.0624560422825411   T   T   T
  1.4207476540490318  2.0092407935032499 20.0624566032106735   T   T   T
  4.2622431548027393  2.0092407118199427 20.0624566111498659   T   T   T
  7.1037391738023654  2.0092407596676463 20.0624569483348125   T   T   T
  9.9452338556267748  2.0092404485389337 20.0624572219157820   T   T   T
  0.0000002591985469  4.0184815199925570 20.0624565984783665   T   T   T
  2.8414955166915452  4.0184815091773318 20.0624571893749852   T   T   T
  5.6829910620217596  4.0184814626780918 20.0624566534784243   T   T   T
  8.5244864203204731  4.0184812175431306 20.0624565240718482   T   T   T
  1.4207479592368555  6.0277222192377691 20.0624568714734686   T   T   T
  4.2622428971535529  6.0277220282987640 20.0624566409712024   T   T   T
  7.1037389632826544  6.0277218359977613 20.0624569939157702   T   T   T
  9.9452343251461635  6.0277221077730472 20.0624569644973292   T   T   T
 -0.0000003659913692  2.0092407680489663 22.0653109145756474   T   T   T
  2.8414959122967121  2.0092408340152010 22.0653109852545768   T   T   T
  5.6829906369324199  2.0092408706507414 22.0653108149508235   T   T   T
  8.5244869896309154  2.0092406892434718 22.0653102455307639   T   T   T
  1.4207479086310273  4.0184813964228603 22.0653109673608725   T   T   T
  4.2622434415313704  4.0184811860740925 22.0653111858764994   T   T   T
  7.1037384506668948  4.0184816554158012 22.0653105786494947   T   T   T
  9.9452343587548899  4.0184812996668695 22.0653111746826163   T   T   T
 -0.0000000975164308  6.0277219453905202 22.0653109567037582   T   T   T
  2.8414956219288219  6.0277221137026835 22.0653113431199550   T   T   T
  5.6829909921004003  6.0277218845991030 22.0653110652315760   T   T   T
  8.5244863438172569  6.0277218586657781 22.0653108517655383   T   T   T
  1.4207478657864336  8.0369627190789839 22.0653109055364709   T   T   T
  4.2622434559215607  8.0369629345208420 22.0653111560721911   T   T   T
  7.1037386017555910  8.0369626849082643 22.0653114335808347   T   T   T
  9.9452345956690369  8.0369631696128216 22.0653110193418804   T   T   T
 -0.0000002981276803  0.0000001370556547 24.0690563690800268   T   T   T
  2.8414957278901936  0.0000001094383263 24.0690566319279746   T   T   T
  5.6829911634101711  0.0000000847941671 24.0690560624175873   T   T   T
  8.5244861349424053 -0.0000003464395174 24.0690564791354511   T   T   T
  1.4207479353127783  2.0092409350076581 24.0690562883880794   T   T   T
  4.2622433823088119  2.0092406209954965 24.0690560552890993   T   T   T
  7.1037384926495948  2.0092404945226270 24.0690569544342345   T   T   T
  9.9452346133721914  2.0092407726628965 24.0690564020523254   T   T   T
  0.0000002324472845  4.0184811430216918 24.0690563956028925   T   T   T
  2.8414954873861507  4.0184814437599412 24.0690565596645456   T   T   T
  5.6829909307009352  4.0184813316106185 24.0690563054391760   T   T   T
  8.5244866609877814  4.0184814788324710 24.0690570053256252   T   T   T
  1.4207478144574213  6.0277217887079555 24.0690562627207321   T   T   T
  4.2622433776218607  6.0277220603093369 24.0690563802091546   T   T   T
  7.1037388469925915  6.0277221292815870 24.0690563514769451   T   T   T
  9.9452341331254441  6.0277220178979949 24.0690562837743300   T   T   T
  0.0000000000000000  2.0092407247236168 26.0739257977889345   F   F   F
  2.8414954829764851  2.0092407247236168 26.0739257977889345   F   F   F
  5.6829909659529703  2.0092407247236168 26.0739257977889345   F   F   F
  8.5244864489294550  2.0092407247236168 26.0739257977889345   F   F   F
  1.4207477414882426  4.0184814494472336 26.0739257977889345   F   F   F
  4.2622432244647275  4.0184814494472336 26.0739257977889345   F   F   F
  7.1037387074412131  4.0184814494472336 26.0739257977889345   F   F   F
  9.9452341904176986  4.0184814494472336 26.0739257977889345   F   F   F
  0.0000000000000000  6.0277221741708509 26.0739257977889345   F   F   F
  2.8414954829764851  6.0277221741708509 26.0739257977889345   F   F   F
  5.6829909659529703  6.0277221741708509 26.0739257977889345   F   F   F
  8.5244864489294550  6.0277221741708509 26.0739257977889345   F   F   F
  1.4207477414882426  8.0369628988944672 26.0739257977889345   F   F   F
  4.2622432244647275  8.0369628988944672 26.0739257977889345   F   F   F
  7.1037387074412131  8.0369628988944672 26.0739257977889345   F   F   F
  9.9452341904176986  8.0369628988944672 26.0739257977889345   F   F   F
  0.0000000000000000  0.0000000000000000 28.0831665225125526   F   F   F
  2.8414954829764851  0.0000000000000000 28.0831665225125526   F   F   F
  5.6829909659529703  0.0000000000000000 28.0831665225125526   F   F   F
  8.5244864489294550  0.0000000000000000 28.0831665225125526   F   F   F
  1.4207477414882426  2.0092407247236168 28.0831665225125526   F   F   F
  4.2622432244647275  2.0092407247236168 28.0831665225125526   F   F   F
  7.1037387074412131  2.0092407247236168 28.0831665225125526   F   F   F
  9.9452341904176986  2.0092407247236168 28.0831665225125526   F   F   F
  0.0000000000000000  4.0184814494472336 28.0831665225125526   F   F   F
  2.8414954829764851  4.0184814494472336 28.0831665225125526   F   F   F
  5.6829909659529703  4.0184814494472336 28.0831665225125526   F   F   F
  8.5244864489294550  4.0184814494472336 28.0831665225125526   F   F   F
  1.4207477414882426  6.0277221741708509 28.0831665225125526   F   F   F
  4.2622432244647275  6.0277221741708509 28.0831665225125526   F   F   F
  7.1037387074412131  6.0277221741708509 28.0831665225125526   F   F   F
  9.9452341904176986  6.0277221741708509 28.0831665225125526   F   F   F
  0.0000000000000000  2.0092407247236168 30.0924072472361672   F   F   F
  2.8414954829764851  2.0092407247236168 30.0924072472361672   F   F   F
  5.6829909659529703  2.0092407247236168 30.0924072472361672   F   F   F
  8.5244864489294550  2.0092407247236168 30.0924072472361672   F   F   F
  1.4207477414882426  4.0184814494472336 30.0924072472361672   F   F   F
  4.2622432244647275  4.0184814494472336 30.0924072472361672   F   F   F
  7.1037387074412131  4.0184814494472336 30.0924072472361672   F   F   F
  9.9452341904176986  4.0184814494472336 30.0924072472361672   F   F   F
  0.0000000000000000  6.0277221741708509 30.0924072472361672   F   F   F
  2.8414954829764851  6.0277221741708509 30.0924072472361672   F   F   F
  5.6829909659529703  6.0277221741708509 30.0924072472361672   F   F   F
  8.5244864489294550  6.0277221741708509 30.0924072472361672   F   F   F
  1.4207477414882426  8.0369628988944672 30.0924072472361672   F   F   F
  4.2622432244647275  8.0369628988944672 30.0924072472361672   F   F   F
  7.1037387074412131  8.0369628988944672 30.0924072472361672   F   F   F
  9.9452341904176986  8.0369628988944672 30.0924072472361672   F   F   F
  0.0000000000000000  0.0000000000000000 32.1016479719597854   F   F   F
  2.8414954829764851  0.0000000000000000 32.1016479719597854   F   F   F
  5.6829909659529703  0.0000000000000000 32.1016479719597854   F   F   F
  8.5244864489294550  0.0000000000000000 32.1016479719597854   F   F   F
  1.4207477414882426  2.0092407247236168 32.1016479719597854   F   F   F
  4.2622432244647275  2.0092407247236168 32.1016479719597854   F   F   F
  7.1037387074412131  2.0092407247236168 32.1016479719597854   F   F   F
  9.9452341904176986  2.0092407247236168 32.1016479719597854   F   F   F
  0.0000000000000000  4.0184814494472336 32.1016479719597854   F   F   F
  2.8414954829764851  4.0184814494472336 32.1016479719597854   F   F   F
  5.6829909659529703  4.0184814494472336 32.1016479719597854   F   F   F
  8.5244864489294550  4.0184814494472336 32.1016479719597854   F   F   F
  1.4207477414882426  6.0277221741708509 32.1016479719597854   F   F   F
  4.2622432244647275  6.0277221741708509 32.1016479719597854   F   F   F
  7.1037387074412131  6.0277221741708509 32.1016479719597854   F   F   F
  9.9452341904176986  6.0277221741708509 32.1016479719597854   F   F   F
  0.0000002376425392  2.0092405818897681 34.1065148092565025   T   T   T
  2.8414955406936522  2.0092408122688807 34.1065148435292755   T   T   T
  5.6829911032718048  2.0092408066345220 34.1065144797651882   T   T   T
  8.5244864089984098  2.0092407723220140 34.1065150625110576   T   T   T
  1.4207478778335847  4.0184809238091814 34.1065137938469078   T   T   T
  4.2622431059181887  4.0184819289995302 34.1065140521926438   T   T   T
  7.1037391575005620  4.0184813107044386 34.1065142361013542   T   T   T
  9.9452341285866606  4.0184815283593549 34.1065146291298191   T   T   T
 -0.0000005646078305  6.0277222316151304 34.1065147310735384   T   T   T
  2.8414963326516558  6.0277219003054023 34.1065138029710155   T   T   T
  5.6829909122249598  6.0277219772375847 34.1065142344538828   T   T   T
  8.5244864995851142  6.0277220902445352 34.1065149876801641   T   T   T
  1.4207473954387533  8.0369636270396487 34.1065144586719100   T   T   T
  4.2622430397621915  8.0369627476877188 34.1065150423719103   T   T   T
  7.1037391943528982  8.0369629510553704 34.1065150880586074   T   T   T
  9.9452342775872147  8.0369628341075128 34.1065159467991208   T   T   T
  0.0000002366097319  0.0000003523859414 36.1102599245504976   T   T   T
  2.8414955347155750 -0.0000001653370908 36.1102602764586464   T   T   T
  5.6829911166671856 -0.0000000744970913 36.1102612022009666   T   T   T
  8.5244861984860378  0.0000002200806313 36.1102602511189659   T   T   T
  1.4207474002109344  2.0092408166174534 36.1102603061666798   T   T   T
  4.2622432509143335  2.0092406297475489 36.1102614991440305   T   T   T
  7.1037391808232639  2.0092403658421696 36.1102612042958242   T   T   T
  9.9452343400834522  2.0092412193103271 36.1102598226175644   T   T   T
 -0.0000009022810502  4.0184809129282462 36.1102595608098156   T   T   T
  2.8414957165343857  4.0184815660240227 36.1102605188391550   T   T   T
  5.6829909062682562  4.0184816932377432 36.1102610064980425   T   T   T
  8.5244870786019558  4.0184812044650657 36.1102598331941707   T   T   T
  1.4207480216957933  6.0277225020152310 36.1102613967887933   T   T   T
  4.2622435265655803  6.0277221042345959 36.1102604671397884   T   T   T
  7.1037386842424182  6.0277222149199927 36.1102617841930353   T   T   T
  9.9452341688828589  6.0277217782137589 36.1102603351054512   T   T   T
  0.0000000354906269  2.0092409919228751 38.1131142344595375   T   T   T
  2.8414956886792044  2.0092407227051150 38.1131137355010665   T   T   T
  5.6829911415339653  2.0092406291484428 38.1131142848729567   T   T   T
  8.5244858880840351  2.0092408220220888 38.1131143365545029   T   T   T
  1.4207478631162647  4.0184820588577619 38.1131147261656906   T   T   T
  4.2622432060611608  4.0184810804875104 38.1131142525058664   T   T   T
  7.1037385062096625  4.0184812780838239 38.1131154772065983   T   T   T
  9.9452343682768980  4.0184816705170450 38.1131149574505201   T   T   T
  0.0000002544426921  6.0277220237671214 38.1131150046752225   T   T   T
  2.8414943595220623  6.0277220768196296 38.1131136377109740   T   T   T
  5.6829914644158954  6.0277217951325897 38.1131133122200438   T   T   T
  8.5244867806001565  6.0277219713934285 38.1131146381978141   T   T   T
  1.4207481739628118  8.0369623622479409 38.1131152564791407   T   T   T
  4.2622432054791828  8.0369632626915273 38.1131139112923805   T   T   T
  7.1037385194093732  8.0369630550149118 38.1131148101667492   T   T   T
  9.9452341415154581  8.0369629109402823 38.1131158373075891   T   T   T
 -0.0000000702190233  0.0000002857042886 40.1160324137292577   T   T   T
  2.8414952874161132 -0.0000002640439361 40.1160317999003908   T   T   T
  5.6829910690740428 -0.0000001034743947 40.1160321955638324   T   T   T
  8.5244867473253372 -0.0000001891635320 40.1160331913178396   T   T   T
  1.4207474669755813  2.0092404376099573 40.1160324157800616   T   T   T
  4.2622433871518419  2.0092404896569498 40.1160334902475029   T   T   T
  7.1037387059666424  2.0092410591256153 40.1160334330709176   T   T   T
  9.9452344585914272  2.0092408281001566 40.1160333789057830   T   T   T
 -0.0000001311857467  4.0184811076961555 40.1160317659563646   T   T   T
  2.8414950725559871  4.0184815405953698 40.1160316281711928   T   T   T
  5.6829920011819501  4.0184812917497839 40.1160312592592234   T   T   T
  8.5244861293465544  4.0184817208376380 40.1160317807685303   T   T   T
  1.4207481222542262  6.0277223412546066 40.1160312700469603   T   T   T
  4.2622428632751781  6.0277222169685638 40.1160339198912297   T   T   T
  7.1037390480516507  6.0277215254183529 40.1160341711669801   T   T   T
  9.9452338948491228  6.0277219543362319 40.1160330694165523   T   T   T
  0.0000002096833102  2.0092408899612857 42.1193131948005899   T   T   T
  2.8414956817004846  2.0092408301639457 42.1193134158200735   T   T   T
  5.6829912061861583  2.0092409373220508 42.1193126917936880   T   T   T
  8.5244862318922099  2.0092407178026250 42.1193115112305350   T   T   T
  1.4207478116145256  4.0184813609905996 42.1193140516835172   T   T   T
  4.2622433209460606  4.0184813312166590 42.1193140837268629   T   T   T
  7.1037384738360405  4.0184814929484958 42.1193131633572406   T   T   T
  9.9452344570827496  4.0184812263449645 42.1193120584379201   T   T   T
  0.0000004816441211  6.0277219386617285 42.1193128152027469   T   T   T
  2.8414955139879221  6.0277217884052812 42.1193121936359773   T   T   T
  5.6829910340074550  6.0277219591500479 42.1193116167481776   T   T   T
  8.5244863774627326  6.0277223057478464 42.1193121061584463   T   T   T
  1.4207476877042522  8.0369629985538626 42.1193127425595364   T   T   T
  4.2622433596153160  8.0369632195049991 42.1193131383282378   T   T   T
  7.1037388336241660  8.0369631130659158 42.1193135540672330   T   T   T
  9.9452341547273750  8.0369630239623842 42.1193136930004641   T   T   T
  0.0000000238199115  0.0000000622413266 44.1265465063570375   T   T   T
  2.8414952295336446  0.0000001255320462 44.1265468659278994   T   T   T
  5.6829913152968512  0.0000001362348196 44.1265469476482437   T   T   T
  8.5244861339896723  0.0000000979127170 44.1265466491344753   T   T   T
  1.4207475159237770  2.0092408563868047 44.1265465205038154   T   T   T
  4.2622436305870384  2.0092408367724039 44.1265454551080012   T   T   T
  7.1037388593425668  2.0092406757247527 44.1265478667143114   T   T   T
  9.9452340157027805  2.0092405954375305 44.1265482196583534   T   T   T
  0.0000005903910582  4.0184815633225464 44.1265465489912359   T   T   T
  2.8414953849617186  4.0184814607489132 44.1265450445420981   T   T   T
  5.6829909115681794  4.0184813408708280 44.1265467170350902   T   T   T
  8.5244863650466147  4.0184814374522526 44.1265473158864836   T   T   T
  1.4207471596419565  6.0277215904459736 44.1265463918443714   T   T   T
  4.2622437888624871  6.0277218635101280 44.1265470425916888   T   T   T
  7.1037385945327269  6.0277222463188185 44.1265471191390617   T   T   T
  9.9452344778068031  6.0277220753619094 44.1265474450899049   T   T   T
 -0.0000004528969076  2.0092405784887544 46.1513811597954842   T   T   T
  2.8414956883874245  2.0092406240286351 46.1513835285402294   T   T   T
  5.6829908272936445  2.0092408460734230 46.1513836611805175   T   T   T
  8.5244869797329450  2.0092411100184937 46.1513819117057551   T   T   T
  1.4207478249903056  4.0184814147305516 46.1513821587680155   T   T   T
  4.2622433190459015  4.0184815210808615 46.1513829812607739   T   T   T
  7.1037389031831211  4.0184813068520002 46.1513820608583529   T   T   T
  9.9452338923235182  4.0184813440801825 46.1513815465088868   T   T   T
 -0.0000006434637287  6.0277223668294164 46.1513825429630700   T   T   T
  2.8414961645738335  6.0277223463575647 46.1513825192425671   T   T   T
  5.6829908110541352  6.0277223401036917 46.1513812461769604   T   T   T
  8.5244866624918636  6.0277220594055470 46.1513824114832474   T   T   T
  1.4207477828883144  8.0369629413826456 46.1513831702783577   T   T   T
  4.2622432987704970  8.0369626764083417 46.1513829795256214   T   T   T
  7.1037385294707924  8.0369629806679619 46.1513823833604633   T   T   T
  9.9452343396223277  8.0369626085579657 46.1513837588219218   T   T   T
  0.0000002011562083 -0.0000005714360832 48.1423213155831604   T   T   T
  2.8414950061134721  0.0000003383961735 48.1423196623279566   T   T   T
  5.6829911295536961  0.0000001743758865 48.1423200544458396   T   T   T
  8.5244863186291138 -0.0000003670546854 48.1423213482509809   T   T   T
  1.4207486091591290  2.0092408148003500 48.1423186274418740   T   T   T
  4.2622431857824399  2.0092407804193395 48.1423203095585350   T   T   T
  7.1037377666685666  2.0092408877504644 48.1423195891017670   T   T   T
  9.9452341992045792  2.0092404725294579 48.1423211183446895   T   T   T
  0.0000006663940937  4.0184816251299003 48.1423202077119896   T   T   T
  2.8414955107496196  4.0184814284808468 48.1423205193078587   T   T   T
  5.6829906271875252  4.0184814446338635 48.1423202045891401   T   T   T
  8.5244862522395177  4.0184815854409832 48.1423197548734763   T   T   T
  1.4207473778090380  6.0277221286063210 48.1423180236946493   T   T   T
  4.2622430751681550  6.0277220334295762 48.1423196361639611   T   T   T
  7.1037393437831087  6.0277217916391033 48.1423201901890536   T   T   T
  9.9452344934128245  6.0277223249218199 48.1423199203630290   T   T   T
