Fe
 1.0000000000000000
    11.3566185288747370   -0.0000000502325425    0.0000000140232003
    -0.0000000502325240   11.3566214238158558    0.0000000225958246
     0.0000000140231995    0.0000000225957675   11.3566185521203522
 Fe 
 127
Cartesian
  1.3688992951793186  1.3681024054523123  1.3674379727305623
 -0.0000010843785667 -0.0000010540709670  2.8720360902139959
  1.4213573365407473  1.4186994880358068  4.2569437461263178
  0.0000008418137891 -0.0000021986914582  5.6783089122033656
  1.4187564645897748  1.4211904203910992  7.0996380070917535
  0.0000026561921935 -0.0000011983591293  8.4845834219727241
  1.3674374059784886  1.3681024217001143  9.9877204659176027
  0.0000001545690132  2.8719380489717969  0.0000001768382630
  1.4188122183375995  4.2568879883130322  1.4211100279133622
  0.0002903279640195  2.8266353422969734  2.8266926912029002
  1.4174238501037761  4.2547305019870025  4.2557985116502506
  0.0000000440795021  2.8384731005984696  5.6783092890246225
  1.4171776339240376  4.2558148389853514  7.1019549958603925
 -0.0002902933708023  2.8266359527912388  8.5299260417736633
  1.4211102811255329  4.2568876743279116  9.9378056479123416
 -0.0000002432539633  5.6783102923061648 -0.0000002026413106
  1.4211102967712446  7.0997335291965245  1.4188117173978574
  0.0000012923455232  5.6783097820208299  2.8384487509453584
  1.4171786087230194  7.1008062541933414  4.2546636459871916
 -0.0000008690267896  5.6783087547213782  5.6783096603783951
  1.4174229313188278  7.1018912439659925  7.1008196078625243
 -0.0000026845074045  5.6783094976733688  8.5181690610457768
  1.4188111494423876  7.0997335628648406  9.9355079953972041
  0.0000000345045089  8.4846838117288215  0.0000000736825255
  1.3674373388616821  9.9885189242115064  1.3688998780281481
 -0.0002903208558823  8.5299879611424281  2.8266924013871830
  1.4187554923496086  9.9354305824495981  4.2569806449049956
 -0.0000000453064232  8.5181524881306387  5.6783092566329811
  1.4213580800975671  9.9379224303476583  7.0996755351586733
  0.0002903811497831  8.5299878729555587  8.5299261726541022
  1.3689002405717610  9.9885188233740347  9.9891818191205264
  2.8720357037200404 -0.0000024787266511  0.0000037518615370
  4.2569808512882767  1.4211910265487051  1.4187558076301667
  2.8267631887914595  0.0000014498762117  2.8267667077327561
  4.2559084874712694  1.4175075819958847  4.2547641796582081
  2.8389020731219752  0.0000007888170047  5.6783085289680946
  4.2547642002335664  1.4175074786942830  7.1007110927024435
  2.8267667362966229  0.0000014793370843  8.5298565061411988
  4.2569434922446412  1.4187001657398628  9.9352568831550840
  2.8266926567393238  2.8266373998385190 -0.0002902659850746
  4.2546633206094651  4.2558154868900608  1.4171782804127022
  2.8304958834015435  2.8304319526270514  2.8303645551177938
  4.2561159703841147  4.2561477854716561  4.2559757741123443
  2.8386641830877606  2.8388766966235544  5.6783182884483026
  4.2559755500661138  4.2561479506662971  7.1005016053466186
  2.8303646584556312  2.8304304969483223  8.5261227061893745
  4.2557987874899839  4.2547313011476247  9.9391991011310363
  2.8384490595585574  5.6783083468969613 -0.0000036057257437
  4.2557969939527549  7.1018907443746544  1.4173938461790183
  2.8387601942665115  5.6783121344453988  2.8387568831803156
  4.2559753929596198  7.1004736332897789  4.2561145349202425
  2.8368544152816750  5.6783114899281051  5.6783100848233854
  4.2561153474224973  7.1004735183438497  7.1006427023130128
  2.8387565598918756  5.6783120936837364  8.5178573415334213
  4.2546640188291001  7.1008055869585149  9.9394382664773868
  2.8266924411452710  8.5299887089075614  0.0002903906683544
  4.2569448179641567  9.9379217640248996  1.4213871828854932
  2.8303643576141466  8.5261866507549033  2.8304959254578499
  4.2547642832076065  9.9391138987273084  4.2559099483884655
  2.8386641943936866  8.5177429491319678  5.6783002904876412
  4.2559088430900918  9.9391139323874143  7.1018546592284419
  2.8304959245728232  8.5261878918392782  8.5262540722155862
  4.2569800962086317  9.9354299403049566  9.9378647791519814
  5.6783090348872740 -0.0000039119268236  0.0000001573773523
  7.0996751919189940  1.4186998346922413  1.4213620731877477
  5.6783116941929697  0.0000022063096867  2.8389010872900835
  7.1018543837692096  1.4175071939291217  4.2559075221453746
  5.6783092962964714  0.0000004361889895  5.6783091976666942
  7.1007107168574137  1.4175073268452798  7.1018543756959405
  5.6783070750232358  0.0000020749441166  8.5177175619283449
  7.0996380480821895  1.4211908328912581  9.9378627107751392
  5.6783092367741572  2.8384753292130083  0.0000000383141476
  7.1008196214866528  4.2547308216473185  1.4174190527631205
  5.6783002730279355  2.8388753108626998  2.8386643347575613
  7.1006428954855885  4.2561476189667724  4.2561170481151445
  5.6783092082429834  2.8370948960115259  5.6783093076054056
  7.1005018437229639  4.2561476380326901  7.1006429198345913
  5.6783182680958255  2.8388751301670672  8.5179543021401773
  7.1019549116007843  4.2558154739128247  9.9394405672458586
  5.6783093420123114  5.6783069865439098 -0.0000001216628511
  7.1019544459800521  7.1008059111457218  1.4171800718089467
  5.6783069350624924  5.6783129312746743  2.8368554781598077
  7.1005032104757060  7.1004737643694043  4.2559757738699657
  5.6783092364528134  5.6783110911234260  5.6783093982486266
  7.1006429765297643  7.1004737527641435  7.1005036372364003
  5.6783114634549685  5.6783128520579362  8.5197630651460887
  7.1008202357683556  7.1018908397027092  9.9392042754389998
  5.6783091920742486  8.5181539073668127  0.0000000990670993
  7.0996383757144219  9.9354302180642993  1.4187542446324914
  5.6783182085631392  8.5177417463874043  2.8386642541345042
  7.1007094679888958  9.9391141676150472  4.2547641745788738
  5.6783092471064949  8.5195256639055614  5.6783093245197769
  7.1018542597084986  9.9391140938655500  7.1007090635514167
  5.6783002295199596  8.5177417483737479  8.5179543483085585
  7.0996747593463247  9.9379219791494240  9.9352521050294289
  8.4845830671968052 -0.0000021616677244 -0.0000032665483909
  9.9891815826724351  1.3681019823004343  1.3688985619249407
  8.5298523532019104  0.0000015257177851  2.8267622202156084
  9.9378631528252814  1.4211902640690377  4.2569808441304016
  8.5177173843267688  0.0000014152397746  5.6783105738041204
  9.9352293544169950  1.4186995273159091  7.0996734751824819
  8.5298560077319916  0.0000016010449348  8.5298515160707105
  9.9877200059703899  1.3681020320454000  9.9891810472656690
  8.5299258976424728  2.8266366636445288  0.0002903859571061
  9.9355080397955593  4.2568872346819386  1.4188127381649724
  8.5262538003163399  2.8304302831253678  2.8304962266695286
  9.9394397516380639  4.2558147112904363  4.2546634603915860
  8.5179542814809377  2.8388754111352967  5.6783004058963087
  9.9392265085818661  4.2547304630279505  7.1008214142740504
  8.5261227716118793  2.8304308120281627  8.5262539518207330
  9.9378059704248951  4.2568874148313212  9.9355082980199434
  8.5181690603543405  5.6783084765465741  0.0000033322406156
  9.9378068108968538  7.0997338634812985  1.4211103264044729
  8.5178617184412175  5.6783121750873207  2.8387609437548025
  9.9392010401077187  7.1018913291444008  4.2557985442388091
  8.5197632402460179  5.6783120790528709  5.6783079777139678
  9.9394392112201349  7.1008062337505624  7.1019548267322321
  8.5178576260713683  5.6783122671424042  8.5178620944624566
  9.9355079775421906  7.0997338566478287  9.9378072711595689
  8.5299259736145352  8.5299890066701884 -0.0002902774861610
  9.9877189605636776  9.9885192536592040  1.3674373302144098
  8.5261224996818878  8.5261879709175989  2.8303645250519471
  9.9352551156955116  9.9379225853737019  4.2569435259071335
  8.5179542051824804  8.5177429907229563  5.6783182565598507
  9.9378633261358953  9.9354306564038382  7.0996381387630381
  8.5262539734190401  8.5261872410471753  8.5261225595822818
  9.9891814070688980  9.9885190368037247  9.9877184422288963
