Fe
 1.0000000000000000
    16.0739257977889345    0.0000000000000000    0.0000000000000000
     0.0000000000000000   13.9204280794312645    0.0000000000000000
     0.0000000000000000    0.0000000000000000   35.5851127289770091
 Fe 
 320
Selective dynamics
Cartesian
  0.0000003529548997  2.3200714993197287 10.1252531384047035   T   T   T
  4.0184815402803871  2.3200711566272081 10.1252538224090536   T   T   T
  8.0369629803870613  2.3200713253038789 10.1252535532992809   T   T   T
 12.0554442195676046  2.3200712321795165 10.1252538303984636   T   T   T
  2.0092409886123099  5.8001782504619532 10.1252531452682764   T   T   T
  6.0277220665763149  5.8001781641997860 10.1252541400119043   T   T   T
 10.0462030591233340  5.8001782954035965 10.1252537933511331   T   T   T
 14.0646845219830734  5.8001783316588238 10.1252536655937657   T   T   T
  0.0000003263419195  9.2802853406454702 10.1252535342474381   T   T   T
  4.0184815321601475  9.2802853864472628 10.1252536727428311   T   T   T
  8.0369631234382712  9.2802853830344638 10.1252536021745154   T   T   T
 12.0554441165274220  9.2802853934802645 10.1252537611193656   T   T   T
  2.0092412983043300 12.7603924453827222 10.1252538405159616   T   T   T
  6.0277222466599847 12.7603924189645159 10.1252538310578863   T   T   T
 10.0462031903724860 12.7603926824023262 10.1252533245003136   T   T   T
 14.0646843748890920 12.7603925171126544 10.1252536264577095   T   T   T
  0.0000002214259180 -0.0000001293453319 10.9296676485308204   T   T   T
  4.0184815751715384  0.0000000655634616 10.9296677765097296   T   T   T
  8.0369629466517818  0.0000001220332488 10.9296677882393531   T   T   T
 12.0554437713824854 -0.0000001182339464 10.9296677309804799   T   T   T
  2.0092408223223046  3.4801069609732944 10.9296678211010754   T   T   T
  6.0277218491595912  3.4801069856354099 10.9296678813475481   T   T   T
 10.0462029974140261  3.4801067387306035 10.9296677579326733   T   T   T
 14.0646844437155494  3.4801069298343981 10.9296678034441079   T   T   T
  0.0000003286728866  6.9602143082086947 10.9296676820777581   T   T   T
  4.0184814433879632  6.9602139984547771 10.9296674740574247   T   T   T
  8.0369630232241249  6.9602138956267705 10.9296677060994369   T   T   T
 12.0554441385665250  6.9602139277193764 10.9296673018167407   T   T   T
  2.0092410238088632 10.4403214341124499 10.9296674026751752   T   T   T
  6.0277220859437701 10.4403216058105794 10.9296676685240737   T   T   T
 10.0462031879924467 10.4403207032817242 10.9296680754262532   T   T   T
 14.0646847485631454 10.4403207239899398 10.9296672733183993   T   T   T
  2.0092410974328607  1.1600357662714724 11.5742086805600835   T   T   T
  6.0277219199033087  1.1600356335184896 11.5742089419038940   T   T   T
 10.0462036202765841  1.1600357533785921 11.5742087513647878   T   T   T
 14.0646843211498354  1.1600357366993932 11.5742087685437625   T   T   T
  0.0000002577069600  4.6401422939778989 11.5742088425764766   T   T   T
  4.0184817077827395  4.6401425939416647 11.5742088801785314   T   T   T
  8.0369630760446888  4.6401430399363015 11.5742088128307898   T   T   T
 12.0554440739906532  4.6401427478095609 11.5742085304784545   T   T   T
  2.0092407205909240  8.1202497223026331 11.5742085078902335   T   T   T
  6.0277224931958324  8.1202497620137777 11.5742088390471167   T   T   T
 10.0462029416898702  8.1202500068188694 11.5742088342579894   T   T   T
 14.0646844592414357  8.1202498444190994 11.5742083115835310   T   T   T
  0.0000002062110054 11.6003565785995519 11.5742088890054049   T   T   T
  4.0184816926665095 11.6003573614006097 11.5742082745853558   T   T   T
  8.0369622449778753 11.6003566316641162 11.5742091399331866   T   T   T
 12.0554443014259363 11.6003568309009157 11.5742088410080530   T   T   T
  0.0000005211182513  2.3200712875486742 12.4840731874585984   T   T   T
  4.0184816698138972  2.3200713333059713 12.4840730418342858   T   T   T
  8.0369633083818055  2.3200711596399994 12.4840736611564136   T   T   T
 12.0554440560622922  2.3200711894312351 12.4840733913148583   T   T   T
  2.0092408724977462  5.8001783378932279 12.4840733061299130   T   T   T
  6.0277222523285827  5.8001783560329914 12.4840733226158260   T   T   T
 10.0462033637911556  5.8001781038837086 12.4840732609745686   T   T   T
 14.0646846442230391  5.8001784605507050 12.4840732559669050   T   T   T
  0.0000000876678993  9.2802852645590903 12.4840730319156066   T   T   T
  4.0184814653725081  9.2802854075450565 12.4840736452727175   T   T   T
  8.0369628529408370  9.2802855699187354 12.4840736786382163   T   T   T
 12.0554440436982393  9.2802854115332210 12.4840731204780173   T   T   T
  2.0092407723746200 12.7603924910812587 12.4840733979858083   T   T   T
  6.0277221459684931 12.7603921706661829 12.4840731060410199   T   T   T
 10.0462035196445854 12.7603928234976447 12.4840734491119996   T   T   T
 14.0646842512682344 12.7603925545928849 12.4840732933351433   T   T   T
  0.0000002652148184  0.0000005004580804 13.3064884838599475   T   T   T
  4.0184814387903671  0.0000001009013479 13.3064891336133542   T   T   T
  8.0369627164177615  0.0000002563734722 13.3064885226300476   T   T   T
 12.0554441940444725 -0.0000000866822921 13.3064886364577895   T   T   T
  2.0092408401378758  3.4801069759280305 13.3064889345435127   T   T   T
  6.0277220141692247  3.4801069893581364 13.3064886721092677   T   T   T
 10.0462029639711137  3.4801068495542178 13.3064882123689969   T   T   T
 14.0646843800806138  3.4801070230579665 13.3064884948624957   T   T   T
  0.0000003547376507  6.9602142818916928 13.3064888298069164   T   T   T
  4.0184812372962062  6.9602136823206875 13.3064891075854703   T   T   T
  8.0369630590195840  6.9602140971047595 13.3064889366184911   T   T   T
 12.0554442829277200  6.9602138099342108 13.3064892025970796   T   T   T
  2.0092412663202115 10.4403213465798910 13.3064887003499184   T   T   T
  6.0277222002035815 10.4403213241529311 13.3064889587226265   T   T   T
 10.0462030898181904 10.4403211834097398 13.3064881996790323   T   T   T
 14.0646849092089141 10.4403215915456098 13.3064890271392908   T   T   T
  2.0092409132445299  1.1600355999607139 14.1105327959610012   T   T   T
  6.0277224108163967  1.1600356078887737 14.1105331650948145   T   T   T
 10.0462031175849358  1.1600354828944865 14.1105325640733827   T   T   T
 14.0646852104565117  1.1600356852694220 14.1105326039154750   T   T   T
  0.0000002620161350  4.6401426484565924 14.1105321305123699   T   T   T
  4.0184815155946048  4.6401428744154538 14.1105323339166304   T   T   T
  8.0369628204439252  4.6401427898535816 14.1105327710751371   T   T   T
 12.0554442948389848  4.6401429576121105 14.1105331658780937   T   T   T
  2.0092411083455461  8.1202500228537176 14.1105329156787604   T   T   T
  6.0277220388508583  8.1202499746728627 14.1105322716195296   T   T   T
 10.0462032107669010  8.1202497152236930 14.1105325619154893   T   T   T
 14.0646847924620655  8.1202498490844057 14.1105325982473424   T   T   T
  0.0000003992773407 11.6003565284071666 14.1105322361102523   T   T   T
  4.0184813563187198 11.6003563231669720 14.1105325772241077   T   T   T
  8.0369629514151395 11.6003567856157428 14.1105329594493938   T   T   T
 12.0554437456064036 11.6003563644178787 14.1105324469840365   T   T   T
  0.0000003665131697  2.3200713419122589 14.9338003116360394   T   T   T
  4.0184814594319489  2.3200713078021584 14.9337998083848440   T   T   T
  8.0369626444248770  2.3200714097251369 14.9338001346239473   T   T   T
 12.0554443876183424  2.3200715993262371 14.9337995158181744   T   T   T
  2.0092408757422611  5.8001785448140755 14.9338005068242747   T   T   T
  6.0277220601286414  5.8001784617709768 14.9337998898718940   T   T   T
 10.0462037847970738  5.8001783060802197 14.9338003016190903   T   T   T
 14.0646847393368013  5.8001782873473990 14.9337997927336410   T   T   T
  0.0000003015058958  9.2802854424363996 14.9338003431575981   T   T   T
  4.0184814650074561  9.2802859077930346 14.9338001565419063   T   T   T
  8.0369628366237631  9.2802854780712867 14.9338001678343240   T   T   T
 12.0554437227737647  9.2802855013472012 14.9338003613925174   T   T   T
  2.0092408642325292 12.7603926910727630 14.9338001011899149   T   T   T
  6.0277221606338296 12.7603924985357295 14.9338000762682892   T   T   T
 10.0462033135921072 12.7603929582057951 14.9337998106797958   T   T   T
 14.0646848470033792 12.7603924497554146 14.9337999706716751   T   T   T
  0.0000004347818655 -0.0000001285603513 15.7571812134482236   T   T   T
  4.0184814425158404  0.0000003701996923 15.7571817528600562   T   T   T
  8.0369633292547569 -0.0000000018343461 15.7571815705686227   T   T   T
 12.0554438318853112  0.0000000341751971 15.7571815486887683   T   T   T
  2.0092407170239266  3.4801070531549496 15.7571818315849779   T   T   T
  6.0277221672260239  3.4801072447550192 15.7571815119934868   T   T   T
 10.0462032496205591  3.4801071974357018 15.7571819993337847   T   T   T
 14.0646847421861896  3.4801072223488001 15.7571813155884346   T   T   T
  0.0000001700889610  6.9602140763195885 15.7571808872580981   T   T   T
  4.0184817144236717  6.9602139910961958 15.7571808771916597   T   T   T
  8.0369626428464738  6.9602138901688404 15.7571816393037221   T   T   T
 12.0554440484652226  6.9602143825638771 15.7571817379110790   T   T   T
  2.0092407628858857 10.4403214118743257 15.7571813802251111   T   T   T
  6.0277221944411661 10.4403214576745622 15.7571808555001862   T   T   T
 10.0462037931383570 10.4403213585888679 15.7571818567078434   T   T   T
 14.0646844657765389 10.4403212200393085 15.7571809976952757   T   T   T
  2.0092407247236168  1.1600356732859387 16.5621527279903198   F   F   F
  6.0277221741708509  1.1600356732859387 16.5621527279903198   F   F   F
 10.0462036236180836  1.1600356732859387 16.5621527279903198   F   F   F
 14.0646850730653181  1.1600356732859387 16.5621527279903198   F   F   F
  0.0000000000000000  4.6401426931437548 16.5621527279903198   F   F   F
  4.0184814494472336  4.6401426931437548 16.5621527279903198   F   F   F
  8.0369628988944672  4.6401426931437548 16.5621527279903198   F   F   F
 12.0554443483417018  4.6401426931437548 16.5621527279903198   F   F   F
  2.0092407247236168  8.1202497130015718 16.5621527279903198   F   F   F
  6.0277221741708509  8.1202497130015718 16.5621527279903198   F   F   F
 10.0462036236180836  8.1202497130015718 16.5621527279903198   F   F   F
 14.0646850730653181  8.1202497130015718 16.5621527279903198   F   F   F
  0.0000000000000000 11.6003567328593871 16.5621527279903198   F   F   F
  4.0184814494472336 11.6003567328593871 16.5621527279903198   F   F   F
  8.0369628988944672 11.6003567328593871 16.5621527279903198   F   F   F
 12.0554443483417018 11.6003567328593871 16.5621527279903198   F   F   F
  0.0000000000000000  2.3200713465718774 17.3824218189891084   F   F   F
  4.0184814494472336  2.3200713465718774 17.3824218189891084   F   F   F
  8.0369628988944672  2.3200713465718774 17.3824218189891084   F   F   F
 12.0554443483417018  2.3200713465718774 17.3824218189891084   F   F   F
  2.0092407247236168  5.8001783664296926 17.3824218189891084   F   F   F
  6.0277221741708509  5.8001783664296926 17.3824218189891084   F   F   F
 10.0462036236180836  5.8001783664296926 17.3824218189891084   F   F   F
 14.0646850730653181  5.8001783664296926 17.3824218189891084   F   F   F
  0.0000000000000000  9.2802853862875097 17.3824218189891084   F   F   F
  4.0184814494472336  9.2802853862875097 17.3824218189891084   F   F   F
  8.0369628988944672  9.2802853862875097 17.3824218189891084   F   F   F
 12.0554443483417018  9.2802853862875097 17.3824218189891084   F   F   F
  2.0092407247236168 12.7603924061453249 17.3824218189891084   F   F   F
  6.0277221741708509 12.7603924061453249 17.3824218189891084   F   F   F
 10.0462036236180836 12.7603924061453249 17.3824218189891084   F   F   F
 14.0646850730653181 12.7603924061453249 17.3824218189891084   F   F   F
  0.0000000000000000  0.0000000000000000 18.2026909099879006   F   F   F
  4.0184814494472336  0.0000000000000000 18.2026909099879006   F   F   F
  8.0369628988944672  0.0000000000000000 18.2026909099879006   F   F   F
 12.0554443483417018  0.0000000000000000 18.2026909099879006   F   F   F
  2.0092407247236168  3.4801070198578161 18.2026909099879006   F   F   F
  6.0277221741708509  3.4801070198578161 18.2026909099879006   F   F   F
 10.0462036236180836  3.4801070198578161 18.2026909099879006   F   F   F
 14.0646850730653181  3.4801070198578161 18.2026909099879006   F   F   F
  0.0000000000000000  6.9602140397156322 18.2026909099879006   F   F   F
  4.0184814494472336  6.9602140397156322 18.2026909099879006   F   F   F
  8.0369628988944672  6.9602140397156322 18.2026909099879006   F   F   F
 12.0554443483417018  6.9602140397156322 18.2026909099879006   F   F   F
  2.0092407247236168 10.4403210595734492 18.2026909099879006   F   F   F
  6.0277221741708509 10.4403210595734492 18.2026909099879006   F   F   F
 10.0462036236180836 10.4403210595734492 18.2026909099879006   F   F   F
 14.0646850730653181 10.4403210595734492 18.2026909099879006   F   F   F
  2.0092407247236168  1.1600356732859387 19.0229600009866893   F   F   F
  6.0277221741708509  1.1600356732859387 19.0229600009866893   F   F   F
 10.0462036236180836  1.1600356732859387 19.0229600009866893   F   F   F
 14.0646850730653181  1.1600356732859387 19.0229600009866893   F   F   F
  0.0000000000000000  4.6401426931437548 19.0229600009866893   F   F   F
  4.0184814494472336  4.6401426931437548 19.0229600009866893   F   F   F
  8.0369628988944672  4.6401426931437548 19.0229600009866893   F   F   F
 12.0554443483417018  4.6401426931437548 19.0229600009866893   F   F   F
  2.0092407247236168  8.1202497130015718 19.0229600009866893   F   F   F
  6.0277221741708509  8.1202497130015718 19.0229600009866893   F   F   F
 10.0462036236180836  8.1202497130015718 19.0229600009866893   F   F   F
 14.0646850730653181  8.1202497130015718 19.0229600009866893   F   F   F
  0.0000000000000000 11.6003567328593871 19.0229600009866893   F   F   F
  4.0184814494472336 11.6003567328593871 19.0229600009866893   F   F   F
  8.0369628988944672 11.6003567328593871 19.0229600009866893   F   F   F
 12.0554443483417018 11.6003567328593871 19.0229600009866893   F   F   F
  0.0000000869486962  2.3200718141822696 19.8279305795907312   T   T   T
  4.0184816261617664  2.3200714595748861 19.8279307367596118   T   T   T
  8.0369624505990451  2.3200714500320734 19.8279313841423637   T   T   T
 12.0554446602951906  2.3200717432013693 19.8279302434151106   T   T   T
  2.0092408115813307  5.8001784481512395 19.8279299681970187   T   T   T
  6.0277222811747615  5.8001785373345740 19.8279305601012510   T   T   T
 10.0462036368934857  5.8001784798483795 19.8279313812759064   T   T   T
 14.0646846587074155  5.8001784739914228 19.8279302044038559   T   T   T
  0.0000002246002467  9.2802850075336529 19.8279309317972618   T   T   T
  4.0184815217320136  9.2802855009977954 19.8279319689960687   T   T   T
  8.0369629504791895  9.2802852242872991 19.8279307625288119   T   T   T
 12.0554440134716572  9.2802850794611533 19.8279312284468645   T   T   T
  2.0092409811207679 12.7603925063544370 19.8279310624197720   T   T   T
  6.0277220519475119 12.7603931002691073 19.8279308659529363   T   T   T
 10.0462039159105778 12.7603923526981440 19.8279307775965350   T   T   T
 14.0646842138932673 12.7603925436186216 19.8279312040702038   T   T   T
  0.0000004578289248  0.0000000968578004 20.6513119775632141   T   T   T
  4.0184815125959448  0.0000003744819290 20.6513111919629395   T   T   T
  8.0369628268415418  0.0000000988777078 20.6513124755723148   T   T   T
 12.0554440240906935 -0.0000000241950506 20.6513126852561761   T   T   T
  2.0092409801219357  3.4801070630561153 20.6513112405388348   T   T   T
  6.0277224499891640  3.4801070348412710 20.6513112865166768   T   T   T
 10.0462032015447207  3.4801072696404312 20.6513118776018629   T   T   T
 14.0646847211296588  3.4801070075941216 20.6513135701170931   T   T   T
  0.0000005563901814  6.9602143929418467 20.6513127527767928   T   T   T
  4.0184813488396287  6.9602141384441865 20.6513120891196316   T   T   T
  8.0369626833591727  6.9602143932659537 20.6513111855227223   T   T   T
 12.0554440054009504  6.9602143506393856 20.6513127895336908   T   T   T
  2.0092410780241248 10.4403215600532135 20.6513113489487843   T   T   T
  6.0277219054592397 10.4403212558497103 20.6513111792321453   T   T   T
 10.0462033719298258 10.4403212413925477 20.6513128035474693   T   T   T
 14.0646844251400633 10.4403218563360767 20.6513128923942944   T   T   T
  2.0092409082169085  1.1600356156271348 21.4745801692919436   T   T   T
  6.0277219275466898  1.1600357563886776 21.4745805533741105   T   T   T
 10.0462032779217001  1.1600359314540236 21.4745794482125270   T   T   T
 14.0646842591522745  1.1600358539198059 21.4745794430826891   T   T   T
  0.0000000922514954  4.6401425971171202 21.4745798352301556   T   T   T
  4.0184815016916895  4.6401429234811253 21.4745795881333201   T   T   T
  8.0369625951114507  4.6401427045573547 21.4745797645848988   T   T   T
 12.0554440409600456  4.6401429030786296 21.4745800422318354   T   T   T
  2.0092410224869224  8.1202501006969534 21.4745802616501464   T   T   T
  6.0277223088836980  8.1202497374111857 21.4745802835256896   T   T   T
 10.0462032764968328  8.1202500947649234 21.4745796366402182   T   T   T
 14.0646845019646261  8.1202502353520369 21.4745802447368632   T   T   T
  0.0000003506723253 11.6003567754177777 21.4745797645763297   T   T   T
  4.0184815502247480 11.6003565282180610 21.4745798838887900   T   T   T
  8.0369627646354065 11.6003567505528480 21.4745794141664668   T   T   T
 12.0554444069940132 11.6003570241014593 21.4745796336301495   T   T   T
  0.0000007049094063  2.3200715962447003 22.2786237260450477   T   T   T
  4.0184816001957522  2.3200715195910759 22.2786231056794186   T   T   T
  8.0369634143386932  2.3200717460179239 22.2786235823011403   T   T   T
 12.0554440516403343  2.3200714677431953 22.2786239878425256   T   T   T
  2.0092412366170107  5.8001788357387714 22.2786248491493062   T   T   T
  6.0277221418293045  5.8001783777636877 22.2786241645034799   T   T   T
 10.0462034703092797  5.8001785167258904 22.2786225037706345   T   T   T
 14.0646843115566078  5.8001786880312158 22.2786250955693603   T   T   T
  0.0000001512359141  9.2802852505913620 22.2786228842730054   T   T   T
  4.0184813423896095  9.2802857238471397 22.2786231602314437   T   T   T
  8.0369626895235626  9.2802862758713385 22.2786238210484733   T   T   T
 12.0554440355023225  9.2802854608428582 22.2786233417120592   T   T   T
  2.0092408279892999 12.7603929057528802 22.2786232703265163   T   T   T
  6.0277222032434947 12.7603926540470756 22.2786234259915155   T   T   T
 10.0462030692166486 12.7603929578099446 22.2786235328207773   T   T   T
 14.0646843238536032 12.7603926925553708 22.2786236559864896   T   T   T
  0.0000003920776828 -0.0000000040020197 23.1010396981120039   T   T   T
  4.0184816129957808  0.0000003622207271 23.1010387782968465   T   T   T
  8.0369627455716071  0.0000000330670880 23.1010398845981442   T   T   T
 12.0554437038777564 -0.0000000483794549 23.1010387989693768   T   T   T
  2.0092411224756788  3.4801076218073157 23.1010394032818027   T   T   T
  6.0277219976371903  3.4801073884194644 23.1010394300245743   T   T   T
 10.0462030655135237  3.4801072231931949 23.1010394945537776   T   T   T
 14.0646845815962962  3.4801073401429514 23.1010392481278686   T   T   T
 -0.0000000412335920  6.9602144900944110 23.1010398512881352   T   T   T
  4.0184813822948220  6.9602143474511742 23.1010395402397037   T   T   T
  8.0369630620961452  6.9602142758219552 23.1010388954315893   T   T   T
 12.0554444514888921  6.9602143844014055 23.1010394018815717   T   T   T
  2.0092412848587307 10.4403215592465006 23.1010389672874545   T   T   T
  6.0277225690599874 10.4403213463878917 23.1010383444907035   T   T   T
 10.0462033146536793 10.4403211690056175 23.1010394422900980   T   T   T
 14.0646846058482371 10.4403218353975831 23.1010396318039604   T   T   T
  2.0092411107770598  1.1600357222686830 24.0109046607175713   T   T   T
  6.0277223657114050  1.1600355244071758 24.0109045658823490   T   T   T
 10.0462032833538828  1.1600357675083146 24.0109045085530610   T   T   T
 14.0646847021193668  1.1600360613251868 24.0109047495470342   T   T   T
  0.0000004582867877  4.6401433741509468 24.0109049727780111   T   T   T
  4.0184816695629957  4.6401430028460480 24.0109043784547325   T   T   T
  8.0369625581091633  4.6401427535976003 24.0109036994944667   T   T   T
 12.0554439379394367  4.6401430244896158 24.0109042762123686   T   T   T
  2.0092406622193115  8.1202500187969928 24.0109043122215517   T   T   T
  6.0277221675609862  8.1202501096107333 24.0109043468945451   T   T   T
 10.0462029983331842  8.1202497939607650 24.0109045483921797   T   T   T
 14.0646847014370699  8.1202500950907233 24.0109047552226755   T   T   T
  0.0000003630982553 11.6003571307388551 24.0109040058668413   T   T   T
  4.0184817072667069 11.6003568256909464 24.0109046568298616   T   T   T
  8.0369628496122143 11.6003571899919571 24.0109045253389759   T   T   T
 12.0554442002720474 11.6003571402359267 24.0109037360744999   T   T   T
  0.0000001607091456  2.3200714894800023 24.6554454976973680   T   T   T
  4.0184816629841729  2.3200714231836757 24.6554448896782361   T   T   T
  8.0369628414549936  2.3200714060004812 24.6554444446676051   T   T   T
 12.0554445087013349  2.3200712023996535 24.6554441499794947   T   T   T
  2.0092407366737106  5.8001789275893829 24.6554438585487539   T   T   T
  6.0277221375072925  5.8001787988225608 24.6554449768714896   T   T   T
 10.0462036020302250  5.8001787512257001 24.6554456430604318   T   T   T
 14.0646848116894354  5.8001787246235654 24.6554442180801701   T   T   T
  0.0000003012760543  9.2802853018700802 24.6554451228379641   T   T   T
  4.0184812897030548  9.2802854251012956 24.6554448103073156   T   T   T
  8.0369626898878224  9.2802855781712701 24.6554442263378988   T   T   T
 12.0554443240582874  9.2802853607709359 24.6554448872404457   T   T   T
  2.0092411677825384 12.7603923832987949 24.6554451021867109   T   T   T
  6.0277219862219331 12.7603932436907730 24.6554437412047989   T   T   T
 10.0462034768331900 12.7603926779801213 24.6554444107775375   T   T   T
 14.0646842528839979 12.7603923636227368 24.6554445862879383   T   T   T
  0.0000005464653347  0.0000004510316149 25.4598591434934747   T   T   T
  4.0184812879787666  0.0000003511336944 25.4598594880339846   T   T   T
  8.0369630958987859  0.0000003276322072 25.4598587830826411   T   T   T
 12.0554437889509334  0.0000000188882134 25.4598593541624787   T   T   T
  2.0092409382576761  3.4801072125509336 25.4598591584011267   T   T   T
  6.0277221533468612  3.4801071369568968 25.4598586724959226   T   T   T
 10.0462031678381969  3.4801075724530923 25.4598591906014278   T   T   T
 14.0646849280024320  3.4801070358526345 25.4598593343192050   T   T   T
  0.0000003205369605  6.9602140852384755 25.4598588007046196   T   T   T
  4.0184818825779134  6.9602145698139148 25.4598595372518623   T   T   T
  8.0369629023777733  6.9602142457712199 25.4598590358945067   T   T   T
 12.0554440723882959  6.9602143270064341 25.4598587227889404   T   T   T
  2.0092412336179795 10.4403215956750284 25.4598589930937003   T   T   T
  6.0277222246121562 10.4403209701884503 25.4598596677109619   T   T   T
 10.0462031162141425 10.4403214688556449 25.4598589345077855   T   T   T
 14.0646843651992040 10.4403213348986377 25.4598588061170190   T   T   T
