Fe
 1.0000000000000000
    11.3659810638114500    0.0000000000000000    0.0000000000000000
     0.0000000000000000   11.3659810793890550    0.0000000000000000
     0.0000000000000000    0.0000000000000000   11.3659811253894976
 Fe 
 127
Cartesian
  1.4207465434173507  1.4207462658344625  1.4207474185488609
 -0.0000000493411411  0.0000001194504952  2.8414946592645665
  1.4207477832698829  1.4207483089441748  4.2622424055498485
 -0.0000002466155069 -0.0000004491879838  5.6829905433058316
  1.4207464661001230  1.4207473333416025  7.1037394653216825
  0.0000005610869531  0.0000023918386632  8.5244844537569264
  1.4207468293963610  1.4207483191566672  9.9452313894551345
  0.0000002190559816  2.8414945394619320  0.0000013514283247
  1.4207476696027743  4.2622429686165511  1.4207476572340128
  0.0000020185141531  2.8414951809826423  2.8414953355796206
  1.4207464032786101  4.2622438140432717  4.2622419116210395
 -0.0000009197722138  2.8414957009447948  5.6829901055207319
  1.4207474961238264  4.2622431690676521  7.1037389517507981
 -0.0000003733645750  2.8414942750081749  8.5244860457671656
  1.4207474835034251  4.2622413723186705  9.9452316743225797
 -0.0000009298334557  5.6829899986097576  0.0000026419480717
  1.4207485636605852  7.1037370050562583  1.4207472951086042
  0.0000008557697513  5.6829904734607259  2.8414957489292791
  1.4207480598085134  7.1037364129976570  4.2622427247285222
 -0.0000009421041662  5.6829893260248054  5.6829896407493443
  1.4207507245106610  7.1037369853578767  7.1037379534369363
 -0.0000012151047520  5.6829887055381016  8.5244858212631431
  1.4207489176586900  7.1037403236552246  9.9452329540537328
 -0.0000003725282829  8.5244847812564988  0.0000001307090941
  1.4207486221055801  9.9452355768265619  1.4207459695864233
 -0.0000013404233856  8.5244861056775001  2.8414958991422230
  1.4207464145353359  9.9452336655278408  4.2622442899200559
 -0.0000014406114887  8.5244877722895041  5.6829888644235611
  1.4207488522794294  9.9452339735344886  7.1037377417761913
 -0.0000011928280916  8.5244858597749111  8.5244875716726050
  1.4207515664208787  9.9452315169853946  9.9452315707113801
  2.8414944554292143 -0.0000018492914632  0.0000028356738668
  4.2622434335640671  1.4207469280885066  1.4207472296019468
  2.8414953137442720  0.0000002422133761  2.8414939367241847
  4.2622428261409890  1.4207477893462739  4.2622433435872908
  2.8414946938105405 -0.0000009633436812  5.6829904315830779
  4.2622438323921088  1.4207493766029506  7.1037380605057159
  2.8414942998679971 -0.0000014175315050  8.5244864722111089
  4.2622454766012527  1.4207484137363926  9.9452317808803876
  2.8414957046321270  2.8414969828763148  0.0000011680452966
  4.2622418880399797  4.2622427486927146  1.4207471619252656
  2.8414949429244296  2.8414951856070738  2.8414951777782269
  4.2622444179057020  4.2622430350316982  4.2622421728882429
  2.8414961942095505  2.8414940762679768  5.6829910124734813
  4.2622424327999342  4.2622419772732361  7.1037393663239232
  2.8414955727141278  2.8414959144905279  8.5244861681218165
  4.2622428276273094  4.2622424666200907  9.9452323653852410
  2.8414958449017833  5.6829915131255353  0.0000019457948439
  4.2622418967933502  7.1037380629347116  1.4207474678481653
  2.8414939915271118  5.6829914694523973  2.8414947037128786
  4.2622434735758370  7.1037376397111895  4.2622435187481695
  2.8414945877569129  5.6829928248098467  5.6829911522592189
  4.2622430669952518  7.1037371501429938  7.1037382565536422
  2.8414958722594901  5.6829916572606569  8.5244845263650735
  4.2622426706256293  7.1037370413024759  9.9452319094609987
  2.8414939932638714  8.5244864310436554  0.0000002354768485
  4.2622421166967950  9.9452345767691224  1.4207474476619644
  2.8414962290993500  8.5244849186944691  2.8414943461693611
  4.2622442820239943  9.9452333126269661  4.2622434176134059
  2.8414953095253215  8.5244858238841417  5.6829909114996413
  4.2622430109617229  9.9452330841660395  7.1037382726570124
  2.8414940423684780  8.5244865963589653  8.5244880447937170
  4.2622409542826354  9.9452334690303914  9.9452310442979890
  5.6829892714910830  0.0000015019207204  0.0000000417481364
  7.1037389099491790  1.4207504195042644  1.4207466901828965
  5.6829893968985665 -0.0000006922394310  2.8414962177478120
  7.1037379507112588  1.4207486857662723  4.2622434893956163
  5.6829906910198966  0.0000004547420492  5.6829894953960221
  7.1037363346714404  1.4207483253439874  7.1037378344978501
  5.6829917457442480 -0.0000003214651439  8.5244873265101013
  7.1037381799679018  1.4207474114017011  9.9452335772988469
  5.6829910362426892  2.8414945194345793  0.0000009073799624
  7.1037384532848913  4.2622412808053962  1.4207464253022766
  5.6829911875830481  2.8414948090747911  2.8414953128751845
  7.1037382209130584  4.2622416634698901  4.2622449651007868
  5.6829921072786957  2.8414952142710028  5.6829906386069959
  7.1037375579329654  4.2622423216331864  7.1037351807661553
  5.6829889545205532  2.8414936924581511  8.5244860848639004
  7.1037379129192306  4.2622440096005496  9.9452344666500068
  5.6829916542663197  5.6829906308416680 -0.0000010466441958
  7.1037389466572156  7.1037406595885892  1.4207468312039193
  5.6829890417800630  5.6829908498007429  2.8414966641479120
  7.1037375750010794  7.1037381154268111  4.2622437670439961
  5.6829910878298948  5.6829912679040779  5.6829902702673474
  7.1037368322319629  7.1037367299668048  7.1037373438072358
  5.6829897645625636  5.6829918869323190  8.5244865992308227
  7.1037383417655127  7.1037356374676648  9.9452336282694560
  5.6829912855411262  8.5244848535832922  0.0000031747040925
  7.1037380158684682  9.9452302444676022  1.4207489660374903
  5.6829920826142413  8.5244864555060094  2.8414950853818510
  7.1037374405939220  9.9452330842125161  4.2622424236264740
  5.6829896539551799  8.5244855252199088  5.6829894481284393
  7.1037384371937886  9.9452342842020478  7.1037394557299844
  5.6829905834689303  8.5244866425263499  8.5244852245031133
  7.1037395797747385  9.9452342496120139  9.9452299001758604
  8.5244856722382742  0.0000016566378324  0.0000002143554490
  9.9452344104564094  1.4207470781791398  1.4207453477567853
  8.5244860602811396 -0.0000005220698519  2.8414955107477149
  9.9452335575362287  1.4207474027991362  4.2622439229410096
  8.5244859534024364 -0.0000005336306681  5.6829898714813023
  9.9452356625386891  1.4207475406632628  7.1037385558572090
  8.5244842772725082 -0.0000024325300237  8.5244869143540658
  9.9452326065165462  1.4207493571711498  9.9452322868880980
  8.5244844356263325  2.8414937402500704  0.0000017408394417
  9.9452339789220741  4.2622434802915636  1.4207463537593812
  8.5244836560863142  2.8414942533110001  2.8414946395486034
  9.9452347121856803  4.2622437696951234  4.2622457169831840
  8.5244840141483991  2.8414964457136023  5.6829893467201149
  9.9452344665717511  4.2622436735501834  7.1037375896769293
  8.5244864161987426  2.8414937465863321  8.5244875220751428
  9.9452343382281470  4.2622444015247041  9.9452317015483800
  8.5244847046066834  5.6829909394359275 -0.0000002158695824
  9.9452335876109537  7.1037386941539120  1.4207468799962166
  8.5244856888671592  5.6829915109933449  2.8414949217679091
  9.9452335688517923  7.1037376402763552  4.2622442235744602
  8.5244863679989500  5.6829902329001056  5.6829899029095090
  9.9452330207324913  7.1037377727544913  7.1037388019028009
  8.5244873352217088  5.6829917409894053  8.5244878635722401
  9.9452322539724154  7.1037394910420417  9.9452318305094689
  8.5244867760700753  8.5244848267092248  0.0000009706765003
  9.9452341092337377  9.9452330227727330  1.4207480576128948
  8.5244841833185063  8.5244859066941157  2.8414934109430274
  9.9452347753027546  9.9452327864446293  4.2622444693673849
  8.5244870280139065  8.5244865523699822  5.6829896652014176
  9.9452332424748846  9.9452329663388142  7.1037384786836109
  8.5244875857216087  8.5244879690169011  8.5244879676127034
  9.9452297787037125  9.9452303159984918  9.9452304849592288
