Fe
 1.0000000000000000
    11.3659810638114500    0.0000000000000000    0.0000000000000000
     0.0000000000000000   11.3659810638114500    0.0000000000000000
     0.0000000000000000    0.0000000000000000   66.9942050265521942
 Fe 
 320
Cartesian
  1.4207476329764313  1.4207476329764313 20.0000000000000000
  4.2622428989292942  1.4207476329764313 20.0000000000000000
  7.1037381648821558  1.4207476329764313 20.0000000000000000
  9.9452334308350192  1.4207476329764313 20.0000000000000000
  1.4207476329764313  4.2622428989292942 20.0000000000000000
  4.2622428989292942  4.2622428989292942 20.0000000000000000
  7.1037381648821558  4.2622428989292942 20.0000000000000000
  9.9452334308350192  4.2622428989292942 20.0000000000000000
  1.4207476329764313  7.1037381648821558 20.0000000000000000
  4.2622428989292942  7.1037381648821558 20.0000000000000000
  7.1037381648821558  7.1037381648821558 20.0000000000000000
  9.9452334308350192  7.1037381648821558 20.0000000000000000
  1.4207476329764313  9.9452334308350192 20.0000000000000000
  4.2622428989292942  9.9452334308350192 20.0000000000000000
  7.1037381648821558  9.9452334308350192 20.0000000000000000
  9.9452334308350192  9.9452334308350192 20.0000000000000000
  0.0000000000000000  0.0000000000000000 21.4207476329764326
  2.8414952659528625  0.0000000000000000 21.4207476329764326
  5.6829905319057250  0.0000000000000000 21.4207476329764326
  8.5244857978585884  0.0000000000000000 21.4207476329764326
  0.0000000000000000  2.8414952659528625 21.4207476329764326
  2.8414952659528625  2.8414952659528625 21.4207476329764326
  5.6829905319057250  2.8414952659528625 21.4207476329764326
  8.5244857978585884  2.8414952659528625 21.4207476329764326
  0.0000000000000000  5.6829905319057250 21.4207476329764326
  2.8414952659528625  5.6829905319057250 21.4207476329764326
  5.6829905319057250  5.6829905319057250 21.4207476329764326
  8.5244857978585884  5.6829905319057250 21.4207476329764326
  0.0000000000000000  8.5244857978585884 21.4207476329764326
  2.8414952659528625  8.5244857978585884 21.4207476329764326
  5.6829905319057250  8.5244857978585884 21.4207476329764326
  8.5244857978585884  8.5244857978585884 21.4207476329764326
  1.4207476329764313  1.4207476329764313 22.8414952659528616
  4.2622428989292942  1.4207476329764313 22.8414952659528616
  7.1037381648821558  1.4207476329764313 22.8414952659528616
  9.9452334308350192  1.4207476329764313 22.8414952659528616
  1.4207476329764313  4.2622428989292942 22.8414952659528616
  4.2622428989292942  4.2622428989292942 22.8414952659528616
  7.1037381648821558  4.2622428989292942 22.8414952659528616
  9.9452334308350192  4.2622428989292942 22.8414952659528616
  1.4207476329764313  7.1037381648821558 22.8414952659528616
  4.2622428989292942  7.1037381648821558 22.8414952659528616
  7.1037381648821558  7.1037381648821558 22.8414952659528616
  9.9452334308350192  7.1037381648821558 22.8414952659528616
  1.4207476329764313  9.9452334308350192 22.8414952659528616
  4.2622428989292942  9.9452334308350192 22.8414952659528616
  7.1037381648821558  9.9452334308350192 22.8414952659528616
  9.9452334308350192  9.9452334308350192 22.8414952659528616
  0.0000000000000000  0.0000000000000000 24.2622428989292942
  2.8414952659528625  0.0000000000000000 24.2622428989292942
  5.6829905319057250  0.0000000000000000 24.2622428989292942
  8.5244857978585884  0.0000000000000000 24.2622428989292942
  0.0000000000000000  2.8414952659528625 24.2622428989292942
  2.8414952659528625  2.8414952659528625 24.2622428989292942
  5.6829905319057250  2.8414952659528625 24.2622428989292942
  8.5244857978585884  2.8414952659528625 24.2622428989292942
  0.0000000000000000  5.6829905319057250 24.2622428989292942
  2.8414952659528625  5.6829905319057250 24.2622428989292942
  5.6829905319057250  5.6829905319057250 24.2622428989292942
  8.5244857978585884  5.6829905319057250 24.2622428989292942
  0.0000000000000000  8.5244857978585884 24.2622428989292942
  2.8414952659528625  8.5244857978585884 24.2622428989292942
  5.6829905319057250  8.5244857978585884 24.2622428989292942
  8.5244857978585884  8.5244857978585884 24.2622428989292942
  1.4207476329764313  1.4207476329764313 25.6829905319057232
  4.2622428989292942  1.4207476329764313 25.6829905319057232
  7.1037381648821558  1.4207476329764313 25.6829905319057232
  9.9452334308350192  1.4207476329764313 25.6829905319057232
  1.4207476329764313  4.2622428989292942 25.6829905319057232
  4.2622428989292942  4.2622428989292942 25.6829905319057232
  7.1037381648821558  4.2622428989292942 25.6829905319057232
  9.9452334308350192  4.2622428989292942 25.6829905319057232
  1.4207476329764313  7.1037381648821558 25.6829905319057232
  4.2622428989292942  7.1037381648821558 25.6829905319057232
  7.1037381648821558  7.1037381648821558 25.6829905319057232
  9.9452334308350192  7.1037381648821558 25.6829905319057232
  1.4207476329764313  9.9452334308350192 25.6829905319057232
  4.2622428989292942  9.9452334308350192 25.6829905319057232
  7.1037381648821558  9.9452334308350192 25.6829905319057232
  9.9452334308350192  9.9452334308350192 25.6829905319057232
  0.0000000000000000  0.0000000000000000 27.1037381648821558
  2.8414952659528625  0.0000000000000000 27.1037381648821558
  5.6829905319057250  0.0000000000000000 27.1037381648821558
  8.5244857978585884  0.0000000000000000 27.1037381648821558
  0.0000000000000000  2.8414952659528625 27.1037381648821558
  2.8414952659528625  2.8414952659528625 27.1037381648821558
  5.6829905319057250  2.8414952659528625 27.1037381648821558
  8.5244857978585884  2.8414952659528625 27.1037381648821558
  0.0000000000000000  5.6829905319057250 27.1037381648821558
  2.8414952659528625  5.6829905319057250 27.1037381648821558
  5.6829905319057250  5.6829905319057250 27.1037381648821558
  8.5244857978585884  5.6829905319057250 27.1037381648821558
  0.0000000000000000  8.5244857978585884 27.1037381648821558
  2.8414952659528625  8.5244857978585884 27.1037381648821558
  5.6829905319057250  8.5244857978585884 27.1037381648821558
  8.5244857978585884  8.5244857978585884 27.1037381648821558
  1.4207476329764313  1.4207476329764313 28.5244857978585884
  4.2622428989292942  1.4207476329764313 28.5244857978585884
  7.1037381648821558  1.4207476329764313 28.5244857978585884
  9.9452334308350192  1.4207476329764313 28.5244857978585884
  1.4207476329764313  4.2622428989292942 28.5244857978585884
  4.2622428989292942  4.2622428989292942 28.5244857978585884
  7.1037381648821558  4.2622428989292942 28.5244857978585884
  9.9452334308350192  4.2622428989292942 28.5244857978585884
  1.4207476329764313  7.1037381648821558 28.5244857978585884
  4.2622428989292942  7.1037381648821558 28.5244857978585884
  7.1037381648821558  7.1037381648821558 28.5244857978585884
  9.9452334308350192  7.1037381648821558 28.5244857978585884
  1.4207476329764313  9.9452334308350192 28.5244857978585884
  4.2622428989292942  9.9452334308350192 28.5244857978585884
  7.1037381648821558  9.9452334308350192 28.5244857978585884
  9.9452334308350192  9.9452334308350192 28.5244857978585884
  0.0000000000000000  0.0000000000000000 29.9452334308350174
  2.8414952659528625  0.0000000000000000 29.9452334308350174
  5.6829905319057250  0.0000000000000000 29.9452334308350174
  8.5244857978585884  0.0000000000000000 29.9452334308350174
  0.0000000000000000  2.8414952659528625 29.9452334308350174
  2.8414952659528625  2.8414952659528625 29.9452334308350174
  5.6829905319057250  2.8414952659528625 29.9452334308350174
  8.5244857978585884  2.8414952659528625 29.9452334308350174
  0.0000000000000000  5.6829905319057250 29.9452334308350174
  2.8414952659528625  5.6829905319057250 29.9452334308350174
  5.6829905319057250  5.6829905319057250 29.9452334308350174
  8.5244857978585884  5.6829905319057250 29.9452334308350174
  0.0000000000000000  8.5244857978585884 29.9452334308350174
  2.8414952659528625  8.5244857978585884 29.9452334308350174
  5.6829905319057250  8.5244857978585884 29.9452334308350174
  8.5244857978585884  8.5244857978585884 29.9452334308350174
  1.4207476329764313  1.4207476329764313 31.3659810638114500
  4.2622428989292942  1.4207476329764313 31.3659810638114500
  7.1037381648821558  1.4207476329764313 31.3659810638114500
  9.9452334308350192  1.4207476329764313 31.3659810638114500
  1.4207476329764313  4.2622428989292942 31.3659810638114500
  4.2622428989292942  4.2622428989292942 31.3659810638114500
  7.1037381648821558  4.2622428989292942 31.3659810638114500
  9.9452334308350192  4.2622428989292942 31.3659810638114500
  1.4207476329764313  7.1037381648821558 31.3659810638114500
  4.2622428989292942  7.1037381648821558 31.3659810638114500
  7.1037381648821558  7.1037381648821558 31.3659810638114500
  9.9452334308350192  7.1037381648821558 31.3659810638114500
  1.4207476329764313  9.9452334308350192 31.3659810638114500
  4.2622428989292942  9.9452334308350192 31.3659810638114500
  7.1037381648821558  9.9452334308350192 31.3659810638114500
  9.9452334308350192  9.9452334308350192 31.3659810638114500
  0.0000000000000000  0.0000000000000000 32.7867286967878826
  2.8414952659528625  0.0000000000000000 32.7867286967878826
  5.6829905319057250  0.0000000000000000 32.7867286967878826
  8.5244857978585884  0.0000000000000000 32.7867286967878826
  0.0000000000000000  2.8414952659528625 32.7867286967878826
  2.8414952659528625  2.8414952659528625 32.7867286967878826
  5.6829905319057250  2.8414952659528625 32.7867286967878826
  8.5244857978585884  2.8414952659528625 32.7867286967878826
  0.0000000000000000  5.6829905319057250 32.7867286967878826
  2.8414952659528625  5.6829905319057250 32.7867286967878826
  5.6829905319057250  5.6829905319057250 32.7867286967878826
  8.5244857978585884  5.6829905319057250 32.7867286967878826
  0.0000000000000000  8.5244857978585884 32.7867286967878826
  2.8414952659528625  8.5244857978585884 32.7867286967878826
  5.6829905319057250  8.5244857978585884 32.7867286967878826
  8.5244857978585884  8.5244857978585884 32.7867286967878826
  1.4207476329764313  1.4207476329764313 34.2074763297643116
  4.2622428989292942  1.4207476329764313 34.2074763297643116
  7.1037381648821558  1.4207476329764313 34.2074763297643116
  9.9452334308350192  1.4207476329764313 34.2074763297643116
  1.4207476329764313  4.2622428989292942 34.2074763297643116
  4.2622428989292942  4.2622428989292942 34.2074763297643116
  7.1037381648821558  4.2622428989292942 34.2074763297643116
  9.9452334308350192  4.2622428989292942 34.2074763297643116
  1.4207476329764313  7.1037381648821558 34.2074763297643116
  4.2622428989292942  7.1037381648821558 34.2074763297643116
  7.1037381648821558  7.1037381648821558 34.2074763297643116
  9.9452334308350192  7.1037381648821558 34.2074763297643116
  1.4207476329764313  9.9452334308350192 34.2074763297643116
  4.2622428989292942  9.9452334308350192 34.2074763297643116
  7.1037381648821558  9.9452334308350192 34.2074763297643116
  9.9452334308350192  9.9452334308350192 34.2074763297643116
  0.0000000000000000  0.0000000000000000 35.6282239627407478
  2.8414952659528625  0.0000000000000000 35.6282239627407478
  5.6829905319057250  0.0000000000000000 35.6282239627407478
  8.5244857978585884  0.0000000000000000 35.6282239627407478
  0.0000000000000000  2.8414952659528625 35.6282239627407478
  2.8414952659528625  2.8414952659528625 35.6282239627407478
  5.6829905319057250  2.8414952659528625 35.6282239627407478
  8.5244857978585884  2.8414952659528625 35.6282239627407478
  0.0000000000000000  5.6829905319057250 35.6282239627407478
  2.8414952659528625  5.6829905319057250 35.6282239627407478
  5.6829905319057250  5.6829905319057250 35.6282239627407478
  8.5244857978585884  5.6829905319057250 35.6282239627407478
  0.0000000000000000  8.5244857978585884 35.6282239627407478
  2.8414952659528625  8.5244857978585884 35.6282239627407478
  5.6829905319057250  8.5244857978585884 35.6282239627407478
  8.5244857978585884  8.5244857978585884 35.6282239627407478
  1.4207476329764313  1.4207476329764313 37.0489715957171768
  4.2622428989292942  1.4207476329764313 37.0489715957171768
  7.1037381648821558  1.4207476329764313 37.0489715957171768
  9.9452334308350192  1.4207476329764313 37.0489715957171768
  1.4207476329764313  4.2622428989292942 37.0489715957171768
  4.2622428989292942  4.2622428989292942 37.0489715957171768
  7.1037381648821558  4.2622428989292942 37.0489715957171768
  9.9452334308350192  4.2622428989292942 37.0489715957171768
  1.4207476329764313  7.1037381648821558 37.0489715957171768
  4.2622428989292942  7.1037381648821558 37.0489715957171768
  7.1037381648821558  7.1037381648821558 37.0489715957171768
  9.9452334308350192  7.1037381648821558 37.0489715957171768
  1.4207476329764313  9.9452334308350192 37.0489715957171768
  4.2622428989292942  9.9452334308350192 37.0489715957171768
  7.1037381648821558  9.9452334308350192 37.0489715957171768
  9.9452334308350192  9.9452334308350192 37.0489715957171768
  0.0000000000000000  0.0000000000000000 38.4697192286936058
  2.8414952659528625  0.0000000000000000 38.4697192286936058
  5.6829905319057250  0.0000000000000000 38.4697192286936058
  8.5244857978585884  0.0000000000000000 38.4697192286936058
  0.0000000000000000  2.8414952659528625 38.4697192286936058
  2.8414952659528625  2.8414952659528625 38.4697192286936058
  5.6829905319057250  2.8414952659528625 38.4697192286936058
  8.5244857978585884  2.8414952659528625 38.4697192286936058
  0.0000000000000000  5.6829905319057250 38.4697192286936058
  2.8414952659528625  5.6829905319057250 38.4697192286936058
  5.6829905319057250  5.6829905319057250 38.4697192286936058
  8.5244857978585884  5.6829905319057250 38.4697192286936058
  0.0000000000000000  8.5244857978585884 38.4697192286936058
  2.8414952659528625  8.5244857978585884 38.4697192286936058
  5.6829905319057250  8.5244857978585884 38.4697192286936058
  8.5244857978585884  8.5244857978585884 38.4697192286936058
  1.4207476329764313  1.4207476329764313 39.8904668616700349
  4.2622428989292942  1.4207476329764313 39.8904668616700349
  7.1037381648821558  1.4207476329764313 39.8904668616700349
  9.9452334308350192  1.4207476329764313 39.8904668616700349
  1.4207476329764313  4.2622428989292942 39.8904668616700349
  4.2622428989292942  4.2622428989292942 39.8904668616700349
  7.1037381648821558  4.2622428989292942 39.8904668616700349
  9.9452334308350192  4.2622428989292942 39.8904668616700349
  1.4207476329764313  7.1037381648821558 39.8904668616700349
  4.2622428989292942  7.1037381648821558 39.8904668616700349
  7.1037381648821558  7.1037381648821558 39.8904668616700349
  9.9452334308350192  7.1037381648821558 39.8904668616700349
  1.4207476329764313  9.9452334308350192 39.8904668616700349
  4.2622428989292942  9.9452334308350192 39.8904668616700349
  7.1037381648821558  9.9452334308350192 39.8904668616700349
  9.9452334308350192  9.9452334308350192 39.8904668616700349
  0.0000000000000000  0.0000000000000000 41.3112144946464639
  2.8414952659528625  0.0000000000000000 41.3112144946464639
  5.6829905319057250  0.0000000000000000 41.3112144946464639
  8.5244857978585884  0.0000000000000000 41.3112144946464639
  0.0000000000000000  2.8414952659528625 41.3112144946464639
  2.8414952659528625  2.8414952659528625 41.3112144946464639
  5.6829905319057250  2.8414952659528625 41.3112144946464639
  8.5244857978585884  2.8414952659528625 41.3112144946464639
  0.0000000000000000  5.6829905319057250 41.3112144946464639
  2.8414952659528625  5.6829905319057250 41.3112144946464639
  5.6829905319057250  5.6829905319057250 41.3112144946464639
  8.5244857978585884  5.6829905319057250 41.3112144946464639
  0.0000000000000000  8.5244857978585884 41.3112144946464639
  2.8414952659528625  8.5244857978585884 41.3112144946464639
  5.6829905319057250  8.5244857978585884 41.3112144946464639
  8.5244857978585884  8.5244857978585884 41.3112144946464639
  1.4207476329764313  1.4207476329764313 42.7319621276229000
  4.2622428989292942  1.4207476329764313 42.7319621276229000
  7.1037381648821558  1.4207476329764313 42.7319621276229000
  9.9452334308350192  1.4207476329764313 42.7319621276229000
  1.4207476329764313  4.2622428989292942 42.7319621276229000
  4.2622428989292942  4.2622428989292942 42.7319621276229000
  7.1037381648821558  4.2622428989292942 42.7319621276229000
  9.9452334308350192  4.2622428989292942 42.7319621276229000
  1.4207476329764313  7.1037381648821558 42.7319621276229000
  4.2622428989292942  7.1037381648821558 42.7319621276229000
  7.1037381648821558  7.1037381648821558 42.7319621276229000
  9.9452334308350192  7.1037381648821558 42.7319621276229000
  1.4207476329764313  9.9452334308350192 42.7319621276229000
  4.2622428989292942  9.9452334308350192 42.7319621276229000
  7.1037381648821558  9.9452334308350192 42.7319621276229000
  9.9452334308350192  9.9452334308350192 42.7319621276229000
  0.0000000000000000  0.0000000000000000 44.1527097605993362
  2.8414952659528625  0.0000000000000000 44.1527097605993362
  5.6829905319057250  0.0000000000000000 44.1527097605993362
  8.5244857978585884  0.0000000000000000 44.1527097605993362
  0.0000000000000000  2.8414952659528625 44.1527097605993362
  2.8414952659528625  2.8414952659528625 44.1527097605993362
  5.6829905319057250  2.8414952659528625 44.1527097605993362
  8.5244857978585884  2.8414952659528625 44.1527097605993362
  0.0000000000000000  5.6829905319057250 44.1527097605993362
  2.8414952659528625  5.6829905319057250 44.1527097605993362
  5.6829905319057250  5.6829905319057250 44.1527097605993362
  8.5244857978585884  5.6829905319057250 44.1527097605993362
  0.0000000000000000  8.5244857978585884 44.1527097605993362
  2.8414952659528625  8.5244857978585884 44.1527097605993362
  5.6829905319057250  8.5244857978585884 44.1527097605993362
  8.5244857978585884  8.5244857978585884 44.1527097605993362
  1.4207476329764313  1.4207476329764313 45.5734573935757652
  4.2622428989292942  1.4207476329764313 45.5734573935757652
  7.1037381648821558  1.4207476329764313 45.5734573935757652
  9.9452334308350192  1.4207476329764313 45.5734573935757652
  1.4207476329764313  4.2622428989292942 45.5734573935757652
  4.2622428989292942  4.2622428989292942 45.5734573935757652
  7.1037381648821558  4.2622428989292942 45.5734573935757652
  9.9452334308350192  4.2622428989292942 45.5734573935757652
  1.4207476329764313  7.1037381648821558 45.5734573935757652
  4.2622428989292942  7.1037381648821558 45.5734573935757652
  7.1037381648821558  7.1037381648821558 45.5734573935757652
  9.9452334308350192  7.1037381648821558 45.5734573935757652
  1.4207476329764313  9.9452334308350192 45.5734573935757652
  4.2622428989292942  9.9452334308350192 45.5734573935757652
  7.1037381648821558  9.9452334308350192 45.5734573935757652
  9.9452334308350192  9.9452334308350192 45.5734573935757652
  0.0000000000000000  0.0000000000000000 46.9942050265521942
  2.8414952659528625  0.0000000000000000 46.9942050265521942
  5.6829905319057250  0.0000000000000000 46.9942050265521942
  8.5244857978585884  0.0000000000000000 46.9942050265521942
  0.0000000000000000  2.8414952659528625 46.9942050265521942
  2.8414952659528625  2.8414952659528625 46.9942050265521942
  5.6829905319057250  2.8414952659528625 46.9942050265521942
  8.5244857978585884  2.8414952659528625 46.9942050265521942
  0.0000000000000000  5.6829905319057250 46.9942050265521942
  2.8414952659528625  5.6829905319057250 46.9942050265521942
  5.6829905319057250  5.6829905319057250 46.9942050265521942
  8.5244857978585884  5.6829905319057250 46.9942050265521942
  0.0000000000000000  8.5244857978585884 46.9942050265521942
  2.8414952659528625  8.5244857978585884 46.9942050265521942
  5.6829905319057250  8.5244857978585884 46.9942050265521942
  8.5244857978585884  8.5244857978585884 46.9942050265521942
