Fe
 1.0000000000000000
    16.0739245701179314    0.0000000000000000    0.0000000000000000
     0.0000000000000000   13.9204270162369887    0.0000000000000000
     0.0000000000000000    0.0000000000000000   55.5851115386398575
 Fe 
 320
Cartesian
  0.0000000000000000  2.3200711693728313 20.0000000000000000
  4.0184811425294829  2.3200711693728313 20.0000000000000000
  8.0369622850589657  2.3200711693728313 20.0000000000000000
 12.0554434275884486  2.3200711693728313 20.0000000000000000
  2.0092405712647414  5.8001779234320781 20.0000000000000000
  6.0277217137942243  5.8001779234320781 20.0000000000000000
 10.0462028563237062  5.8001779234320781 20.0000000000000000
 14.0646839988531909  5.8001779234320781 20.0000000000000000
  0.0000000000000000  9.2802846774913252 20.0000000000000000
  4.0184811425294829  9.2802846774913252 20.0000000000000000
  8.0369622850589657  9.2802846774913252 20.0000000000000000
 12.0554434275884486  9.2802846774913252 20.0000000000000000
  2.0092405712647414 12.7603914315505733 20.0000000000000000
  6.0277217137942243 12.7603914315505733 20.0000000000000000
 10.0462028563237062 12.7603914315505733 20.0000000000000000
 14.0646839988531909 12.7603914315505733 20.0000000000000000
  0.0000000000000000  0.0000000000000000 20.8202690283494647
  4.0184811425294829  0.0000000000000000 20.8202690283494647
  8.0369622850589657  0.0000000000000000 20.8202690283494647
 12.0554434275884486  0.0000000000000000 20.8202690283494647
  2.0092405712647414  3.4801067540592472 20.8202690283494647
  6.0277217137942243  3.4801067540592472 20.8202690283494647
 10.0462028563237062  3.4801067540592472 20.8202690283494647
 14.0646839988531909  3.4801067540592472 20.8202690283494647
  0.0000000000000000  6.9602135081184944 20.8202690283494647
  4.0184811425294829  6.9602135081184944 20.8202690283494647
  8.0369622850589657  6.9602135081184944 20.8202690283494647
 12.0554434275884486  6.9602135081184944 20.8202690283494647
  2.0092405712647414 10.4403202621777424 20.8202690283494647
  6.0277217137942243 10.4403202621777424 20.8202690283494647
 10.0462028563237062 10.4403202621777424 20.8202690283494647
 14.0646839988531909 10.4403202621777424 20.8202690283494647
  2.0092405712647414  1.1600355846864157 21.6405380566989329
  6.0277217137942243  1.1600355846864157 21.6405380566989329
 10.0462028563237062  1.1600355846864157 21.6405380566989329
 14.0646839988531909  1.1600355846864157 21.6405380566989329
  0.0000000000000000  4.6401423387456626 21.6405380566989329
  4.0184811425294829  4.6401423387456626 21.6405380566989329
  8.0369622850589657  4.6401423387456626 21.6405380566989329
 12.0554434275884486  4.6401423387456626 21.6405380566989329
  2.0092405712647414  8.1202490928049098 21.6405380566989329
  6.0277217137942243  8.1202490928049098 21.6405380566989329
 10.0462028563237062  8.1202490928049098 21.6405380566989329
 14.0646839988531909  8.1202490928049098 21.6405380566989329
  0.0000000000000000 11.6003558468641579 21.6405380566989329
  4.0184811425294829 11.6003558468641579 21.6405380566989329
  8.0369622850589657 11.6003558468641579 21.6405380566989329
 12.0554434275884486 11.6003558468641579 21.6405380566989329
  0.0000000000000000  2.3200711693728313 22.4608070850483976
  4.0184811425294829  2.3200711693728313 22.4608070850483976
  8.0369622850589657  2.3200711693728313 22.4608070850483976
 12.0554434275884486  2.3200711693728313 22.4608070850483976
  2.0092405712647414  5.8001779234320781 22.4608070850483976
  6.0277217137942243  5.8001779234320781 22.4608070850483976
 10.0462028563237062  5.8001779234320781 22.4608070850483976
 14.0646839988531909  5.8001779234320781 22.4608070850483976
  0.0000000000000000  9.2802846774913252 22.4608070850483976
  4.0184811425294829  9.2802846774913252 22.4608070850483976
  8.0369622850589657  9.2802846774913252 22.4608070850483976
 12.0554434275884486  9.2802846774913252 22.4608070850483976
  2.0092405712647414 12.7603914315505733 22.4608070850483976
  6.0277217137942243 12.7603914315505733 22.4608070850483976
 10.0462028563237062 12.7603914315505733 22.4608070850483976
 14.0646839988531909 12.7603914315505733 22.4608070850483976
  0.0000000000000000  0.0000000000000000 23.2810761133978659
  4.0184811425294829  0.0000000000000000 23.2810761133978659
  8.0369622850589657  0.0000000000000000 23.2810761133978659
 12.0554434275884486  0.0000000000000000 23.2810761133978659
  2.0092405712647414  3.4801067540592472 23.2810761133978659
  6.0277217137942243  3.4801067540592472 23.2810761133978659
 10.0462028563237062  3.4801067540592472 23.2810761133978659
 14.0646839988531909  3.4801067540592472 23.2810761133978659
  0.0000000000000000  6.9602135081184944 23.2810761133978659
  4.0184811425294829  6.9602135081184944 23.2810761133978659
  8.0369622850589657  6.9602135081184944 23.2810761133978659
 12.0554434275884486  6.9602135081184944 23.2810761133978659
  2.0092405712647414 10.4403202621777424 23.2810761133978659
  6.0277217137942243 10.4403202621777424 23.2810761133978659
 10.0462028563237062 10.4403202621777424 23.2810761133978659
 14.0646839988531909 10.4403202621777424 23.2810761133978659
  2.0092405712647414  1.1600355846864157 24.1013451417473306
  6.0277217137942243  1.1600355846864157 24.1013451417473306
 10.0462028563237062  1.1600355846864157 24.1013451417473306
 14.0646839988531909  1.1600355846864157 24.1013451417473306
  0.0000000000000000  4.6401423387456626 24.1013451417473306
  4.0184811425294829  4.6401423387456626 24.1013451417473306
  8.0369622850589657  4.6401423387456626 24.1013451417473306
 12.0554434275884486  4.6401423387456626 24.1013451417473306
  2.0092405712647414  8.1202490928049098 24.1013451417473306
  6.0277217137942243  8.1202490928049098 24.1013451417473306
 10.0462028563237062  8.1202490928049098 24.1013451417473306
 14.0646839988531909  8.1202490928049098 24.1013451417473306
  0.0000000000000000 11.6003558468641579 24.1013451417473306
  4.0184811425294829 11.6003558468641579 24.1013451417473306
  8.0369622850589657 11.6003558468641579 24.1013451417473306
 12.0554434275884486 11.6003558468641579 24.1013451417473306
  0.0000000000000000  2.3200711693728313 24.9216141700967952
  4.0184811425294829  2.3200711693728313 24.9216141700967952
  8.0369622850589657  2.3200711693728313 24.9216141700967952
 12.0554434275884486  2.3200711693728313 24.9216141700967952
  2.0092405712647414  5.8001779234320781 24.9216141700967952
  6.0277217137942243  5.8001779234320781 24.9216141700967952
 10.0462028563237062  5.8001779234320781 24.9216141700967952
 14.0646839988531909  5.8001779234320781 24.9216141700967952
  0.0000000000000000  9.2802846774913252 24.9216141700967952
  4.0184811425294829  9.2802846774913252 24.9216141700967952
  8.0369622850589657  9.2802846774913252 24.9216141700967952
 12.0554434275884486  9.2802846774913252 24.9216141700967952
  2.0092405712647414 12.7603914315505733 24.9216141700967952
  6.0277217137942243 12.7603914315505733 24.9216141700967952
 10.0462028563237062 12.7603914315505733 24.9216141700967952
 14.0646839988531909 12.7603914315505733 24.9216141700967952
  0.0000000000000000  0.0000000000000000 25.7418831984462635
  4.0184811425294829  0.0000000000000000 25.7418831984462635
  8.0369622850589657  0.0000000000000000 25.7418831984462635
 12.0554434275884486  0.0000000000000000 25.7418831984462635
  2.0092405712647414  3.4801067540592472 25.7418831984462635
  6.0277217137942243  3.4801067540592472 25.7418831984462635
 10.0462028563237062  3.4801067540592472 25.7418831984462635
 14.0646839988531909  3.4801067540592472 25.7418831984462635
  0.0000000000000000  6.9602135081184944 25.7418831984462635
  4.0184811425294829  6.9602135081184944 25.7418831984462635
  8.0369622850589657  6.9602135081184944 25.7418831984462635
 12.0554434275884486  6.9602135081184944 25.7418831984462635
  2.0092405712647414 10.4403202621777424 25.7418831984462635
  6.0277217137942243 10.4403202621777424 25.7418831984462635
 10.0462028563237062 10.4403202621777424 25.7418831984462635
 14.0646839988531909 10.4403202621777424 25.7418831984462635
  2.0092405712647414  1.1600355846864157 26.5621522267957282
  6.0277217137942243  1.1600355846864157 26.5621522267957282
 10.0462028563237062  1.1600355846864157 26.5621522267957282
 14.0646839988531909  1.1600355846864157 26.5621522267957282
  0.0000000000000000  4.6401423387456626 26.5621522267957282
  4.0184811425294829  4.6401423387456626 26.5621522267957282
  8.0369622850589657  4.6401423387456626 26.5621522267957282
 12.0554434275884486  4.6401423387456626 26.5621522267957282
  2.0092405712647414  8.1202490928049098 26.5621522267957282
  6.0277217137942243  8.1202490928049098 26.5621522267957282
 10.0462028563237062  8.1202490928049098 26.5621522267957282
 14.0646839988531909  8.1202490928049098 26.5621522267957282
  0.0000000000000000 11.6003558468641579 26.5621522267957282
  4.0184811425294829 11.6003558468641579 26.5621522267957282
  8.0369622850589657 11.6003558468641579 26.5621522267957282
 12.0554434275884486 11.6003558468641579 26.5621522267957282
  0.0000000000000000  2.3200711693728313 27.3824212551451964
  4.0184811425294829  2.3200711693728313 27.3824212551451964
  8.0369622850589657  2.3200711693728313 27.3824212551451964
 12.0554434275884486  2.3200711693728313 27.3824212551451964
  2.0092405712647414  5.8001779234320781 27.3824212551451964
  6.0277217137942243  5.8001779234320781 27.3824212551451964
 10.0462028563237062  5.8001779234320781 27.3824212551451964
 14.0646839988531909  5.8001779234320781 27.3824212551451964
  0.0000000000000000  9.2802846774913252 27.3824212551451964
  4.0184811425294829  9.2802846774913252 27.3824212551451964
  8.0369622850589657  9.2802846774913252 27.3824212551451964
 12.0554434275884486  9.2802846774913252 27.3824212551451964
  2.0092405712647414 12.7603914315505733 27.3824212551451964
  6.0277217137942243 12.7603914315505733 27.3824212551451964
 10.0462028563237062 12.7603914315505733 27.3824212551451964
 14.0646839988531909 12.7603914315505733 27.3824212551451964
  0.0000000000000000  0.0000000000000000 28.2026902834946611
  4.0184811425294829  0.0000000000000000 28.2026902834946611
  8.0369622850589657  0.0000000000000000 28.2026902834946611
 12.0554434275884486  0.0000000000000000 28.2026902834946611
  2.0092405712647414  3.4801067540592472 28.2026902834946611
  6.0277217137942243  3.4801067540592472 28.2026902834946611
 10.0462028563237062  3.4801067540592472 28.2026902834946611
 14.0646839988531909  3.4801067540592472 28.2026902834946611
  0.0000000000000000  6.9602135081184944 28.2026902834946611
  4.0184811425294829  6.9602135081184944 28.2026902834946611
  8.0369622850589657  6.9602135081184944 28.2026902834946611
 12.0554434275884486  6.9602135081184944 28.2026902834946611
  2.0092405712647414 10.4403202621777424 28.2026902834946611
  6.0277217137942243 10.4403202621777424 28.2026902834946611
 10.0462028563237062 10.4403202621777424 28.2026902834946611
 14.0646839988531909 10.4403202621777424 28.2026902834946611
  2.0092405712647414  1.1600355846864157 29.0229593118441258
  6.0277217137942243  1.1600355846864157 29.0229593118441258
 10.0462028563237062  1.1600355846864157 29.0229593118441258
 14.0646839988531909  1.1600355846864157 29.0229593118441258
  0.0000000000000000  4.6401423387456626 29.0229593118441258
  4.0184811425294829  4.6401423387456626 29.0229593118441258
  8.0369622850589657  4.6401423387456626 29.0229593118441258
 12.0554434275884486  4.6401423387456626 29.0229593118441258
  2.0092405712647414  8.1202490928049098 29.0229593118441258
  6.0277217137942243  8.1202490928049098 29.0229593118441258
 10.0462028563237062  8.1202490928049098 29.0229593118441258
 14.0646839988531909  8.1202490928049098 29.0229593118441258
  0.0000000000000000 11.6003558468641579 29.0229593118441258
  4.0184811425294829 11.6003558468641579 29.0229593118441258
  8.0369622850589657 11.6003558468641579 29.0229593118441258
 12.0554434275884486 11.6003558468641579 29.0229593118441258
  0.0000000000000000  2.3200711693728313 29.8432283401935941
  4.0184811425294829  2.3200711693728313 29.8432283401935941
  8.0369622850589657  2.3200711693728313 29.8432283401935941
 12.0554434275884486  2.3200711693728313 29.8432283401935941
  2.0092405712647414  5.8001779234320781 29.8432283401935941
  6.0277217137942243  5.8001779234320781 29.8432283401935941
 10.0462028563237062  5.8001779234320781 29.8432283401935941
 14.0646839988531909  5.8001779234320781 29.8432283401935941
  0.0000000000000000  9.2802846774913252 29.8432283401935941
  4.0184811425294829  9.2802846774913252 29.8432283401935941
  8.0369622850589657  9.2802846774913252 29.8432283401935941
 12.0554434275884486  9.2802846774913252 29.8432283401935941
  2.0092405712647414 12.7603914315505733 29.8432283401935941
  6.0277217137942243 12.7603914315505733 29.8432283401935941
 10.0462028563237062 12.7603914315505733 29.8432283401935941
 14.0646839988531909 12.7603914315505733 29.8432283401935941
  0.0000000000000000  0.0000000000000000 30.6634973685430623
  4.0184811425294829  0.0000000000000000 30.6634973685430623
  8.0369622850589657  0.0000000000000000 30.6634973685430623
 12.0554434275884486  0.0000000000000000 30.6634973685430623
  2.0092405712647414  3.4801067540592472 30.6634973685430623
  6.0277217137942243  3.4801067540592472 30.6634973685430623
 10.0462028563237062  3.4801067540592472 30.6634973685430623
 14.0646839988531909  3.4801067540592472 30.6634973685430623
  0.0000000000000000  6.9602135081184944 30.6634973685430623
  4.0184811425294829  6.9602135081184944 30.6634973685430623
  8.0369622850589657  6.9602135081184944 30.6634973685430623
 12.0554434275884486  6.9602135081184944 30.6634973685430623
  2.0092405712647414 10.4403202621777424 30.6634973685430623
  6.0277217137942243 10.4403202621777424 30.6634973685430623
 10.0462028563237062 10.4403202621777424 30.6634973685430623
 14.0646839988531909 10.4403202621777424 30.6634973685430623
  2.0092405712647414  1.1600355846864157 31.4837663968925270
  6.0277217137942243  1.1600355846864157 31.4837663968925270
 10.0462028563237062  1.1600355846864157 31.4837663968925270
 14.0646839988531909  1.1600355846864157 31.4837663968925270
  0.0000000000000000  4.6401423387456626 31.4837663968925270
  4.0184811425294829  4.6401423387456626 31.4837663968925270
  8.0369622850589657  4.6401423387456626 31.4837663968925270
 12.0554434275884486  4.6401423387456626 31.4837663968925270
  2.0092405712647414  8.1202490928049098 31.4837663968925270
  6.0277217137942243  8.1202490928049098 31.4837663968925270
 10.0462028563237062  8.1202490928049098 31.4837663968925270
 14.0646839988531909  8.1202490928049098 31.4837663968925270
  0.0000000000000000 11.6003558468641579 31.4837663968925270
  4.0184811425294829 11.6003558468641579 31.4837663968925270
  8.0369622850589657 11.6003558468641579 31.4837663968925270
 12.0554434275884486 11.6003558468641579 31.4837663968925270
  0.0000000000000000  2.3200711693728313 32.3040354252419917
  4.0184811425294829  2.3200711693728313 32.3040354252419917
  8.0369622850589657  2.3200711693728313 32.3040354252419917
 12.0554434275884486  2.3200711693728313 32.3040354252419917
  2.0092405712647414  5.8001779234320781 32.3040354252419917
  6.0277217137942243  5.8001779234320781 32.3040354252419917
 10.0462028563237062  5.8001779234320781 32.3040354252419917
 14.0646839988531909  5.8001779234320781 32.3040354252419917
  0.0000000000000000  9.2802846774913252 32.3040354252419917
  4.0184811425294829  9.2802846774913252 32.3040354252419917
  8.0369622850589657  9.2802846774913252 32.3040354252419917
 12.0554434275884486  9.2802846774913252 32.3040354252419917
  2.0092405712647414 12.7603914315505733 32.3040354252419917
  6.0277217137942243 12.7603914315505733 32.3040354252419917
 10.0462028563237062 12.7603914315505733 32.3040354252419917
 14.0646839988531909 12.7603914315505733 32.3040354252419917
  0.0000000000000000  0.0000000000000000 33.1243044535914564
  4.0184811425294829  0.0000000000000000 33.1243044535914564
  8.0369622850589657  0.0000000000000000 33.1243044535914564
 12.0554434275884486  0.0000000000000000 33.1243044535914564
  2.0092405712647414  3.4801067540592472 33.1243044535914564
  6.0277217137942243  3.4801067540592472 33.1243044535914564
 10.0462028563237062  3.4801067540592472 33.1243044535914564
 14.0646839988531909  3.4801067540592472 33.1243044535914564
  0.0000000000000000  6.9602135081184944 33.1243044535914564
  4.0184811425294829  6.9602135081184944 33.1243044535914564
  8.0369622850589657  6.9602135081184944 33.1243044535914564
 12.0554434275884486  6.9602135081184944 33.1243044535914564
  2.0092405712647414 10.4403202621777424 33.1243044535914564
  6.0277217137942243 10.4403202621777424 33.1243044535914564
 10.0462028563237062 10.4403202621777424 33.1243044535914564
 14.0646839988531909 10.4403202621777424 33.1243044535914564
  2.0092405712647414  1.1600355846864157 33.9445734819409211
  6.0277217137942243  1.1600355846864157 33.9445734819409211
 10.0462028563237062  1.1600355846864157 33.9445734819409211
 14.0646839988531909  1.1600355846864157 33.9445734819409211
  0.0000000000000000  4.6401423387456626 33.9445734819409211
  4.0184811425294829  4.6401423387456626 33.9445734819409211
  8.0369622850589657  4.6401423387456626 33.9445734819409211
 12.0554434275884486  4.6401423387456626 33.9445734819409211
  2.0092405712647414  8.1202490928049098 33.9445734819409211
  6.0277217137942243  8.1202490928049098 33.9445734819409211
 10.0462028563237062  8.1202490928049098 33.9445734819409211
 14.0646839988531909  8.1202490928049098 33.9445734819409211
  0.0000000000000000 11.6003558468641579 33.9445734819409211
  4.0184811425294829 11.6003558468641579 33.9445734819409211
  8.0369622850589657 11.6003558468641579 33.9445734819409211
 12.0554434275884486 11.6003558468641579 33.9445734819409211
  0.0000000000000000  2.3200711693728313 34.7648425102903929
  4.0184811425294829  2.3200711693728313 34.7648425102903929
  8.0369622850589657  2.3200711693728313 34.7648425102903929
 12.0554434275884486  2.3200711693728313 34.7648425102903929
  2.0092405712647414  5.8001779234320781 34.7648425102903929
  6.0277217137942243  5.8001779234320781 34.7648425102903929
 10.0462028563237062  5.8001779234320781 34.7648425102903929
 14.0646839988531909  5.8001779234320781 34.7648425102903929
  0.0000000000000000  9.2802846774913252 34.7648425102903929
  4.0184811425294829  9.2802846774913252 34.7648425102903929
  8.0369622850589657  9.2802846774913252 34.7648425102903929
 12.0554434275884486  9.2802846774913252 34.7648425102903929
  2.0092405712647414 12.7603914315505733 34.7648425102903929
  6.0277217137942243 12.7603914315505733 34.7648425102903929
 10.0462028563237062 12.7603914315505733 34.7648425102903929
 14.0646839988531909 12.7603914315505733 34.7648425102903929
  0.0000000000000000  0.0000000000000000 35.5851115386398575
  4.0184811425294829  0.0000000000000000 35.5851115386398575
  8.0369622850589657  0.0000000000000000 35.5851115386398575
 12.0554434275884486  0.0000000000000000 35.5851115386398575
  2.0092405712647414  3.4801067540592472 35.5851115386398575
  6.0277217137942243  3.4801067540592472 35.5851115386398575
 10.0462028563237062  3.4801067540592472 35.5851115386398575
 14.0646839988531909  3.4801067540592472 35.5851115386398575
  0.0000000000000000  6.9602135081184944 35.5851115386398575
  4.0184811425294829  6.9602135081184944 35.5851115386398575
  8.0369622850589657  6.9602135081184944 35.5851115386398575
 12.0554434275884486  6.9602135081184944 35.5851115386398575
  2.0092405712647414 10.4403202621777424 35.5851115386398575
  6.0277217137942243 10.4403202621777424 35.5851115386398575
 10.0462028563237062 10.4403202621777424 35.5851115386398575
 14.0646839988531909 10.4403202621777424 35.5851115386398575
