Fe
 1.0000000000000000
    11.3659810638114500    0.0000000000000000    0.0000000000000000
     0.0000000000000000    8.0369622850589657    0.0000000000000000
     0.0000000000000000    0.0000000000000000   78.1755708540300844
 Fe 
 320
Cartesian
  0.0000000000000000  2.0092405712647414 20.0000000000000000
  2.8414952659528625  2.0092405712647414 20.0000000000000000
  5.6829905319057250  2.0092405712647414 20.0000000000000000
  8.5244857978585884  2.0092405712647414 20.0000000000000000
  1.4207476329764313  4.0184811425294829 20.0000000000000000
  4.2622428989292942  4.0184811425294829 20.0000000000000000
  7.1037381648821558  4.0184811425294829 20.0000000000000000
  9.9452334308350192  4.0184811425294829 20.0000000000000000
  0.0000000000000000  6.0277217137942243 20.0000000000000000
  2.8414952659528625  6.0277217137942243 20.0000000000000000
  5.6829905319057250  6.0277217137942243 20.0000000000000000
  8.5244857978585884  6.0277217137942243 20.0000000000000000
  1.4207476329764313  8.0369622850589657 20.0000000000000000
  4.2622428989292942  8.0369622850589657 20.0000000000000000
  7.1037381648821558  8.0369622850589657 20.0000000000000000
  9.9452334308350192  8.0369622850589657 20.0000000000000000
  0.0000000000000000  0.0000000000000000 22.0092405712647405
  2.8414952659528625  0.0000000000000000 22.0092405712647405
  5.6829905319057250  0.0000000000000000 22.0092405712647405
  8.5244857978585884  0.0000000000000000 22.0092405712647405
  1.4207476329764313  2.0092405712647414 22.0092405712647405
  4.2622428989292942  2.0092405712647414 22.0092405712647405
  7.1037381648821558  2.0092405712647414 22.0092405712647405
  9.9452334308350192  2.0092405712647414 22.0092405712647405
  0.0000000000000000  4.0184811425294829 22.0092405712647405
  2.8414952659528625  4.0184811425294829 22.0092405712647405
  5.6829905319057250  4.0184811425294829 22.0092405712647405
  8.5244857978585884  4.0184811425294829 22.0092405712647405
  1.4207476329764313  6.0277217137942243 22.0092405712647405
  4.2622428989292942  6.0277217137942243 22.0092405712647405
  7.1037381648821558  6.0277217137942243 22.0092405712647405
  9.9452334308350192  6.0277217137942243 22.0092405712647405
  0.0000000000000000  2.0092405712647414 24.0184811425294811
  2.8414952659528625  2.0092405712647414 24.0184811425294811
  5.6829905319057250  2.0092405712647414 24.0184811425294811
  8.5244857978585884  2.0092405712647414 24.0184811425294811
  1.4207476329764313  4.0184811425294829 24.0184811425294811
  4.2622428989292942  4.0184811425294829 24.0184811425294811
  7.1037381648821558  4.0184811425294829 24.0184811425294811
  9.9452334308350192  4.0184811425294829 24.0184811425294811
  0.0000000000000000  6.0277217137942243 24.0184811425294811
  2.8414952659528625  6.0277217137942243 24.0184811425294811
  5.6829905319057250  6.0277217137942243 24.0184811425294811
  8.5244857978585884  6.0277217137942243 24.0184811425294811
  1.4207476329764313  8.0369622850589657 24.0184811425294811
  4.2622428989292942  8.0369622850589657 24.0184811425294811
  7.1037381648821558  8.0369622850589657 24.0184811425294811
  9.9452334308350192  8.0369622850589657 24.0184811425294811
  0.0000000000000000  0.0000000000000000 26.0277217137942252
  2.8414952659528625  0.0000000000000000 26.0277217137942252
  5.6829905319057250  0.0000000000000000 26.0277217137942252
  8.5244857978585884  0.0000000000000000 26.0277217137942252
  1.4207476329764313  2.0092405712647414 26.0277217137942252
  4.2622428989292942  2.0092405712647414 26.0277217137942252
  7.1037381648821558  2.0092405712647414 26.0277217137942252
  9.9452334308350192  2.0092405712647414 26.0277217137942252
  0.0000000000000000  4.0184811425294829 26.0277217137942252
  2.8414952659528625  4.0184811425294829 26.0277217137942252
  5.6829905319057250  4.0184811425294829 26.0277217137942252
  8.5244857978585884  4.0184811425294829 26.0277217137942252
  1.4207476329764313  6.0277217137942243 26.0277217137942252
  4.2622428989292942  6.0277217137942243 26.0277217137942252
  7.1037381648821558  6.0277217137942243 26.0277217137942252
  9.9452334308350192  6.0277217137942243 26.0277217137942252
  0.0000000000000000  2.0092405712647414 28.0369622850589657
  2.8414952659528625  2.0092405712647414 28.0369622850589657
  5.6829905319057250  2.0092405712647414 28.0369622850589657
  8.5244857978585884  2.0092405712647414 28.0369622850589657
  1.4207476329764313  4.0184811425294829 28.0369622850589657
  4.2622428989292942  4.0184811425294829 28.0369622850589657
  7.1037381648821558  4.0184811425294829 28.0369622850589657
  9.9452334308350192  4.0184811425294829 28.0369622850589657
  0.0000000000000000  6.0277217137942243 28.0369622850589657
  2.8414952659528625  6.0277217137942243 28.0369622850589657
  5.6829905319057250  6.0277217137942243 28.0369622850589657
  8.5244857978585884  6.0277217137942243 28.0369622850589657
  1.4207476329764313  8.0369622850589657 28.0369622850589657
  4.2622428989292942  8.0369622850589657 28.0369622850589657
  7.1037381648821558  8.0369622850589657 28.0369622850589657
  9.9452334308350192  8.0369622850589657 28.0369622850589657
  0.0000000000000000  0.0000000000000000 30.0462028563237062
  2.8414952659528625  0.0000000000000000 30.0462028563237062
  5.6829905319057250  0.0000000000000000 30.0462028563237062
  8.5244857978585884  0.0000000000000000 30.0462028563237062
  1.4207476329764313  2.0092405712647414 30.0462028563237062
  4.2622428989292942  2.0092405712647414 30.0462028563237062
  7.1037381648821558  2.0092405712647414 30.0462028563237062
  9.9452334308350192  2.0092405712647414 30.0462028563237062
  0.0000000000000000  4.0184811425294829 30.0462028563237062
  2.8414952659528625  4.0184811425294829 30.0462028563237062
  5.6829905319057250  4.0184811425294829 30.0462028563237062
  8.5244857978585884  4.0184811425294829 30.0462028563237062
  1.4207476329764313  6.0277217137942243 30.0462028563237062
  4.2622428989292942  6.0277217137942243 30.0462028563237062
  7.1037381648821558  6.0277217137942243 30.0462028563237062
  9.9452334308350192  6.0277217137942243 30.0462028563237062
  0.0000000000000000  2.0092405712647414 32.0554434275884503
  2.8414952659528625  2.0092405712647414 32.0554434275884503
  5.6829905319057250  2.0092405712647414 32.0554434275884503
  8.5244857978585884  2.0092405712647414 32.0554434275884503
  1.4207476329764313  4.0184811425294829 32.0554434275884503
  4.2622428989292942  4.0184811425294829 32.0554434275884503
  7.1037381648821558  4.0184811425294829 32.0554434275884503
  9.9452334308350192  4.0184811425294829 32.0554434275884503
  0.0000000000000000  6.0277217137942243 32.0554434275884503
  2.8414952659528625  6.0277217137942243 32.0554434275884503
  5.6829905319057250  6.0277217137942243 32.0554434275884503
  8.5244857978585884  6.0277217137942243 32.0554434275884503
  1.4207476329764313  8.0369622850589657 32.0554434275884503
  4.2622428989292942  8.0369622850589657 32.0554434275884503
  7.1037381648821558  8.0369622850589657 32.0554434275884503
  9.9452334308350192  8.0369622850589657 32.0554434275884503
  0.0000000000000000  0.0000000000000000 34.0646839988531909
  2.8414952659528625  0.0000000000000000 34.0646839988531909
  5.6829905319057250  0.0000000000000000 34.0646839988531909
  8.5244857978585884  0.0000000000000000 34.0646839988531909
  1.4207476329764313  2.0092405712647414 34.0646839988531909
  4.2622428989292942  2.0092405712647414 34.0646839988531909
  7.1037381648821558  2.0092405712647414 34.0646839988531909
  9.9452334308350192  2.0092405712647414 34.0646839988531909
  0.0000000000000000  4.0184811425294829 34.0646839988531909
  2.8414952659528625  4.0184811425294829 34.0646839988531909
  5.6829905319057250  4.0184811425294829 34.0646839988531909
  8.5244857978585884  4.0184811425294829 34.0646839988531909
  1.4207476329764313  6.0277217137942243 34.0646839988531909
  4.2622428989292942  6.0277217137942243 34.0646839988531909
  7.1037381648821558  6.0277217137942243 34.0646839988531909
  9.9452334308350192  6.0277217137942243 34.0646839988531909
  0.0000000000000000  2.0092405712647414 36.0739245701179314
  2.8414952659528625  2.0092405712647414 36.0739245701179314
  5.6829905319057250  2.0092405712647414 36.0739245701179314
  8.5244857978585884  2.0092405712647414 36.0739245701179314
  1.4207476329764313  4.0184811425294829 36.0739245701179314
  4.2622428989292942  4.0184811425294829 36.0739245701179314
  7.1037381648821558  4.0184811425294829 36.0739245701179314
  9.9452334308350192  4.0184811425294829 36.0739245701179314
  0.0000000000000000  6.0277217137942243 36.0739245701179314
  2.8414952659528625  6.0277217137942243 36.0739245701179314
  5.6829905319057250  6.0277217137942243 36.0739245701179314
  8.5244857978585884  6.0277217137942243 36.0739245701179314
  1.4207476329764313  8.0369622850589657 36.0739245701179314
  4.2622428989292942  8.0369622850589657 36.0739245701179314
  7.1037381648821558  8.0369622850589657 36.0739245701179314
  9.9452334308350192  8.0369622850589657 36.0739245701179314
  0.0000000000000000  0.0000000000000000 38.0831651413826719
  2.8414952659528625  0.0000000000000000 38.0831651413826719
  5.6829905319057250  0.0000000000000000 38.0831651413826719
  8.5244857978585884  0.0000000000000000 38.0831651413826719
  1.4207476329764313  2.0092405712647414 38.0831651413826719
  4.2622428989292942  2.0092405712647414 38.0831651413826719
  7.1037381648821558  2.0092405712647414 38.0831651413826719
  9.9452334308350192  2.0092405712647414 38.0831651413826719
  0.0000000000000000  4.0184811425294829 38.0831651413826719
  2.8414952659528625  4.0184811425294829 38.0831651413826719
  5.6829905319057250  4.0184811425294829 38.0831651413826719
  8.5244857978585884  4.0184811425294829 38.0831651413826719
  1.4207476329764313  6.0277217137942243 38.0831651413826719
  4.2622428989292942  6.0277217137942243 38.0831651413826719
  7.1037381648821558  6.0277217137942243 38.0831651413826719
  9.9452334308350192  6.0277217137942243 38.0831651413826719
  0.0000000000000000  2.0092405712647414 40.0924057126474125
  2.8414952659528625  2.0092405712647414 40.0924057126474125
  5.6829905319057250  2.0092405712647414 40.0924057126474125
  8.5244857978585884  2.0092405712647414 40.0924057126474125
  1.4207476329764313  4.0184811425294829 40.0924057126474125
  4.2622428989292942  4.0184811425294829 40.0924057126474125
  7.1037381648821558  4.0184811425294829 40.0924057126474125
  9.9452334308350192  4.0184811425294829 40.0924057126474125
  0.0000000000000000  6.0277217137942243 40.0924057126474125
  2.8414952659528625  6.0277217137942243 40.0924057126474125
  5.6829905319057250  6.0277217137942243 40.0924057126474125
  8.5244857978585884  6.0277217137942243 40.0924057126474125
  1.4207476329764313  8.0369622850589657 40.0924057126474125
  4.2622428989292942  8.0369622850589657 40.0924057126474125
  7.1037381648821558  8.0369622850589657 40.0924057126474125
  9.9452334308350192  8.0369622850589657 40.0924057126474125
  0.0000000000000000  0.0000000000000000 42.1016462839121601
  2.8414952659528625  0.0000000000000000 42.1016462839121601
  5.6829905319057250  0.0000000000000000 42.1016462839121601
  8.5244857978585884  0.0000000000000000 42.1016462839121601
  1.4207476329764313  2.0092405712647414 42.1016462839121601
  4.2622428989292942  2.0092405712647414 42.1016462839121601
  7.1037381648821558  2.0092405712647414 42.1016462839121601
  9.9452334308350192  2.0092405712647414 42.1016462839121601
  0.0000000000000000  4.0184811425294829 42.1016462839121601
  2.8414952659528625  4.0184811425294829 42.1016462839121601
  5.6829905319057250  4.0184811425294829 42.1016462839121601
  8.5244857978585884  4.0184811425294829 42.1016462839121601
  1.4207476329764313  6.0277217137942243 42.1016462839121601
  4.2622428989292942  6.0277217137942243 42.1016462839121601
  7.1037381648821558  6.0277217137942243 42.1016462839121601
  9.9452334308350192  6.0277217137942243 42.1016462839121601
  0.0000000000000000  2.0092405712647414 44.1108868551769007
  2.8414952659528625  2.0092405712647414 44.1108868551769007
  5.6829905319057250  2.0092405712647414 44.1108868551769007
  8.5244857978585884  2.0092405712647414 44.1108868551769007
  1.4207476329764313  4.0184811425294829 44.1108868551769007
  4.2622428989292942  4.0184811425294829 44.1108868551769007
  7.1037381648821558  4.0184811425294829 44.1108868551769007
  9.9452334308350192  4.0184811425294829 44.1108868551769007
  0.0000000000000000  6.0277217137942243 44.1108868551769007
  2.8414952659528625  6.0277217137942243 44.1108868551769007
  5.6829905319057250  6.0277217137942243 44.1108868551769007
  8.5244857978585884  6.0277217137942243 44.1108868551769007
  1.4207476329764313  8.0369622850589657 44.1108868551769007
  4.2622428989292942  8.0369622850589657 44.1108868551769007
  7.1037381648821558  8.0369622850589657 44.1108868551769007
  9.9452334308350192  8.0369622850589657 44.1108868551769007
  0.0000000000000000  0.0000000000000000 46.1201274264416412
  2.8414952659528625  0.0000000000000000 46.1201274264416412
  5.6829905319057250  0.0000000000000000 46.1201274264416412
  8.5244857978585884  0.0000000000000000 46.1201274264416412
  1.4207476329764313  2.0092405712647414 46.1201274264416412
  4.2622428989292942  2.0092405712647414 46.1201274264416412
  7.1037381648821558  2.0092405712647414 46.1201274264416412
  9.9452334308350192  2.0092405712647414 46.1201274264416412
  0.0000000000000000  4.0184811425294829 46.1201274264416412
  2.8414952659528625  4.0184811425294829 46.1201274264416412
  5.6829905319057250  4.0184811425294829 46.1201274264416412
  8.5244857978585884  4.0184811425294829 46.1201274264416412
  1.4207476329764313  6.0277217137942243 46.1201274264416412
  4.2622428989292942  6.0277217137942243 46.1201274264416412
  7.1037381648821558  6.0277217137942243 46.1201274264416412
  9.9452334308350192  6.0277217137942243 46.1201274264416412
  0.0000000000000000  2.0092405712647414 48.1293679977063817
  2.8414952659528625  2.0092405712647414 48.1293679977063817
  5.6829905319057250  2.0092405712647414 48.1293679977063817
  8.5244857978585884  2.0092405712647414 48.1293679977063817
  1.4207476329764313  4.0184811425294829 48.1293679977063817
  4.2622428989292942  4.0184811425294829 48.1293679977063817
  7.1037381648821558  4.0184811425294829 48.1293679977063817
  9.9452334308350192  4.0184811425294829 48.1293679977063817
  0.0000000000000000  6.0277217137942243 48.1293679977063817
  2.8414952659528625  6.0277217137942243 48.1293679977063817
  5.6829905319057250  6.0277217137942243 48.1293679977063817
  8.5244857978585884  6.0277217137942243 48.1293679977063817
  1.4207476329764313  8.0369622850589657 48.1293679977063817
  4.2622428989292942  8.0369622850589657 48.1293679977063817
  7.1037381648821558  8.0369622850589657 48.1293679977063817
  9.9452334308350192  8.0369622850589657 48.1293679977063817
  0.0000000000000000  0.0000000000000000 50.1386085689711223
  2.8414952659528625  0.0000000000000000 50.1386085689711223
  5.6829905319057250  0.0000000000000000 50.1386085689711223
  8.5244857978585884  0.0000000000000000 50.1386085689711223
  1.4207476329764313  2.0092405712647414 50.1386085689711223
  4.2622428989292942  2.0092405712647414 50.1386085689711223
  7.1037381648821558  2.0092405712647414 50.1386085689711223
  9.9452334308350192  2.0092405712647414 50.1386085689711223
  0.0000000000000000  4.0184811425294829 50.1386085689711223
  2.8414952659528625  4.0184811425294829 50.1386085689711223
  5.6829905319057250  4.0184811425294829 50.1386085689711223
  8.5244857978585884  4.0184811425294829 50.1386085689711223
  1.4207476329764313  6.0277217137942243 50.1386085689711223
  4.2622428989292942  6.0277217137942243 50.1386085689711223
  7.1037381648821558  6.0277217137942243 50.1386085689711223
  9.9452334308350192  6.0277217137942243 50.1386085689711223
  0.0000000000000000  2.0092405712647414 52.1478491402358628
  2.8414952659528625  2.0092405712647414 52.1478491402358628
  5.6829905319057250  2.0092405712647414 52.1478491402358628
  8.5244857978585884  2.0092405712647414 52.1478491402358628
  1.4207476329764313  4.0184811425294829 52.1478491402358628
  4.2622428989292942  4.0184811425294829 52.1478491402358628
  7.1037381648821558  4.0184811425294829 52.1478491402358628
  9.9452334308350192  4.0184811425294829 52.1478491402358628
  0.0000000000000000  6.0277217137942243 52.1478491402358628
  2.8414952659528625  6.0277217137942243 52.1478491402358628
  5.6829905319057250  6.0277217137942243 52.1478491402358628
  8.5244857978585884  6.0277217137942243 52.1478491402358628
  1.4207476329764313  8.0369622850589657 52.1478491402358628
  4.2622428989292942  8.0369622850589657 52.1478491402358628
  7.1037381648821558  8.0369622850589657 52.1478491402358628
  9.9452334308350192  8.0369622850589657 52.1478491402358628
  0.0000000000000000  0.0000000000000000 54.1570897115006034
  2.8414952659528625  0.0000000000000000 54.1570897115006034
  5.6829905319057250  0.0000000000000000 54.1570897115006034
  8.5244857978585884  0.0000000000000000 54.1570897115006034
  1.4207476329764313  2.0092405712647414 54.1570897115006034
  4.2622428989292942  2.0092405712647414 54.1570897115006034
  7.1037381648821558  2.0092405712647414 54.1570897115006034
  9.9452334308350192  2.0092405712647414 54.1570897115006034
  0.0000000000000000  4.0184811425294829 54.1570897115006034
  2.8414952659528625  4.0184811425294829 54.1570897115006034
  5.6829905319057250  4.0184811425294829 54.1570897115006034
  8.5244857978585884  4.0184811425294829 54.1570897115006034
  1.4207476329764313  6.0277217137942243 54.1570897115006034
  4.2622428989292942  6.0277217137942243 54.1570897115006034
  7.1037381648821558  6.0277217137942243 54.1570897115006034
  9.9452334308350192  6.0277217137942243 54.1570897115006034
  0.0000000000000000  2.0092405712647414 56.1663302827653439
  2.8414952659528625  2.0092405712647414 56.1663302827653439
  5.6829905319057250  2.0092405712647414 56.1663302827653439
  8.5244857978585884  2.0092405712647414 56.1663302827653439
  1.4207476329764313  4.0184811425294829 56.1663302827653439
  4.2622428989292942  4.0184811425294829 56.1663302827653439
  7.1037381648821558  4.0184811425294829 56.1663302827653439
  9.9452334308350192  4.0184811425294829 56.1663302827653439
  0.0000000000000000  6.0277217137942243 56.1663302827653439
  2.8414952659528625  6.0277217137942243 56.1663302827653439
  5.6829905319057250  6.0277217137942243 56.1663302827653439
  8.5244857978585884  6.0277217137942243 56.1663302827653439
  1.4207476329764313  8.0369622850589657 56.1663302827653439
  4.2622428989292942  8.0369622850589657 56.1663302827653439
  7.1037381648821558  8.0369622850589657 56.1663302827653439
  9.9452334308350192  8.0369622850589657 56.1663302827653439
  0.0000000000000000  0.0000000000000000 58.1755708540300844
  2.8414952659528625  0.0000000000000000 58.1755708540300844
  5.6829905319057250  0.0000000000000000 58.1755708540300844
  8.5244857978585884  0.0000000000000000 58.1755708540300844
  1.4207476329764313  2.0092405712647414 58.1755708540300844
  4.2622428989292942  2.0092405712647414 58.1755708540300844
  7.1037381648821558  2.0092405712647414 58.1755708540300844
  9.9452334308350192  2.0092405712647414 58.1755708540300844
  0.0000000000000000  4.0184811425294829 58.1755708540300844
  2.8414952659528625  4.0184811425294829 58.1755708540300844
  5.6829905319057250  4.0184811425294829 58.1755708540300844
  8.5244857978585884  4.0184811425294829 58.1755708540300844
  1.4207476329764313  6.0277217137942243 58.1755708540300844
  4.2622428989292942  6.0277217137942243 58.1755708540300844
  7.1037381648821558  6.0277217137942243 58.1755708540300844
  9.9452334308350192  6.0277217137942243 58.1755708540300844
