Fe Pd
 1.0000000000000000
    11.3653911802341909    0.0000000000000000    0.0000000000000000
     0.0000000000000000   11.3653911802341909    0.0000000000000000
     0.0000000000000000    0.0000000000000000   11.3653911802341909
 Fe  Pd 
 126   2
Cartesian
  0.0000000000000000  0.0000000000000000  0.0000000000000000
  1.4206738975292739  1.4206738975292739  1.4206738975292739
  1.4206738975292739  1.4206738975292739  4.2620216925878216
  0.0000000000000000  0.0000000000000000  5.6826955901170946
  1.4206738975292739  1.4206738975292739  7.1033694876463693
  0.0000000000000000  0.0000000000000000  8.5240433851756432
  1.4206738975292739  1.4206738975292739  9.9447172827049179
  0.0000000000000000  2.8413477950585477  0.0000000000000000
  1.4206738975292739  4.2620216925878216  1.4206738975292739
  0.0000000000000000  2.8413477950585477  2.8413477950585477
  1.4206738975292739  4.2620216925878216  4.2620216925878216
  0.0000000000000000  2.8413477950585477  5.6826955901170946
  1.4206738975292739  4.2620216925878216  7.1033694876463693
  0.0000000000000000  2.8413477950585477  8.5240433851756432
  1.4206738975292739  4.2620216925878216  9.9447172827049179
  0.0000000000000000  5.6826955901170946  0.0000000000000000
  1.4206738975292739  7.1033694876463693  1.4206738975292739
  0.0000000000000000  5.6826955901170946  2.8413477950585477
  1.4206738975292739  7.1033694876463693  4.2620216925878216
  0.0000000000000000  5.6826955901170946  5.6826955901170946
  1.4206738975292739  7.1033694876463693  7.1033694876463693
  0.0000000000000000  5.6826955901170946  8.5240433851756432
  1.4206738975292739  7.1033694876463693  9.9447172827049179
  0.0000000000000000  8.5240433851756432  0.0000000000000000
  1.4206738975292739  9.9447172827049179  1.4206738975292739
  0.0000000000000000  8.5240433851756432  2.8413477950585477
  1.4206738975292739  9.9447172827049179  4.2620216925878216
  0.0000000000000000  8.5240433851756432  5.6826955901170946
  1.4206738975292739  9.9447172827049179  7.1033694876463693
  0.0000000000000000  8.5240433851756432  8.5240433851756432
  1.4206738975292739  9.9447172827049179  9.9447172827049179
  4.2620216925878216  1.4206738975292739  1.4206738975292739
  2.8413477950585477  0.0000000000000000  2.8413477950585477
  4.2620216925878216  1.4206738975292739  4.2620216925878216
  2.8413477950585477  0.0000000000000000  5.6826955901170946
  4.2620216925878216  1.4206738975292739  7.1033694876463693
  2.8413477950585477  0.0000000000000000  8.5240433851756432
  4.2620216925878216  1.4206738975292739  9.9447172827049179
  2.8413477950585477  2.8413477950585477  0.0000000000000000
  4.2620216925878216  4.2620216925878216  1.4206738975292739
  2.8413477950585477  2.8413477950585477  2.8413477950585477
  4.2620216925878216  4.2620216925878216  4.2620216925878216
  2.8413477950585477  2.8413477950585477  5.6826955901170946
  4.2620216925878216  4.2620216925878216  7.1033694876463693
  2.8413477950585477  2.8413477950585477  8.5240433851756432
  4.2620216925878216  4.2620216925878216  9.9447172827049179
  2.8413477950585477  5.6826955901170946  0.0000000000000000
  4.2620216925878216  7.1033694876463693  1.4206738975292739
  2.8413477950585477  5.6826955901170946  2.8413477950585477
  4.2620216925878216  7.1033694876463693  4.2620216925878216
  2.8413477950585477  5.6826955901170946  5.6826955901170946
  4.2620216925878216  7.1033694876463693  7.1033694876463693
  2.8413477950585477  5.6826955901170946  8.5240433851756432
  4.2620216925878216  7.1033694876463693  9.9447172827049179
  2.8413477950585477  8.5240433851756432  0.0000000000000000
  4.2620216925878216  9.9447172827049179  1.4206738975292739
  2.8413477950585477  8.5240433851756432  2.8413477950585477
  4.2620216925878216  9.9447172827049179  4.2620216925878216
  2.8413477950585477  8.5240433851756432  5.6826955901170946
  4.2620216925878216  9.9447172827049179  7.1033694876463693
  2.8413477950585477  8.5240433851756432  8.5240433851756432
  4.2620216925878216  9.9447172827049179  9.9447172827049179
  5.6826955901170946  0.0000000000000000  0.0000000000000000
  7.1033694876463693  1.4206738975292739  1.4206738975292739
  5.6826955901170946  0.0000000000000000  2.8413477950585477
  7.1033694876463693  1.4206738975292739  4.2620216925878216
  5.6826955901170946  0.0000000000000000  5.6826955901170946
  7.1033694876463693  1.4206738975292739  7.1033694876463693
  5.6826955901170946  0.0000000000000000  8.5240433851756432
  7.1033694876463693  1.4206738975292739  9.9447172827049179
  5.6826955901170946  2.8413477950585477  0.0000000000000000
  7.1033694876463693  4.2620216925878216  1.4206738975292739
  5.6826955901170946  2.8413477950585477  2.8413477950585477
  7.1033694876463693  4.2620216925878216  4.2620216925878216
  5.6826955901170946  2.8413477950585477  5.6826955901170946
  7.1033694876463693  4.2620216925878216  7.1033694876463693
  5.6826955901170946  2.8413477950585477  8.5240433851756432
  7.1033694876463693  4.2620216925878216  9.9447172827049179
  5.6826955901170946  5.6826955901170946  0.0000000000000000
  7.1033694876463693  7.1033694876463693  1.4206738975292739
  5.6826955901170946  5.6826955901170946  2.8413477950585477
  7.1033694876463693  7.1033694876463693  4.2620216925878216
  5.6826955901170946  5.6826955901170946  5.6826955901170946
  7.1033694876463693  7.1033694876463693  7.1033694876463693
  5.6826955901170946  5.6826955901170946  8.5240433851756432
  7.1033694876463693  7.1033694876463693  9.9447172827049179
  5.6826955901170946  8.5240433851756432  0.0000000000000000
  7.1033694876463693  9.9447172827049179  1.4206738975292739
  5.6826955901170946  8.5240433851756432  2.8413477950585477
  7.1033694876463693  9.9447172827049179  4.2620216925878216
  5.6826955901170946  8.5240433851756432  5.6826955901170946
  7.1033694876463693  9.9447172827049179  7.1033694876463693
  5.6826955901170946  8.5240433851756432  8.5240433851756432
  7.1033694876463693  9.9447172827049179  9.9447172827049179
  8.5240433851756432  0.0000000000000000  0.0000000000000000
  9.9447172827049179  1.4206738975292739  1.4206738975292739
  8.5240433851756432  0.0000000000000000  2.8413477950585477
  9.9447172827049179  1.4206738975292739  4.2620216925878216
  8.5240433851756432  0.0000000000000000  5.6826955901170946
  9.9447172827049179  1.4206738975292739  7.1033694876463693
  8.5240433851756432  0.0000000000000000  8.5240433851756432
  9.9447172827049179  1.4206738975292739  9.9447172827049179
  8.5240433851756432  2.8413477950585477  0.0000000000000000
  9.9447172827049179  4.2620216925878216  1.4206738975292739
  8.5240433851756432  2.8413477950585477  2.8413477950585477
  9.9447172827049179  4.2620216925878216  4.2620216925878216
  8.5240433851756432  2.8413477950585477  5.6826955901170946
  9.9447172827049179  4.2620216925878216  7.1033694876463693
  8.5240433851756432  2.8413477950585477  8.5240433851756432
  9.9447172827049179  4.2620216925878216  9.9447172827049179
  8.5240433851756432  5.6826955901170946  0.0000000000000000
  9.9447172827049179  7.1033694876463693  1.4206738975292739
  8.5240433851756432  5.6826955901170946  2.8413477950585477
  9.9447172827049179  7.1033694876463693  4.2620216925878216
  8.5240433851756432  5.6826955901170946  5.6826955901170946
  9.9447172827049179  7.1033694876463693  7.1033694876463693
  8.5240433851756432  5.6826955901170946  8.5240433851756432
  9.9447172827049179  7.1033694876463693  9.9447172827049179
  8.5240433851756432  8.5240433851756432  0.0000000000000000
  9.9447172827049179  9.9447172827049179  1.4206738975292739
  8.5240433851756432  8.5240433851756432  2.8413477950585477
  9.9447172827049179  9.9447172827049179  4.2620216925878216
  8.5240433851756432  8.5240433851756432  5.6826955901170946
  9.9447172827049179  9.9447172827049179  7.1033694876463693
  8.5240433851756432  8.5240433851756432  8.5240433851756432
  9.9447172827049179  9.9447172827049179  9.9447172827049179
  2.8413477950585477  0.0000000000000000  0.0000000000000000
  0.0000000000000000  0.0000000000000000  2.8413477950585477
