Fe
 1.0000000000000000
    11.3461969529800069    0.0000000098251209   -0.0000000019272274
     0.0000000098251181   11.3462052184507147   -0.0000000076114808
    -0.0000000019272274   -0.0000000076114811   11.3461968100601531
 Fe 
 127
Cartesian
  1.3729761858485130  1.3725957203516932  1.3721966049192007
 -0.0000000248142342  0.0000001231077269  2.8654773217393710
  1.4196003082903463  1.4186781329000109  4.2511618087809762
 -0.0000000569223719  0.0000003896688862  5.6730984238470121
  1.4186102782851808  1.4194371155935803  7.0947297747811326
 -0.0000002036225512  0.0000001783255874  8.4807196770466451
  1.3721963934805610  1.3725961917327356  9.9732203526512802
 -0.0000000744096829  2.8654880279503425  0.0000002115606931
  1.4187550641440865  4.2513253519813716  1.4194258085387426
  0.0001694960494895  2.8261872546814684  2.8261849617386496
  1.4168811141750248  4.2525022027826394  4.2528623158294305
  0.0000000874031294  2.8365583234493381  5.6730984303513043
  1.4166353014985749  4.2528509887278707  7.0937509292051324
 -0.0001689882660503  2.8261870608939597  8.5200121732061813
  1.4194259569130263  4.2513253803338795  9.9274419403546865
  0.0000001384166394  5.6731024222018478  0.0000002224122540
  1.4194257920566233  7.0948796693295515  1.4187552954379290
  0.0000002911863332  5.6731027704829424  2.8365043724890695
  1.4166352386081227  7.0933540336266345  4.2524458197979484
  0.0000002000987629  5.6731024609220899  5.6730985767778757
  1.4168813120080219  7.0937029241479763  7.0933344781506804
  0.0000003125687349  5.6731026820290760  8.5096924920833814
  1.4187549187365966  7.0948794076072694  9.9267704874723979
  0.0000000842057762  8.4807172093624672 -0.0000003361779862
  1.3721966190375325  9.9736095590684073  1.3729763362443592
 -0.0001697061235097  8.5200178761284100  2.8261849327398894
  1.4186103338170613  9.9267682399859982  4.2514672266343654
  0.0000001560538098  8.5096467095688126  5.6730983602739693
  1.4196003313230572  9.9275273182392816  7.0950349583466128
  0.0001697796905722  8.5200182107234106  8.5200118069342814
  1.3729757865105436  9.9736090132780433  9.9740000111151161
  2.8654775721231647  0.0000000473186898  0.0000003271464062
  4.2514667406245472  1.4194371272585504  1.4186101507006974
  2.8261790922753276  0.0000003192090105  2.8261789723635982
  4.2528662124397876  1.4168444883744535  4.2523862545108093
  2.8368095650335290  0.0000000977787751  5.6730984480502720
  4.2523869086209647  1.4168443588804778  7.0933308683167500
  2.8261787365135698  0.0000003021310520  8.5200181564866515
  4.2511618233243604  1.4186780369027725  9.9265962312354414
  2.8261850839328897  2.8261871787075097 -0.0001694344751172
  4.2524459988986578  4.2528510657049301  1.4166353322993750
  2.8334680555232454  2.8333497589065608  2.8332634897099123
  4.2546601913878543  4.2544966205586787  4.2544613050921285
  2.8370788175997101  2.8372478096896301  5.6729359083790367
  4.2544617159726013  4.2544968377834023  7.0915368793507696
  2.8332639672135302  2.8333498070533087  8.5127284227015210
  4.2528622908148792  4.2525022777553492  9.9293156857931670
  2.8365042664799023  5.6731023785305670 -0.0000001849811643
  4.2528626931526814  7.0937031050222572  1.4168815352187369
  2.8372625271503442  5.6731029057954316  2.8372625896745016
  4.2544615727637494  7.0917081977054943  4.2546597502726469
  2.8349575370844695  5.6731025768086383  5.6730984544212690
  4.2546597619951916  7.0917084940464070  7.0917355072656960
  2.8372625597731358  5.6731026147922474  8.5089345557032097
  4.2524464115807943  7.0933539842453772  9.9295615059266336
  2.8261852511717338  8.5200181230686187  0.0001700712533077
  4.2511621546489238  9.9275271535127256  1.4196000434349867
  2.8332639186177784  8.5128548067453043  2.8334683744267934
  4.2523867009925853  9.9293611095134047  4.2528662214938349
  2.8370786801178327  8.5089574093823170  5.6732607968470683
  4.2528662064416594  9.9293608074860860  7.0938105203364641
  2.8334684991646557  8.5128552343888568  8.5129326383943784
  4.2514669813892230  9.9267679302813718  9.9275865728368817
  5.6730986155851326  0.0000000032029219  0.0000003928489752
  7.0950349661720669  1.4186779037060746  1.4196003185336814
  5.6730983983118204  0.0000003853128795  2.8368096589390461
  7.0938103362052471  1.4168446316110355  4.2528659315259949
  5.6730985169962693 -0.0000001168506598  5.6730984402243818
  7.0933307011266828  1.4168444197885059  7.0938104730646261
  5.6730984543020648  0.0000002466518769  8.5093867670754797
  7.0947302969158788  1.4194369933485877  9.9275861471013123
  5.6730984981628669  2.8365583909591949  0.0000001081342114
  7.0933344802144598  4.2525024813011170  1.4168811975476203
  5.6732608682065946  2.8372476475190878  2.8370786916165405
  7.0917356348390106  4.2544966917355866  4.2546598916722607
  5.6730984886908145  2.8349637049159413  5.6730984913965941
  7.0915372168681650  4.2544967815918895  7.0917353490210502
  5.6729357556287319  2.8372476564885734  8.5091182182682807
  7.0937510145975891  4.2528512026234973  9.9295618266628765
  5.6730985748133271  5.6731027853484024  0.0000000741561946
  7.0937508117738979  7.0933539888318622  1.4166351992636748
  5.6730986163186339  5.6731024845601912  2.8349573150579768
  7.0915369892713791  7.0917083606873161  4.2544615973200104
  5.6730984872223464  5.6731024453328303  5.6730984258031825
  7.0917355369663300  7.0917081466444847  7.0915368661642528
  5.6730983838529410  5.6731027352414447  8.5112395542584398
  7.0933344619790324  7.0937028513393550  9.9293154727395869
  5.6730986222539910  8.5096465145681819 -0.0000002872017555
  7.0947298649087713  9.9267680694482365  1.4186101420186139
  5.6729362302771893  8.5089574918406257  2.8370783631944567
  7.0933305419215680  9.9293609940663323  4.2523862796199676
  5.6730984003303719  8.5112409075986637  5.6730986052162979
  7.0938101353647687  9.9293609304855348  7.0933303309210709
  5.6732608220732530  8.5089574325947446  8.5091179254655795
  7.0950350588154381  9.9275272000136994  9.9265962289477727
  8.4807193285332669 -0.0000001102260164  0.0000000773407821
  9.9740007513561491  1.3725961333284544  1.3729762942954922
  8.5200181922908005  0.0000001054917499  2.8261782323129201
  9.9275865504410081  1.4194372560148008  4.2514669467878035
  8.5093868765858875  0.0000002927959122  5.6730983941157413
  9.9265970141044306  1.4186777641293160  7.0950349001351620
  8.5200179507690290  0.0000000481353922  8.5200180364645650
  9.9732207012497991  1.3725956238441621  9.9740003761156579
  8.5200118500957007  2.8261871929898770  0.0001698982363927
  9.9267710392164830  4.2513255428929160  1.4187549780545401
  8.5129338045857832  2.8333498982114014  2.8334681544611264
  9.9295616046561896  4.2528508429317480  4.2524459167744331
  8.5091185015114501  2.8372479098022412  5.6732610315521148
  9.9293155805973630  4.2525021575228727  7.0933346728910935
  8.5127289535275459  2.8333496723619578  8.5129327031063173
  9.9274418165023466  4.2513256825483481  9.9267710983132549
  8.5096923878882471  5.6731027515589227  0.0000001175336654
  9.9274418725390081  7.0948798019526276  1.4194257823611562
  8.5089344002825893  5.6731025990446824  2.8372624954896604
  9.9293154887964814  7.0937028887090241  4.2528622522784882
  8.5112398717411430  5.6731027726855556  5.6730986088851036
  9.9295614544556496  7.0933540149977432  7.0937506218424806
  8.5089343281612777  5.6731028171571865  8.5089344886610530
  9.9267710863787535  7.0948795761238186  9.9274419985957945
  8.5200122991093252  8.5200182366422599 -0.0001698751518044
  9.9732206627467370  9.9736090143954303  1.3721964569402889
  8.5127276738421411  8.5128556589681708  2.8332644965013514
  9.9265963434661231  9.9275272205076295  4.2511617756866107
  8.5091185472583124  8.5089571878307577  5.6729356688978587
  9.9275868432509728  9.9267683299231351  7.0947296862421991
  8.5129329308566639  8.5128553077953946  8.5127287947931176
  9.9739999296087589  9.9736091305298764  9.9732201341490256
