Fe
 1.0000000000000000
    11.3485092930384557    0.0000000000000000    0.0000000000000000
     0.0000000000000000   11.3485090711224075    0.0000000000000000
     0.0000000000000000    0.0000000000000000   11.3485091546943657
 Fe 
 128
Cartesian
 -0.0000012790411653  0.0000007656026036 -0.0000001032803030
  1.4185641814927128  1.4185644502723131  1.4185638113853345
 -0.0000003983734540 -0.0000011014504996  2.8371266106502495
  1.4185640674248972  1.4185644229698300  4.2556921239518006
  0.0000002749332244  0.0000002984145587  5.6742552264756139
  1.4185635851267129  1.4185641834786482  7.0928163715585653
  0.0000000290933211 -0.0000013448180101  8.5113826370072392
  1.4185633543332834  1.4185644672345397  9.9299450955338742
 -0.0000007473779801  2.8371269660568044  0.0000001742689539
  1.4185644682946466  4.2556899652644784  1.4185641375885620
  0.0000002679675621  2.8371275871982196  2.8371266269582938
  1.4185640660669074  4.2556912966260914  4.2556900610764972
  0.0000009196877903  2.8371259382729646  5.6742550412698627
  1.4185637589926754  4.2556902650074173  7.0928188831261174
  0.0000008125418454  2.8371279029480152  8.5113822202481426
  1.4185641722630964  4.2556902304462474  9.9299441153191932
 -0.0000010186062302  5.6742561084876240  0.0000000606592604
  1.4185635501256746  7.0928187365909707  1.4185628998980766
 -0.0000002139334775  5.6742547298174486  2.8371275549212926
  1.4185634625591277  7.0928175025752900  4.2556913400985321
 -0.0000003158732481  5.6742554846259976  5.6742542171477446
  1.4185633022530797  7.0928189009070195  7.0928176134185614
 -0.0000000025376738  5.6742542255130557  8.5113815183032333
  1.4185636884744619  7.0928187360599111  9.9299462136416494
  0.0000000423726093  8.5113808688007815  0.0000001936978411
  1.4185635401617800  9.9299443896358870  1.4185650732043855
  0.0000007422382027  8.5113830715292416  2.8371269190145778
  1.4185632067174412  9.9299438590497431  4.2556909009473518
  0.0000011475165701  8.5113813423921663  5.6742545205192680
  1.4185629156339048  9.9299456839232132  7.0928186325194122
  0.0000001302095384  8.5113820649513681  8.5113820272058902
  1.4185633871594652  9.9299451967527705  9.9299438581078245
  2.8371285224221694  0.0000011580088526 -0.0000000733572211
  4.2556910609525174  1.4185628756820461  1.4185630235690925
  2.8371279237270177 -0.0000010682132826  2.8371263946706216
  4.2556913024426573  1.4185631785215542  4.2556915916495557
  2.8371276118005482  0.0000015618997267  5.6742545718539024
  4.2556916290917792  1.4185629248199063  7.0928169100062926
  2.8371280760163589 -0.0000004511411916  8.5113826174631075
  4.2556905046845017  1.4185625015498429  9.9299462776970540
  2.8371268268338929  2.8371273678764366 -0.0000001316554403
  4.2556911414444398  4.2556913768681515  1.4185638415637778
  2.8371263751391917  2.8371276186295327  2.8371264229409423
  4.2556921224582620  4.2556919999988940  4.2556899780323043
  2.8371261867852571  2.8371256710803845  5.6742556060165574
  4.2556915913680164  4.2556918433993340  7.0928195692277392
  2.8371267475339113  2.8371280617105472  8.5113834135593844
  4.2556906949169004  4.2556911131073845  9.9299452056455948
  2.8371275263698226  5.6742550879510594 -0.0000001588646010
  4.2556905488429786  7.0928174324155817  1.4185628471793319
  2.8371271231331296  5.6742542979547128  2.8371271145464072
  4.2556912731270131  7.0928178061557050  4.2556920134223812
  2.8371279037058126  5.6742552987875623  5.6742540672621171
  4.2556913221402386  7.0928178870902192  7.0928171993205558
  2.8371283526177957  5.6742534864298761  8.5113824672948013
  4.2556908590687721  7.0928174675818276  9.9299455615770373
  2.8371275285144852  8.5113806867907691 -0.0000003444716412
  4.2556904520426428  9.9299461429983662  1.4185641864216940
  2.8371269818870237  8.5113835367699728  2.8371264813857717
  4.2556910443209892  9.9299448995615176  4.2556906779711081
  2.8371274253019774  8.5113812080483768  5.6742546730637304
  4.2556911246235893  9.9299456743421430  7.0928183043307627
  2.8371270649461930  8.5113814879419536  8.5113820727181153
  4.2556906264668735  9.9299464574983087  9.9299458070226585
  5.6742550272334569  0.0000006879879780  0.0000004558318541
  7.0928182660004238  1.4185630577623005  1.4185629514446412
  5.6742543102915679 -0.0000007725940166  2.8371268113334556
  7.0928186702248892  1.4185641369788307  4.2556918160647559
  5.6742541328548750  0.0000014264938181  5.6742542519235792
  7.0928182444243557  1.4185640297703821  7.0928179624186507
  5.6742543858893306 -0.0000003539887415  8.5113814335760765
  7.0928179991521150  1.4185629491492904  9.9299462262613307
  5.6742549427920741  2.8371279333519697  0.0000004249124524
  7.0928181796409948  4.2556899429333086  1.4185635778436045
  5.6742545725277012  2.8371283637131683  2.8371272982956981
  7.0928182977880203  4.2556911856531805  4.2556900881066229
  5.6742546953327393  2.8371260470379651  5.6742546504105738
  7.0928181313583982  4.2556907637175101  7.0928194926612536
  5.6742556114908655  2.8371283165492289  8.5113818893042463
  7.0928174266393462  4.2556895622302235  9.9299455683288098
  5.6742538936908282  5.6742552831133315  0.0000006349335060
  7.0928184653271389  7.0928184236386089  1.4185619376702174
  5.6742540591348387  5.6742539938166336  2.8371278091727810
  7.0928179191678957  7.0928180287332525  4.2556909835742633
  5.6742539509877625  5.6742556255486596  5.6742545974168701
  7.0928185631331377  7.0928182205823784  7.0928179722092146
  5.6742537220822902  5.6742538302403620  8.5113806609057328
  7.0928180581909581  7.0928188773210898  9.9299469133268499
  5.6742548851293204  8.5113802685136459  0.0000006664670314
  7.0928185670865256  9.9299459886860451  1.4185640861515332
  5.6742547584858141  8.5113825857511518  2.8371277846510963
  7.0928189676735292  9.9299460730363798  4.2556903599981508
  5.6742538740605362  8.5113807523738121  5.6742542624088310
  7.0928183366129574  9.9299447315051506  7.0928193952198164
  5.6742549568407252  8.5113826454645682  8.5113810583019571
  7.0928185121493383  9.9299462975654027  9.9299438287829069
  8.5113818134747099  0.0000002588712443 -0.0000000400691039
  9.9299474514086210  1.4185638603860511  1.4185633079254494
  8.5113807762907392 -0.0000014029716991  2.8371274721581301
  9.9299460977073952  1.4185640280196312  4.2556921423605907
  8.5113821007889303  0.0000002726041782  5.6742546121042174
  9.9299445184499664  1.4185639844063875  7.0928175002111322
  8.5113817017368714 -0.0000006585125592  8.5113827684958618
  9.9299462971119166  1.4185630429301443  9.9299453708238925
  8.5113816127332615  2.8371269143774676 -0.0000004631460763
  9.9299456116152189  4.2556904635708745  1.4185637380616629
  8.5113813415580442  2.8371280791560811  2.8371272455479288
  9.9299450371404347  4.2556919430104720  4.2556902361541953
  8.5113815588325110  2.8371262160282580  5.6742547086950763
  9.9299448089784814  4.2556911696394231  7.0928191062365471
  8.5113821204379843  2.8371276340424640  8.5113811435488298
  9.9299467720643779  4.2556910723709596  9.9299457208660851
  8.5113818722003813  5.6742554955591364  0.0000001352034769
  9.9299469309278035  7.0928173707924200  1.4185621614413622
  8.5113820644885312  5.6742540888039894  2.8371287472364575
  9.9299458075320697  7.0928169285820575  4.2556915160204909
  8.5113833258932559  5.6742548058315840  5.6742544725990030
  9.9299455075525831  7.0928178936916826  7.0928180451185812
  8.5113826237560417  5.6742544051404131  8.5113804419207106
  9.9299459771760095  7.0928172470622552  9.9299470920540838
  8.5113812687244721  8.5113815096225487  0.0000003109210726
  9.9299464590481339  9.9299466669776741  1.4185637032931626
  8.5113812106003213  8.5113816955424433  2.8371280378768828
  9.9299446226494439  9.9299451658184825  4.2556900171161436
  8.5113814806138102  8.5113813849464091  5.6742552772145443
  9.9299460368751280  9.9299455309958127  7.0928188439842463
  8.5113811143144922  8.5113830608488925  8.5113803396179435
  9.9299457341406203  9.9299453937534086  9.9299462435190513
