Fe
 1.0000000000000000
    11.3485092930384557    0.0000000000000000    0.0000000000000000
     0.0000000000000000    8.0246078774660443    0.0000000000000000
     0.0000000000000000    0.0000000000000000   78.1168874179637100
 Fe 
 320
Cartesian
  0.0000000000000000  2.0061519693665111 20.0000000000000000
  2.8371273232596139  2.0061519693665111 20.0000000000000000
  5.6742546465192278  2.0061519693665111 20.0000000000000000
  8.5113819697788422  2.0061519693665111 20.0000000000000000
  1.4185636616298070  4.0123039387330222 20.0000000000000000
  4.2556909848894211  4.0123039387330222 20.0000000000000000
  7.0928183081490346  4.0123039387330222 20.0000000000000000
  9.9299456314086481  4.0123039387330222 20.0000000000000000
  0.0000000000000000  6.0184559080995328 20.0000000000000000
  2.8371273232596139  6.0184559080995328 20.0000000000000000
  5.6742546465192278  6.0184559080995328 20.0000000000000000
  8.5113819697788422  6.0184559080995328 20.0000000000000000
  1.4185636616298070  8.0246078774660443 20.0000000000000000
  4.2556909848894211  8.0246078774660443 20.0000000000000000
  7.0928183081490346  8.0246078774660443 20.0000000000000000
  9.9299456314086481  8.0246078774660443 20.0000000000000000
  0.0000000000000000  0.0000000000000000 22.0061519693665097
  2.8371273232596139  0.0000000000000000 22.0061519693665097
  5.6742546465192278  0.0000000000000000 22.0061519693665097
  8.5113819697788422  0.0000000000000000 22.0061519693665097
  1.4185636616298070  2.0061519693665111 22.0061519693665097
  4.2556909848894211  2.0061519693665111 22.0061519693665097
  7.0928183081490346  2.0061519693665111 22.0061519693665097
  9.9299456314086481  2.0061519693665111 22.0061519693665097
  0.0000000000000000  4.0123039387330222 22.0061519693665097
  2.8371273232596139  4.0123039387330222 22.0061519693665097
  5.6742546465192278  4.0123039387330222 22.0061519693665097
  8.5113819697788422  4.0123039387330222 22.0061519693665097
  1.4185636616298070  6.0184559080995328 22.0061519693665097
  4.2556909848894211  6.0184559080995328 22.0061519693665097
  7.0928183081490346  6.0184559080995328 22.0061519693665097
  9.9299456314086481  6.0184559080995328 22.0061519693665097
  0.0000000000000000  2.0061519693665111 24.0123039387330230
  2.8371273232596139  2.0061519693665111 24.0123039387330230
  5.6742546465192278  2.0061519693665111 24.0123039387330230
  8.5113819697788422  2.0061519693665111 24.0123039387330230
  1.4185636616298070  4.0123039387330222 24.0123039387330230
  4.2556909848894211  4.0123039387330222 24.0123039387330230
  7.0928183081490346  4.0123039387330222 24.0123039387330230
  9.9299456314086481  4.0123039387330222 24.0123039387330230
  0.0000000000000000  6.0184559080995328 24.0123039387330230
  2.8371273232596139  6.0184559080995328 24.0123039387330230
  5.6742546465192278  6.0184559080995328 24.0123039387330230
  8.5113819697788422  6.0184559080995328 24.0123039387330230
  1.4185636616298070  8.0246078774660443 24.0123039387330230
  4.2556909848894211  8.0246078774660443 24.0123039387330230
  7.0928183081490346  8.0246078774660443 24.0123039387330230
  9.9299456314086481  8.0246078774660443 24.0123039387330230
  0.0000000000000000  0.0000000000000000 26.0184559080995328
  2.8371273232596139  0.0000000000000000 26.0184559080995328
  5.6742546465192278  0.0000000000000000 26.0184559080995328
  8.5113819697788422  0.0000000000000000 26.0184559080995328
  1.4185636616298070  2.0061519693665111 26.0184559080995328
  4.2556909848894211  2.0061519693665111 26.0184559080995328
  7.0928183081490346  2.0061519693665111 26.0184559080995328
  9.9299456314086481  2.0061519693665111 26.0184559080995328
  0.0000000000000000  4.0123039387330222 26.0184559080995328
  2.8371273232596139  4.0123039387330222 26.0184559080995328
  5.6742546465192278  4.0123039387330222 26.0184559080995328
  8.5113819697788422  4.0123039387330222 26.0184559080995328
  1.4185636616298070  6.0184559080995328 26.0184559080995328
  4.2556909848894211  6.0184559080995328 26.0184559080995328
  7.0928183081490346  6.0184559080995328 26.0184559080995328
  9.9299456314086481  6.0184559080995328 26.0184559080995328
  0.0000000000000000  2.0061519693665111 28.0246078774660461
  2.8371273232596139  2.0061519693665111 28.0246078774660461
  5.6742546465192278  2.0061519693665111 28.0246078774660461
  8.5113819697788422  2.0061519693665111 28.0246078774660461
  1.4185636616298070  4.0123039387330222 28.0246078774660461
  4.2556909848894211  4.0123039387330222 28.0246078774660461
  7.0928183081490346  4.0123039387330222 28.0246078774660461
  9.9299456314086481  4.0123039387330222 28.0246078774660461
  0.0000000000000000  6.0184559080995328 28.0246078774660461
  2.8371273232596139  6.0184559080995328 28.0246078774660461
  5.6742546465192278  6.0184559080995328 28.0246078774660461
  8.5113819697788422  6.0184559080995328 28.0246078774660461
  1.4185636616298070  8.0246078774660443 28.0246078774660461
  4.2556909848894211  8.0246078774660443 28.0246078774660461
  7.0928183081490346  8.0246078774660443 28.0246078774660461
  9.9299456314086481  8.0246078774660443 28.0246078774660461
  0.0000000000000000  0.0000000000000000 30.0307598468325558
  2.8371273232596139  0.0000000000000000 30.0307598468325558
  5.6742546465192278  0.0000000000000000 30.0307598468325558
  8.5113819697788422  0.0000000000000000 30.0307598468325558
  1.4185636616298070  2.0061519693665111 30.0307598468325558
  4.2556909848894211  2.0061519693665111 30.0307598468325558
  7.0928183081490346  2.0061519693665111 30.0307598468325558
  9.9299456314086481  2.0061519693665111 30.0307598468325558
  0.0000000000000000  4.0123039387330222 30.0307598468325558
  2.8371273232596139  4.0123039387330222 30.0307598468325558
  5.6742546465192278  4.0123039387330222 30.0307598468325558
  8.5113819697788422  4.0123039387330222 30.0307598468325558
  1.4185636616298070  6.0184559080995328 30.0307598468325558
  4.2556909848894211  6.0184559080995328 30.0307598468325558
  7.0928183081490346  6.0184559080995328 30.0307598468325558
  9.9299456314086481  6.0184559080995328 30.0307598468325558
  0.0000000000000000  2.0061519693665111 32.0369118161990656
  2.8371273232596139  2.0061519693665111 32.0369118161990656
  5.6742546465192278  2.0061519693665111 32.0369118161990656
  8.5113819697788422  2.0061519693665111 32.0369118161990656
  1.4185636616298070  4.0123039387330222 32.0369118161990656
  4.2556909848894211  4.0123039387330222 32.0369118161990656
  7.0928183081490346  4.0123039387330222 32.0369118161990656
  9.9299456314086481  4.0123039387330222 32.0369118161990656
  0.0000000000000000  6.0184559080995328 32.0369118161990656
  2.8371273232596139  6.0184559080995328 32.0369118161990656
  5.6742546465192278  6.0184559080995328 32.0369118161990656
  8.5113819697788422  6.0184559080995328 32.0369118161990656
  1.4185636616298070  8.0246078774660443 32.0369118161990656
  4.2556909848894211  8.0246078774660443 32.0369118161990656
  7.0928183081490346  8.0246078774660443 32.0369118161990656
  9.9299456314086481  8.0246078774660443 32.0369118161990656
  0.0000000000000000  0.0000000000000000 34.0430637855655789
  2.8371273232596139  0.0000000000000000 34.0430637855655789
  5.6742546465192278  0.0000000000000000 34.0430637855655789
  8.5113819697788422  0.0000000000000000 34.0430637855655789
  1.4185636616298070  2.0061519693665111 34.0430637855655789
  4.2556909848894211  2.0061519693665111 34.0430637855655789
  7.0928183081490346  2.0061519693665111 34.0430637855655789
  9.9299456314086481  2.0061519693665111 34.0430637855655789
  0.0000000000000000  4.0123039387330222 34.0430637855655789
  2.8371273232596139  4.0123039387330222 34.0430637855655789
  5.6742546465192278  4.0123039387330222 34.0430637855655789
  8.5113819697788422  4.0123039387330222 34.0430637855655789
  1.4185636616298070  6.0184559080995328 34.0430637855655789
  4.2556909848894211  6.0184559080995328 34.0430637855655789
  7.0928183081490346  6.0184559080995328 34.0430637855655789
  9.9299456314086481  6.0184559080995328 34.0430637855655789
  0.0000000000000000  2.0061519693665111 36.0492157549320922
  2.8371273232596139  2.0061519693665111 36.0492157549320922
  5.6742546465192278  2.0061519693665111 36.0492157549320922
  8.5113819697788422  2.0061519693665111 36.0492157549320922
  1.4185636616298070  4.0123039387330222 36.0492157549320922
  4.2556909848894211  4.0123039387330222 36.0492157549320922
  7.0928183081490346  4.0123039387330222 36.0492157549320922
  9.9299456314086481  4.0123039387330222 36.0492157549320922
  0.0000000000000000  6.0184559080995328 36.0492157549320922
  2.8371273232596139  6.0184559080995328 36.0492157549320922
  5.6742546465192278  6.0184559080995328 36.0492157549320922
  8.5113819697788422  6.0184559080995328 36.0492157549320922
  1.4185636616298070  8.0246078774660443 36.0492157549320922
  4.2556909848894211  8.0246078774660443 36.0492157549320922
  7.0928183081490346  8.0246078774660443 36.0492157549320922
  9.9299456314086481  8.0246078774660443 36.0492157549320922
  0.0000000000000000  0.0000000000000000 38.0553677242985984
  2.8371273232596139  0.0000000000000000 38.0553677242985984
  5.6742546465192278  0.0000000000000000 38.0553677242985984
  8.5113819697788422  0.0000000000000000 38.0553677242985984
  1.4185636616298070  2.0061519693665111 38.0553677242985984
  4.2556909848894211  2.0061519693665111 38.0553677242985984
  7.0928183081490346  2.0061519693665111 38.0553677242985984
  9.9299456314086481  2.0061519693665111 38.0553677242985984
  0.0000000000000000  4.0123039387330222 38.0553677242985984
  2.8371273232596139  4.0123039387330222 38.0553677242985984
  5.6742546465192278  4.0123039387330222 38.0553677242985984
  8.5113819697788422  4.0123039387330222 38.0553677242985984
  1.4185636616298070  6.0184559080995328 38.0553677242985984
  4.2556909848894211  6.0184559080995328 38.0553677242985984
  7.0928183081490346  6.0184559080995328 38.0553677242985984
  9.9299456314086481  6.0184559080995328 38.0553677242985984
  0.0000000000000000  2.0061519693665111 40.0615196936651117
  2.8371273232596139  2.0061519693665111 40.0615196936651117
  5.6742546465192278  2.0061519693665111 40.0615196936651117
  8.5113819697788422  2.0061519693665111 40.0615196936651117
  1.4185636616298070  4.0123039387330222 40.0615196936651117
  4.2556909848894211  4.0123039387330222 40.0615196936651117
  7.0928183081490346  4.0123039387330222 40.0615196936651117
  9.9299456314086481  4.0123039387330222 40.0615196936651117
  0.0000000000000000  6.0184559080995328 40.0615196936651117
  2.8371273232596139  6.0184559080995328 40.0615196936651117
  5.6742546465192278  6.0184559080995328 40.0615196936651117
  8.5113819697788422  6.0184559080995328 40.0615196936651117
  1.4185636616298070  8.0246078774660443 40.0615196936651117
  4.2556909848894211  8.0246078774660443 40.0615196936651117
  7.0928183081490346  8.0246078774660443 40.0615196936651117
  9.9299456314086481  8.0246078774660443 40.0615196936651117
  0.0000000000000000  0.0000000000000000 42.0676716630316179
  2.8371273232596139  0.0000000000000000 42.0676716630316179
  5.6742546465192278  0.0000000000000000 42.0676716630316179
  8.5113819697788422  0.0000000000000000 42.0676716630316179
  1.4185636616298070  2.0061519693665111 42.0676716630316179
  4.2556909848894211  2.0061519693665111 42.0676716630316179
  7.0928183081490346  2.0061519693665111 42.0676716630316179
  9.9299456314086481  2.0061519693665111 42.0676716630316179
  0.0000000000000000  4.0123039387330222 42.0676716630316179
  2.8371273232596139  4.0123039387330222 42.0676716630316179
  5.6742546465192278  4.0123039387330222 42.0676716630316179
  8.5113819697788422  4.0123039387330222 42.0676716630316179
  1.4185636616298070  6.0184559080995328 42.0676716630316179
  4.2556909848894211  6.0184559080995328 42.0676716630316179
  7.0928183081490346  6.0184559080995328 42.0676716630316179
  9.9299456314086481  6.0184559080995328 42.0676716630316179
  0.0000000000000000  2.0061519693665111 44.0738236323981312
  2.8371273232596139  2.0061519693665111 44.0738236323981312
  5.6742546465192278  2.0061519693665111 44.0738236323981312
  8.5113819697788422  2.0061519693665111 44.0738236323981312
  1.4185636616298070  4.0123039387330222 44.0738236323981312
  4.2556909848894211  4.0123039387330222 44.0738236323981312
  7.0928183081490346  4.0123039387330222 44.0738236323981312
  9.9299456314086481  4.0123039387330222 44.0738236323981312
  0.0000000000000000  6.0184559080995328 44.0738236323981312
  2.8371273232596139  6.0184559080995328 44.0738236323981312
  5.6742546465192278  6.0184559080995328 44.0738236323981312
  8.5113819697788422  6.0184559080995328 44.0738236323981312
  1.4185636616298070  8.0246078774660443 44.0738236323981312
  4.2556909848894211  8.0246078774660443 44.0738236323981312
  7.0928183081490346  8.0246078774660443 44.0738236323981312
  9.9299456314086481  8.0246078774660443 44.0738236323981312
  0.0000000000000000  0.0000000000000000 46.0799756017646445
  2.8371273232596139  0.0000000000000000 46.0799756017646445
  5.6742546465192278  0.0000000000000000 46.0799756017646445
  8.5113819697788422  0.0000000000000000 46.0799756017646445
  1.4185636616298070  2.0061519693665111 46.0799756017646445
  4.2556909848894211  2.0061519693665111 46.0799756017646445
  7.0928183081490346  2.0061519693665111 46.0799756017646445
  9.9299456314086481  2.0061519693665111 46.0799756017646445
  0.0000000000000000  4.0123039387330222 46.0799756017646445
  2.8371273232596139  4.0123039387330222 46.0799756017646445
  5.6742546465192278  4.0123039387330222 46.0799756017646445
  8.5113819697788422  4.0123039387330222 46.0799756017646445
  1.4185636616298070  6.0184559080995328 46.0799756017646445
  4.2556909848894211  6.0184559080995328 46.0799756017646445
  7.0928183081490346  6.0184559080995328 46.0799756017646445
  9.9299456314086481  6.0184559080995328 46.0799756017646445
  0.0000000000000000  2.0061519693665111 48.0861275711311578
  2.8371273232596139  2.0061519693665111 48.0861275711311578
  5.6742546465192278  2.0061519693665111 48.0861275711311578
  8.5113819697788422  2.0061519693665111 48.0861275711311578
  1.4185636616298070  4.0123039387330222 48.0861275711311578
  4.2556909848894211  4.0123039387330222 48.0861275711311578
  7.0928183081490346  4.0123039387330222 48.0861275711311578
  9.9299456314086481  4.0123039387330222 48.0861275711311578
  0.0000000000000000  6.0184559080995328 48.0861275711311578
  2.8371273232596139  6.0184559080995328 48.0861275711311578
  5.6742546465192278  6.0184559080995328 48.0861275711311578
  8.5113819697788422  6.0184559080995328 48.0861275711311578
  1.4185636616298070  8.0246078774660443 48.0861275711311578
  4.2556909848894211  8.0246078774660443 48.0861275711311578
  7.0928183081490346  8.0246078774660443 48.0861275711311578
  9.9299456314086481  8.0246078774660443 48.0861275711311578
  0.0000000000000000  0.0000000000000000 50.0922795404976711
  2.8371273232596139  0.0000000000000000 50.0922795404976711
  5.6742546465192278  0.0000000000000000 50.0922795404976711
  8.5113819697788422  0.0000000000000000 50.0922795404976711
  1.4185636616298070  2.0061519693665111 50.0922795404976711
  4.2556909848894211  2.0061519693665111 50.0922795404976711
  7.0928183081490346  2.0061519693665111 50.0922795404976711
  9.9299456314086481  2.0061519693665111 50.0922795404976711
  0.0000000000000000  4.0123039387330222 50.0922795404976711
  2.8371273232596139  4.0123039387330222 50.0922795404976711
  5.6742546465192278  4.0123039387330222 50.0922795404976711
  8.5113819697788422  4.0123039387330222 50.0922795404976711
  1.4185636616298070  6.0184559080995328 50.0922795404976711
  4.2556909848894211  6.0184559080995328 50.0922795404976711
  7.0928183081490346  6.0184559080995328 50.0922795404976711
  9.9299456314086481  6.0184559080995328 50.0922795404976711
  0.0000000000000000  2.0061519693665111 52.0984315098641773
  2.8371273232596139  2.0061519693665111 52.0984315098641773
  5.6742546465192278  2.0061519693665111 52.0984315098641773
  8.5113819697788422  2.0061519693665111 52.0984315098641773
  1.4185636616298070  4.0123039387330222 52.0984315098641773
  4.2556909848894211  4.0123039387330222 52.0984315098641773
  7.0928183081490346  4.0123039387330222 52.0984315098641773
  9.9299456314086481  4.0123039387330222 52.0984315098641773
  0.0000000000000000  6.0184559080995328 52.0984315098641773
  2.8371273232596139  6.0184559080995328 52.0984315098641773
  5.6742546465192278  6.0184559080995328 52.0984315098641773
  8.5113819697788422  6.0184559080995328 52.0984315098641773
  1.4185636616298070  8.0246078774660443 52.0984315098641773
  4.2556909848894211  8.0246078774660443 52.0984315098641773
  7.0928183081490346  8.0246078774660443 52.0984315098641773
  9.9299456314086481  8.0246078774660443 52.0984315098641773
  0.0000000000000000  0.0000000000000000 54.1045834792306906
  2.8371273232596139  0.0000000000000000 54.1045834792306906
  5.6742546465192278  0.0000000000000000 54.1045834792306906
  8.5113819697788422  0.0000000000000000 54.1045834792306906
  1.4185636616298070  2.0061519693665111 54.1045834792306906
  4.2556909848894211  2.0061519693665111 54.1045834792306906
  7.0928183081490346  2.0061519693665111 54.1045834792306906
  9.9299456314086481  2.0061519693665111 54.1045834792306906
  0.0000000000000000  4.0123039387330222 54.1045834792306906
  2.8371273232596139  4.0123039387330222 54.1045834792306906
  5.6742546465192278  4.0123039387330222 54.1045834792306906
  8.5113819697788422  4.0123039387330222 54.1045834792306906
  1.4185636616298070  6.0184559080995328 54.1045834792306906
  4.2556909848894211  6.0184559080995328 54.1045834792306906
  7.0928183081490346  6.0184559080995328 54.1045834792306906
  9.9299456314086481  6.0184559080995328 54.1045834792306906
  0.0000000000000000  2.0061519693665111 56.1107354485971968
  2.8371273232596139  2.0061519693665111 56.1107354485971968
  5.6742546465192278  2.0061519693665111 56.1107354485971968
  8.5113819697788422  2.0061519693665111 56.1107354485971968
  1.4185636616298070  4.0123039387330222 56.1107354485971968
  4.2556909848894211  4.0123039387330222 56.1107354485971968
  7.0928183081490346  4.0123039387330222 56.1107354485971968
  9.9299456314086481  4.0123039387330222 56.1107354485971968
  0.0000000000000000  6.0184559080995328 56.1107354485971968
  2.8371273232596139  6.0184559080995328 56.1107354485971968
  5.6742546465192278  6.0184559080995328 56.1107354485971968
  8.5113819697788422  6.0184559080995328 56.1107354485971968
  1.4185636616298070  8.0246078774660443 56.1107354485971968
  4.2556909848894211  8.0246078774660443 56.1107354485971968
  7.0928183081490346  8.0246078774660443 56.1107354485971968
  9.9299456314086481  8.0246078774660443 56.1107354485971968
  0.0000000000000000  0.0000000000000000 58.1168874179637100
  2.8371273232596139  0.0000000000000000 58.1168874179637100
  5.6742546465192278  0.0000000000000000 58.1168874179637100
  8.5113819697788422  0.0000000000000000 58.1168874179637100
  1.4185636616298070  2.0061519693665111 58.1168874179637100
  4.2556909848894211  2.0061519693665111 58.1168874179637100
  7.0928183081490346  2.0061519693665111 58.1168874179637100
  9.9299456314086481  2.0061519693665111 58.1168874179637100
  0.0000000000000000  4.0123039387330222 58.1168874179637100
  2.8371273232596139  4.0123039387330222 58.1168874179637100
  5.6742546465192278  4.0123039387330222 58.1168874179637100
  8.5113819697788422  4.0123039387330222 58.1168874179637100
  1.4185636616298070  6.0184559080995328 58.1168874179637100
  4.2556909848894211  6.0184559080995328 58.1168874179637100
  7.0928183081490346  6.0184559080995328 58.1168874179637100
  9.9299456314086481  6.0184559080995328 58.1168874179637100
