Fe
 1.0000000000000000
    16.0492157549320886    0.0000000000000000    0.0000000000000000
     0.0000000000000000   13.8990285545886358    0.0000000000000000
     0.0000000000000000    0.0000000000000000   55.5611541261872190
 Fe 
 320
Cartesian
  0.0000000000000000  2.3165047590981058 20.0000000000000000
  4.0123039387330222  2.3165047590981058 20.0000000000000000
  8.0246078774660443  2.3165047590981058 20.0000000000000000
 12.0369118161990656  2.3165047590981058 20.0000000000000000
  2.0061519693665111  5.7912618977452643 20.0000000000000000
  6.0184559080995328  5.7912618977452643 20.0000000000000000
 10.0307598468325558  5.7912618977452643 20.0000000000000000
 14.0430637855655771  5.7912618977452643 20.0000000000000000
  0.0000000000000000  9.2660190363924233 20.0000000000000000
  4.0123039387330222  9.2660190363924233 20.0000000000000000
  8.0246078774660443  9.2660190363924233 20.0000000000000000
 12.0369118161990656  9.2660190363924233 20.0000000000000000
  2.0061519693665111 12.7407761750395832 20.0000000000000000
  6.0184559080995328 12.7407761750395832 20.0000000000000000
 10.0307598468325558 12.7407761750395832 20.0000000000000000
 14.0430637855655771 12.7407761750395832 20.0000000000000000
  0.0000000000000000  0.0000000000000000 20.8190081119045907
  4.0123039387330222  0.0000000000000000 20.8190081119045907
  8.0246078774660443  0.0000000000000000 20.8190081119045907
 12.0369118161990656  0.0000000000000000 20.8190081119045907
  2.0061519693665111  3.4747571386471590 20.8190081119045907
  6.0184559080995328  3.4747571386471590 20.8190081119045907
 10.0307598468325558  3.4747571386471590 20.8190081119045907
 14.0430637855655771  3.4747571386471590 20.8190081119045907
  0.0000000000000000  6.9495142772943179 20.8190081119045907
  4.0123039387330222  6.9495142772943179 20.8190081119045907
  8.0246078774660443  6.9495142772943179 20.8190081119045907
 12.0369118161990656  6.9495142772943179 20.8190081119045907
  2.0061519693665111 10.4242714159414760 20.8190081119045907
  6.0184559080995328 10.4242714159414760 20.8190081119045907
 10.0307598468325558 10.4242714159414760 20.8190081119045907
 14.0430637855655771 10.4242714159414760 20.8190081119045907
  2.0061519693665111  1.1582523795490529 21.6380162238091813
  6.0184559080995328  1.1582523795490529 21.6380162238091813
 10.0307598468325558  1.1582523795490529 21.6380162238091813
 14.0430637855655771  1.1582523795490529 21.6380162238091813
  0.0000000000000000  4.6330095181962117 21.6380162238091813
  4.0123039387330222  4.6330095181962117 21.6380162238091813
  8.0246078774660443  4.6330095181962117 21.6380162238091813
 12.0369118161990656  4.6330095181962117 21.6380162238091813
  2.0061519693665111  8.1077666568433706 21.6380162238091813
  6.0184559080995328  8.1077666568433706 21.6380162238091813
 10.0307598468325558  8.1077666568433706 21.6380162238091813
 14.0430637855655771  8.1077666568433706 21.6380162238091813
  0.0000000000000000 11.5825237954905305 21.6380162238091813
  4.0123039387330222 11.5825237954905305 21.6380162238091813
  8.0246078774660443 11.5825237954905305 21.6380162238091813
 12.0369118161990656 11.5825237954905305 21.6380162238091813
  0.0000000000000000  2.3165047590981058 22.4570243357137720
  4.0123039387330222  2.3165047590981058 22.4570243357137720
  8.0246078774660443  2.3165047590981058 22.4570243357137720
 12.0369118161990656  2.3165047590981058 22.4570243357137720
  2.0061519693665111  5.7912618977452643 22.4570243357137720
  6.0184559080995328  5.7912618977452643 22.4570243357137720
 10.0307598468325558  5.7912618977452643 22.4570243357137720
 14.0430637855655771  5.7912618977452643 22.4570243357137720
  0.0000000000000000  9.2660190363924233 22.4570243357137720
  4.0123039387330222  9.2660190363924233 22.4570243357137720
  8.0246078774660443  9.2660190363924233 22.4570243357137720
 12.0369118161990656  9.2660190363924233 22.4570243357137720
  2.0061519693665111 12.7407761750395832 22.4570243357137720
  6.0184559080995328 12.7407761750395832 22.4570243357137720
 10.0307598468325558 12.7407761750395832 22.4570243357137720
 14.0430637855655771 12.7407761750395832 22.4570243357137720
  0.0000000000000000  0.0000000000000000 23.2760324476183627
  4.0123039387330222  0.0000000000000000 23.2760324476183627
  8.0246078774660443  0.0000000000000000 23.2760324476183627
 12.0369118161990656  0.0000000000000000 23.2760324476183627
  2.0061519693665111  3.4747571386471590 23.2760324476183627
  6.0184559080995328  3.4747571386471590 23.2760324476183627
 10.0307598468325558  3.4747571386471590 23.2760324476183627
 14.0430637855655771  3.4747571386471590 23.2760324476183627
  0.0000000000000000  6.9495142772943179 23.2760324476183627
  4.0123039387330222  6.9495142772943179 23.2760324476183627
  8.0246078774660443  6.9495142772943179 23.2760324476183627
 12.0369118161990656  6.9495142772943179 23.2760324476183627
  2.0061519693665111 10.4242714159414760 23.2760324476183627
  6.0184559080995328 10.4242714159414760 23.2760324476183627
 10.0307598468325558 10.4242714159414760 23.2760324476183627
 14.0430637855655771 10.4242714159414760 23.2760324476183627
  2.0061519693665111  1.1582523795490529 24.0950405595229498
  6.0184559080995328  1.1582523795490529 24.0950405595229498
 10.0307598468325558  1.1582523795490529 24.0950405595229498
 14.0430637855655771  1.1582523795490529 24.0950405595229498
  0.0000000000000000  4.6330095181962117 24.0950405595229498
  4.0123039387330222  4.6330095181962117 24.0950405595229498
  8.0246078774660443  4.6330095181962117 24.0950405595229498
 12.0369118161990656  4.6330095181962117 24.0950405595229498
  2.0061519693665111  8.1077666568433706 24.0950405595229498
  6.0184559080995328  8.1077666568433706 24.0950405595229498
 10.0307598468325558  8.1077666568433706 24.0950405595229498
 14.0430637855655771  8.1077666568433706 24.0950405595229498
  0.0000000000000000 11.5825237954905305 24.0950405595229498
  4.0123039387330222 11.5825237954905305 24.0950405595229498
  8.0246078774660443 11.5825237954905305 24.0950405595229498
 12.0369118161990656 11.5825237954905305 24.0950405595229498
  0.0000000000000000  2.3165047590981058 24.9140486714275440
  4.0123039387330222  2.3165047590981058 24.9140486714275440
  8.0246078774660443  2.3165047590981058 24.9140486714275440
 12.0369118161990656  2.3165047590981058 24.9140486714275440
  2.0061519693665111  5.7912618977452643 24.9140486714275440
  6.0184559080995328  5.7912618977452643 24.9140486714275440
 10.0307598468325558  5.7912618977452643 24.9140486714275440
 14.0430637855655771  5.7912618977452643 24.9140486714275440
  0.0000000000000000  9.2660190363924233 24.9140486714275440
  4.0123039387330222  9.2660190363924233 24.9140486714275440
  8.0246078774660443  9.2660190363924233 24.9140486714275440
 12.0369118161990656  9.2660190363924233 24.9140486714275440
  2.0061519693665111 12.7407761750395832 24.9140486714275440
  6.0184559080995328 12.7407761750395832 24.9140486714275440
 10.0307598468325558 12.7407761750395832 24.9140486714275440
 14.0430637855655771 12.7407761750395832 24.9140486714275440
  0.0000000000000000  0.0000000000000000 25.7330567833321311
  4.0123039387330222  0.0000000000000000 25.7330567833321311
  8.0246078774660443  0.0000000000000000 25.7330567833321311
 12.0369118161990656  0.0000000000000000 25.7330567833321311
  2.0061519693665111  3.4747571386471590 25.7330567833321311
  6.0184559080995328  3.4747571386471590 25.7330567833321311
 10.0307598468325558  3.4747571386471590 25.7330567833321311
 14.0430637855655771  3.4747571386471590 25.7330567833321311
  0.0000000000000000  6.9495142772943179 25.7330567833321311
  4.0123039387330222  6.9495142772943179 25.7330567833321311
  8.0246078774660443  6.9495142772943179 25.7330567833321311
 12.0369118161990656  6.9495142772943179 25.7330567833321311
  2.0061519693665111 10.4242714159414760 25.7330567833321311
  6.0184559080995328 10.4242714159414760 25.7330567833321311
 10.0307598468325558 10.4242714159414760 25.7330567833321311
 14.0430637855655771 10.4242714159414760 25.7330567833321311
  2.0061519693665111  1.1582523795490529 26.5520648952367218
  6.0184559080995328  1.1582523795490529 26.5520648952367218
 10.0307598468325558  1.1582523795490529 26.5520648952367218
 14.0430637855655771  1.1582523795490529 26.5520648952367218
  0.0000000000000000  4.6330095181962117 26.5520648952367218
  4.0123039387330222  4.6330095181962117 26.5520648952367218
  8.0246078774660443  4.6330095181962117 26.5520648952367218
 12.0369118161990656  4.6330095181962117 26.5520648952367218
  2.0061519693665111  8.1077666568433706 26.5520648952367218
  6.0184559080995328  8.1077666568433706 26.5520648952367218
 10.0307598468325558  8.1077666568433706 26.5520648952367218
 14.0430637855655771  8.1077666568433706 26.5520648952367218
  0.0000000000000000 11.5825237954905305 26.5520648952367218
  4.0123039387330222 11.5825237954905305 26.5520648952367218
  8.0246078774660443 11.5825237954905305 26.5520648952367218
 12.0369118161990656 11.5825237954905305 26.5520648952367218
  0.0000000000000000  2.3165047590981058 27.3710730071413124
  4.0123039387330222  2.3165047590981058 27.3710730071413124
  8.0246078774660443  2.3165047590981058 27.3710730071413124
 12.0369118161990656  2.3165047590981058 27.3710730071413124
  2.0061519693665111  5.7912618977452643 27.3710730071413124
  6.0184559080995328  5.7912618977452643 27.3710730071413124
 10.0307598468325558  5.7912618977452643 27.3710730071413124
 14.0430637855655771  5.7912618977452643 27.3710730071413124
  0.0000000000000000  9.2660190363924233 27.3710730071413124
  4.0123039387330222  9.2660190363924233 27.3710730071413124
  8.0246078774660443  9.2660190363924233 27.3710730071413124
 12.0369118161990656  9.2660190363924233 27.3710730071413124
  2.0061519693665111 12.7407761750395832 27.3710730071413124
  6.0184559080995328 12.7407761750395832 27.3710730071413124
 10.0307598468325558 12.7407761750395832 27.3710730071413124
 14.0430637855655771 12.7407761750395832 27.3710730071413124
  0.0000000000000000  0.0000000000000000 28.1900811190459031
  4.0123039387330222  0.0000000000000000 28.1900811190459031
  8.0246078774660443  0.0000000000000000 28.1900811190459031
 12.0369118161990656  0.0000000000000000 28.1900811190459031
  2.0061519693665111  3.4747571386471590 28.1900811190459031
  6.0184559080995328  3.4747571386471590 28.1900811190459031
 10.0307598468325558  3.4747571386471590 28.1900811190459031
 14.0430637855655771  3.4747571386471590 28.1900811190459031
  0.0000000000000000  6.9495142772943179 28.1900811190459031
  4.0123039387330222  6.9495142772943179 28.1900811190459031
  8.0246078774660443  6.9495142772943179 28.1900811190459031
 12.0369118161990656  6.9495142772943179 28.1900811190459031
  2.0061519693665111 10.4242714159414760 28.1900811190459031
  6.0184559080995328 10.4242714159414760 28.1900811190459031
 10.0307598468325558 10.4242714159414760 28.1900811190459031
 14.0430637855655771 10.4242714159414760 28.1900811190459031
  2.0061519693665111  1.1582523795490529 29.0090892309504937
  6.0184559080995328  1.1582523795490529 29.0090892309504937
 10.0307598468325558  1.1582523795490529 29.0090892309504937
 14.0430637855655771  1.1582523795490529 29.0090892309504937
  0.0000000000000000  4.6330095181962117 29.0090892309504937
  4.0123039387330222  4.6330095181962117 29.0090892309504937
  8.0246078774660443  4.6330095181962117 29.0090892309504937
 12.0369118161990656  4.6330095181962117 29.0090892309504937
  2.0061519693665111  8.1077666568433706 29.0090892309504937
  6.0184559080995328  8.1077666568433706 29.0090892309504937
 10.0307598468325558  8.1077666568433706 29.0090892309504937
 14.0430637855655771  8.1077666568433706 29.0090892309504937
  0.0000000000000000 11.5825237954905305 29.0090892309504937
  4.0123039387330222 11.5825237954905305 29.0090892309504937
  8.0246078774660443 11.5825237954905305 29.0090892309504937
 12.0369118161990656 11.5825237954905305 29.0090892309504937
  0.0000000000000000  2.3165047590981058 29.8280973428550844
  4.0123039387330222  2.3165047590981058 29.8280973428550844
  8.0246078774660443  2.3165047590981058 29.8280973428550844
 12.0369118161990656  2.3165047590981058 29.8280973428550844
  2.0061519693665111  5.7912618977452643 29.8280973428550844
  6.0184559080995328  5.7912618977452643 29.8280973428550844
 10.0307598468325558  5.7912618977452643 29.8280973428550844
 14.0430637855655771  5.7912618977452643 29.8280973428550844
  0.0000000000000000  9.2660190363924233 29.8280973428550844
  4.0123039387330222  9.2660190363924233 29.8280973428550844
  8.0246078774660443  9.2660190363924233 29.8280973428550844
 12.0369118161990656  9.2660190363924233 29.8280973428550844
  2.0061519693665111 12.7407761750395832 29.8280973428550844
  6.0184559080995328 12.7407761750395832 29.8280973428550844
 10.0307598468325558 12.7407761750395832 29.8280973428550844
 14.0430637855655771 12.7407761750395832 29.8280973428550844
  0.0000000000000000  0.0000000000000000 30.6471054547596751
  4.0123039387330222  0.0000000000000000 30.6471054547596751
  8.0246078774660443  0.0000000000000000 30.6471054547596751
 12.0369118161990656  0.0000000000000000 30.6471054547596751
  2.0061519693665111  3.4747571386471590 30.6471054547596751
  6.0184559080995328  3.4747571386471590 30.6471054547596751
 10.0307598468325558  3.4747571386471590 30.6471054547596751
 14.0430637855655771  3.4747571386471590 30.6471054547596751
  0.0000000000000000  6.9495142772943179 30.6471054547596751
  4.0123039387330222  6.9495142772943179 30.6471054547596751
  8.0246078774660443  6.9495142772943179 30.6471054547596751
 12.0369118161990656  6.9495142772943179 30.6471054547596751
  2.0061519693665111 10.4242714159414760 30.6471054547596751
  6.0184559080995328 10.4242714159414760 30.6471054547596751
 10.0307598468325558 10.4242714159414760 30.6471054547596751
 14.0430637855655771 10.4242714159414760 30.6471054547596751
  2.0061519693665111  1.1582523795490529 31.4661135666642622
  6.0184559080995328  1.1582523795490529 31.4661135666642622
 10.0307598468325558  1.1582523795490529 31.4661135666642622
 14.0430637855655771  1.1582523795490529 31.4661135666642622
  0.0000000000000000  4.6330095181962117 31.4661135666642622
  4.0123039387330222  4.6330095181962117 31.4661135666642622
  8.0246078774660443  4.6330095181962117 31.4661135666642622
 12.0369118161990656  4.6330095181962117 31.4661135666642622
  2.0061519693665111  8.1077666568433706 31.4661135666642622
  6.0184559080995328  8.1077666568433706 31.4661135666642622
 10.0307598468325558  8.1077666568433706 31.4661135666642622
 14.0430637855655771  8.1077666568433706 31.4661135666642622
  0.0000000000000000 11.5825237954905305 31.4661135666642622
  4.0123039387330222 11.5825237954905305 31.4661135666642622
  8.0246078774660443 11.5825237954905305 31.4661135666642622
 12.0369118161990656 11.5825237954905305 31.4661135666642622
  0.0000000000000000  2.3165047590981058 32.2851216785688564
  4.0123039387330222  2.3165047590981058 32.2851216785688564
  8.0246078774660443  2.3165047590981058 32.2851216785688564
 12.0369118161990656  2.3165047590981058 32.2851216785688564
  2.0061519693665111  5.7912618977452643 32.2851216785688564
  6.0184559080995328  5.7912618977452643 32.2851216785688564
 10.0307598468325558  5.7912618977452643 32.2851216785688564
 14.0430637855655771  5.7912618977452643 32.2851216785688564
  0.0000000000000000  9.2660190363924233 32.2851216785688564
  4.0123039387330222  9.2660190363924233 32.2851216785688564
  8.0246078774660443  9.2660190363924233 32.2851216785688564
 12.0369118161990656  9.2660190363924233 32.2851216785688564
  2.0061519693665111 12.7407761750395832 32.2851216785688564
  6.0184559080995328 12.7407761750395832 32.2851216785688564
 10.0307598468325558 12.7407761750395832 32.2851216785688564
 14.0430637855655771 12.7407761750395832 32.2851216785688564
  0.0000000000000000  0.0000000000000000 33.1041297904734435
  4.0123039387330222  0.0000000000000000 33.1041297904734435
  8.0246078774660443  0.0000000000000000 33.1041297904734435
 12.0369118161990656  0.0000000000000000 33.1041297904734435
  2.0061519693665111  3.4747571386471590 33.1041297904734435
  6.0184559080995328  3.4747571386471590 33.1041297904734435
 10.0307598468325558  3.4747571386471590 33.1041297904734435
 14.0430637855655771  3.4747571386471590 33.1041297904734435
  0.0000000000000000  6.9495142772943179 33.1041297904734435
  4.0123039387330222  6.9495142772943179 33.1041297904734435
  8.0246078774660443  6.9495142772943179 33.1041297904734435
 12.0369118161990656  6.9495142772943179 33.1041297904734435
  2.0061519693665111 10.4242714159414760 33.1041297904734435
  6.0184559080995328 10.4242714159414760 33.1041297904734435
 10.0307598468325558 10.4242714159414760 33.1041297904734435
 14.0430637855655771 10.4242714159414760 33.1041297904734435
  2.0061519693665111  1.1582523795490529 33.9231379023780377
  6.0184559080995328  1.1582523795490529 33.9231379023780377
 10.0307598468325558  1.1582523795490529 33.9231379023780377
 14.0430637855655771  1.1582523795490529 33.9231379023780377
  0.0000000000000000  4.6330095181962117 33.9231379023780377
  4.0123039387330222  4.6330095181962117 33.9231379023780377
  8.0246078774660443  4.6330095181962117 33.9231379023780377
 12.0369118161990656  4.6330095181962117 33.9231379023780377
  2.0061519693665111  8.1077666568433706 33.9231379023780377
  6.0184559080995328  8.1077666568433706 33.9231379023780377
 10.0307598468325558  8.1077666568433706 33.9231379023780377
 14.0430637855655771  8.1077666568433706 33.9231379023780377
  0.0000000000000000 11.5825237954905305 33.9231379023780377
  4.0123039387330222 11.5825237954905305 33.9231379023780377
  8.0246078774660443 11.5825237954905305 33.9231379023780377
 12.0369118161990656 11.5825237954905305 33.9231379023780377
  0.0000000000000000  2.3165047590981058 34.7421460142826248
  4.0123039387330222  2.3165047590981058 34.7421460142826248
  8.0246078774660443  2.3165047590981058 34.7421460142826248
 12.0369118161990656  2.3165047590981058 34.7421460142826248
  2.0061519693665111  5.7912618977452643 34.7421460142826248
  6.0184559080995328  5.7912618977452643 34.7421460142826248
 10.0307598468325558  5.7912618977452643 34.7421460142826248
 14.0430637855655771  5.7912618977452643 34.7421460142826248
  0.0000000000000000  9.2660190363924233 34.7421460142826248
  4.0123039387330222  9.2660190363924233 34.7421460142826248
  8.0246078774660443  9.2660190363924233 34.7421460142826248
 12.0369118161990656  9.2660190363924233 34.7421460142826248
  2.0061519693665111 12.7407761750395832 34.7421460142826248
  6.0184559080995328 12.7407761750395832 34.7421460142826248
 10.0307598468325558 12.7407761750395832 34.7421460142826248
 14.0430637855655771 12.7407761750395832 34.7421460142826248
  0.0000000000000000  0.0000000000000000 35.5611541261872190
  4.0123039387330222  0.0000000000000000 35.5611541261872190
  8.0246078774660443  0.0000000000000000 35.5611541261872190
 12.0369118161990656  0.0000000000000000 35.5611541261872190
  2.0061519693665111  3.4747571386471590 35.5611541261872190
  6.0184559080995328  3.4747571386471590 35.5611541261872190
 10.0307598468325558  3.4747571386471590 35.5611541261872190
 14.0430637855655771  3.4747571386471590 35.5611541261872190
  0.0000000000000000  6.9495142772943179 35.5611541261872190
  4.0123039387330222  6.9495142772943179 35.5611541261872190
  8.0246078774660443  6.9495142772943179 35.5611541261872190
 12.0369118161990656  6.9495142772943179 35.5611541261872190
  2.0061519693665111 10.4242714159414760 35.5611541261872190
  6.0184559080995328 10.4242714159414760 35.5611541261872190
 10.0307598468325558 10.4242714159414760 35.5611541261872190
 14.0430637855655771 10.4242714159414760 35.5611541261872190
