Fe
 1.0000000000000000
    11.3485092930384557    0.0000000000000000    0.0000000000000000
     0.0000000000000000   11.3485092930384557    0.0000000000000000
     0.0000000000000000    0.0000000000000000   66.9527095709663342
 Fe 
 320
Cartesian
  1.4185636616298070  1.4185636616298070 20.0000000000000000
  4.2556909848894211  1.4185636616298070 20.0000000000000000
  7.0928183081490346  1.4185636616298070 20.0000000000000000
  9.9299456314086481  1.4185636616298070 20.0000000000000000
  1.4185636616298070  4.2556909848894211 20.0000000000000000
  4.2556909848894211  4.2556909848894211 20.0000000000000000
  7.0928183081490346  4.2556909848894211 20.0000000000000000
  9.9299456314086481  4.2556909848894211 20.0000000000000000
  1.4185636616298070  7.0928183081490346 20.0000000000000000
  4.2556909848894211  7.0928183081490346 20.0000000000000000
  7.0928183081490346  7.0928183081490346 20.0000000000000000
  9.9299456314086481  7.0928183081490346 20.0000000000000000
  1.4185636616298070  9.9299456314086481 20.0000000000000000
  4.2556909848894211  9.9299456314086481 20.0000000000000000
  7.0928183081490346  9.9299456314086481 20.0000000000000000
  9.9299456314086481  9.9299456314086481 20.0000000000000000
  0.0000000000000000  0.0000000000000000 21.4185636616298076
  2.8371273232596139  0.0000000000000000 21.4185636616298076
  5.6742546465192278  0.0000000000000000 21.4185636616298076
  8.5113819697788422  0.0000000000000000 21.4185636616298076
  0.0000000000000000  2.8371273232596139 21.4185636616298076
  2.8371273232596139  2.8371273232596139 21.4185636616298076
  5.6742546465192278  2.8371273232596139 21.4185636616298076
  8.5113819697788422  2.8371273232596139 21.4185636616298076
  0.0000000000000000  5.6742546465192278 21.4185636616298076
  2.8371273232596139  5.6742546465192278 21.4185636616298076
  5.6742546465192278  5.6742546465192278 21.4185636616298076
  8.5113819697788422  5.6742546465192278 21.4185636616298076
  0.0000000000000000  8.5113819697788422 21.4185636616298076
  2.8371273232596139  8.5113819697788422 21.4185636616298076
  5.6742546465192278  8.5113819697788422 21.4185636616298076
  8.5113819697788422  8.5113819697788422 21.4185636616298076
  1.4185636616298070  1.4185636616298070 22.8371273232596153
  4.2556909848894211  1.4185636616298070 22.8371273232596153
  7.0928183081490346  1.4185636616298070 22.8371273232596153
  9.9299456314086481  1.4185636616298070 22.8371273232596153
  1.4185636616298070  4.2556909848894211 22.8371273232596153
  4.2556909848894211  4.2556909848894211 22.8371273232596153
  7.0928183081490346  4.2556909848894211 22.8371273232596153
  9.9299456314086481  4.2556909848894211 22.8371273232596153
  1.4185636616298070  7.0928183081490346 22.8371273232596153
  4.2556909848894211  7.0928183081490346 22.8371273232596153
  7.0928183081490346  7.0928183081490346 22.8371273232596153
  9.9299456314086481  7.0928183081490346 22.8371273232596153
  1.4185636616298070  9.9299456314086481 22.8371273232596153
  4.2556909848894211  9.9299456314086481 22.8371273232596153
  7.0928183081490346  9.9299456314086481 22.8371273232596153
  9.9299456314086481  9.9299456314086481 22.8371273232596153
  0.0000000000000000  0.0000000000000000 24.2556909848894193
  2.8371273232596139  0.0000000000000000 24.2556909848894193
  5.6742546465192278  0.0000000000000000 24.2556909848894193
  8.5113819697788422  0.0000000000000000 24.2556909848894193
  0.0000000000000000  2.8371273232596139 24.2556909848894193
  2.8371273232596139  2.8371273232596139 24.2556909848894193
  5.6742546465192278  2.8371273232596139 24.2556909848894193
  8.5113819697788422  2.8371273232596139 24.2556909848894193
  0.0000000000000000  5.6742546465192278 24.2556909848894193
  2.8371273232596139  5.6742546465192278 24.2556909848894193
  5.6742546465192278  5.6742546465192278 24.2556909848894193
  8.5113819697788422  5.6742546465192278 24.2556909848894193
  0.0000000000000000  8.5113819697788422 24.2556909848894193
  2.8371273232596139  8.5113819697788422 24.2556909848894193
  5.6742546465192278  8.5113819697788422 24.2556909848894193
  8.5113819697788422  8.5113819697788422 24.2556909848894193
  1.4185636616298070  1.4185636616298070 25.6742546465192270
  4.2556909848894211  1.4185636616298070 25.6742546465192270
  7.0928183081490346  1.4185636616298070 25.6742546465192270
  9.9299456314086481  1.4185636616298070 25.6742546465192270
  1.4185636616298070  4.2556909848894211 25.6742546465192270
  4.2556909848894211  4.2556909848894211 25.6742546465192270
  7.0928183081490346  4.2556909848894211 25.6742546465192270
  9.9299456314086481  4.2556909848894211 25.6742546465192270
  1.4185636616298070  7.0928183081490346 25.6742546465192270
  4.2556909848894211  7.0928183081490346 25.6742546465192270
  7.0928183081490346  7.0928183081490346 25.6742546465192270
  9.9299456314086481  7.0928183081490346 25.6742546465192270
  1.4185636616298070  9.9299456314086481 25.6742546465192270
  4.2556909848894211  9.9299456314086481 25.6742546465192270
  7.0928183081490346  9.9299456314086481 25.6742546465192270
  9.9299456314086481  9.9299456314086481 25.6742546465192270
  0.0000000000000000  0.0000000000000000 27.0928183081490346
  2.8371273232596139  0.0000000000000000 27.0928183081490346
  5.6742546465192278  0.0000000000000000 27.0928183081490346
  8.5113819697788422  0.0000000000000000 27.0928183081490346
  0.0000000000000000  2.8371273232596139 27.0928183081490346
  2.8371273232596139  2.8371273232596139 27.0928183081490346
  5.6742546465192278  2.8371273232596139 27.0928183081490346
  8.5113819697788422  2.8371273232596139 27.0928183081490346
  0.0000000000000000  5.6742546465192278 27.0928183081490346
  2.8371273232596139  5.6742546465192278 27.0928183081490346
  5.6742546465192278  5.6742546465192278 27.0928183081490346
  8.5113819697788422  5.6742546465192278 27.0928183081490346
  0.0000000000000000  8.5113819697788422 27.0928183081490346
  2.8371273232596139  8.5113819697788422 27.0928183081490346
  5.6742546465192278  8.5113819697788422 27.0928183081490346
  8.5113819697788422  8.5113819697788422 27.0928183081490346
  1.4185636616298070  1.4185636616298070 28.5113819697788422
  4.2556909848894211  1.4185636616298070 28.5113819697788422
  7.0928183081490346  1.4185636616298070 28.5113819697788422
  9.9299456314086481  1.4185636616298070 28.5113819697788422
  1.4185636616298070  4.2556909848894211 28.5113819697788422
  4.2556909848894211  4.2556909848894211 28.5113819697788422
  7.0928183081490346  4.2556909848894211 28.5113819697788422
  9.9299456314086481  4.2556909848894211 28.5113819697788422
  1.4185636616298070  7.0928183081490346 28.5113819697788422
  4.2556909848894211  7.0928183081490346 28.5113819697788422
  7.0928183081490346  7.0928183081490346 28.5113819697788422
  9.9299456314086481  7.0928183081490346 28.5113819697788422
  1.4185636616298070  9.9299456314086481 28.5113819697788422
  4.2556909848894211  9.9299456314086481 28.5113819697788422
  7.0928183081490346  9.9299456314086481 28.5113819697788422
  9.9299456314086481  9.9299456314086481 28.5113819697788422
  0.0000000000000000  0.0000000000000000 29.9299456314086498
  2.8371273232596139  0.0000000000000000 29.9299456314086498
  5.6742546465192278  0.0000000000000000 29.9299456314086498
  8.5113819697788422  0.0000000000000000 29.9299456314086498
  0.0000000000000000  2.8371273232596139 29.9299456314086498
  2.8371273232596139  2.8371273232596139 29.9299456314086498
  5.6742546465192278  2.8371273232596139 29.9299456314086498
  8.5113819697788422  2.8371273232596139 29.9299456314086498
  0.0000000000000000  5.6742546465192278 29.9299456314086498
  2.8371273232596139  5.6742546465192278 29.9299456314086498
  5.6742546465192278  5.6742546465192278 29.9299456314086498
  8.5113819697788422  5.6742546465192278 29.9299456314086498
  0.0000000000000000  8.5113819697788422 29.9299456314086498
  2.8371273232596139  8.5113819697788422 29.9299456314086498
  5.6742546465192278  8.5113819697788422 29.9299456314086498
  8.5113819697788422  8.5113819697788422 29.9299456314086498
  1.4185636616298070  1.4185636616298070 31.3485092930384539
  4.2556909848894211  1.4185636616298070 31.3485092930384539
  7.0928183081490346  1.4185636616298070 31.3485092930384539
  9.9299456314086481  1.4185636616298070 31.3485092930384539
  1.4185636616298070  4.2556909848894211 31.3485092930384539
  4.2556909848894211  4.2556909848894211 31.3485092930384539
  7.0928183081490346  4.2556909848894211 31.3485092930384539
  9.9299456314086481  4.2556909848894211 31.3485092930384539
  1.4185636616298070  7.0928183081490346 31.3485092930384539
  4.2556909848894211  7.0928183081490346 31.3485092930384539
  7.0928183081490346  7.0928183081490346 31.3485092930384539
  9.9299456314086481  7.0928183081490346 31.3485092930384539
  1.4185636616298070  9.9299456314086481 31.3485092930384539
  4.2556909848894211  9.9299456314086481 31.3485092930384539
  7.0928183081490346  9.9299456314086481 31.3485092930384539
  9.9299456314086481  9.9299456314086481 31.3485092930384539
  0.0000000000000000  0.0000000000000000 32.7670729546682651
  2.8371273232596139  0.0000000000000000 32.7670729546682651
  5.6742546465192278  0.0000000000000000 32.7670729546682651
  8.5113819697788422  0.0000000000000000 32.7670729546682651
  0.0000000000000000  2.8371273232596139 32.7670729546682651
  2.8371273232596139  2.8371273232596139 32.7670729546682651
  5.6742546465192278  2.8371273232596139 32.7670729546682651
  8.5113819697788422  2.8371273232596139 32.7670729546682651
  0.0000000000000000  5.6742546465192278 32.7670729546682651
  2.8371273232596139  5.6742546465192278 32.7670729546682651
  5.6742546465192278  5.6742546465192278 32.7670729546682651
  8.5113819697788422  5.6742546465192278 32.7670729546682651
  0.0000000000000000  8.5113819697788422 32.7670729546682651
  2.8371273232596139  8.5113819697788422 32.7670729546682651
  5.6742546465192278  8.5113819697788422 32.7670729546682651
  8.5113819697788422  8.5113819697788422 32.7670729546682651
  1.4185636616298070  1.4185636616298070 34.1856366162980692
  4.2556909848894211  1.4185636616298070 34.1856366162980692
  7.0928183081490346  1.4185636616298070 34.1856366162980692
  9.9299456314086481  1.4185636616298070 34.1856366162980692
  1.4185636616298070  4.2556909848894211 34.1856366162980692
  4.2556909848894211  4.2556909848894211 34.1856366162980692
  7.0928183081490346  4.2556909848894211 34.1856366162980692
  9.9299456314086481  4.2556909848894211 34.1856366162980692
  1.4185636616298070  7.0928183081490346 34.1856366162980692
  4.2556909848894211  7.0928183081490346 34.1856366162980692
  7.0928183081490346  7.0928183081490346 34.1856366162980692
  9.9299456314086481  7.0928183081490346 34.1856366162980692
  1.4185636616298070  9.9299456314086481 34.1856366162980692
  4.2556909848894211  9.9299456314086481 34.1856366162980692
  7.0928183081490346  9.9299456314086481 34.1856366162980692
  9.9299456314086481  9.9299456314086481 34.1856366162980692
  0.0000000000000000  0.0000000000000000 35.6042002779278732
  2.8371273232596139  0.0000000000000000 35.6042002779278732
  5.6742546465192278  0.0000000000000000 35.6042002779278732
  8.5113819697788422  0.0000000000000000 35.6042002779278732
  0.0000000000000000  2.8371273232596139 35.6042002779278732
  2.8371273232596139  2.8371273232596139 35.6042002779278732
  5.6742546465192278  2.8371273232596139 35.6042002779278732
  8.5113819697788422  2.8371273232596139 35.6042002779278732
  0.0000000000000000  5.6742546465192278 35.6042002779278732
  2.8371273232596139  5.6742546465192278 35.6042002779278732
  5.6742546465192278  5.6742546465192278 35.6042002779278732
  8.5113819697788422  5.6742546465192278 35.6042002779278732
  0.0000000000000000  8.5113819697788422 35.6042002779278732
  2.8371273232596139  8.5113819697788422 35.6042002779278732
  5.6742546465192278  8.5113819697788422 35.6042002779278732
  8.5113819697788422  8.5113819697788422 35.6042002779278732
  1.4185636616298070  1.4185636616298070 37.0227639395576844
  4.2556909848894211  1.4185636616298070 37.0227639395576844
  7.0928183081490346  1.4185636616298070 37.0227639395576844
  9.9299456314086481  1.4185636616298070 37.0227639395576844
  1.4185636616298070  4.2556909848894211 37.0227639395576844
  4.2556909848894211  4.2556909848894211 37.0227639395576844
  7.0928183081490346  4.2556909848894211 37.0227639395576844
  9.9299456314086481  4.2556909848894211 37.0227639395576844
  1.4185636616298070  7.0928183081490346 37.0227639395576844
  4.2556909848894211  7.0928183081490346 37.0227639395576844
  7.0928183081490346  7.0928183081490346 37.0227639395576844
  9.9299456314086481  7.0928183081490346 37.0227639395576844
  1.4185636616298070  9.9299456314086481 37.0227639395576844
  4.2556909848894211  9.9299456314086481 37.0227639395576844
  7.0928183081490346  9.9299456314086481 37.0227639395576844
  9.9299456314086481  9.9299456314086481 37.0227639395576844
  0.0000000000000000  0.0000000000000000 38.4413276011874956
  2.8371273232596139  0.0000000000000000 38.4413276011874956
  5.6742546465192278  0.0000000000000000 38.4413276011874956
  8.5113819697788422  0.0000000000000000 38.4413276011874956
  0.0000000000000000  2.8371273232596139 38.4413276011874956
  2.8371273232596139  2.8371273232596139 38.4413276011874956
  5.6742546465192278  2.8371273232596139 38.4413276011874956
  8.5113819697788422  2.8371273232596139 38.4413276011874956
  0.0000000000000000  5.6742546465192278 38.4413276011874956
  2.8371273232596139  5.6742546465192278 38.4413276011874956
  5.6742546465192278  5.6742546465192278 38.4413276011874956
  8.5113819697788422  5.6742546465192278 38.4413276011874956
  0.0000000000000000  8.5113819697788422 38.4413276011874956
  2.8371273232596139  8.5113819697788422 38.4413276011874956
  5.6742546465192278  8.5113819697788422 38.4413276011874956
  8.5113819697788422  8.5113819697788422 38.4413276011874956
  1.4185636616298070  1.4185636616298070 39.8598912628172997
  4.2556909848894211  1.4185636616298070 39.8598912628172997
  7.0928183081490346  1.4185636616298070 39.8598912628172997
  9.9299456314086481  1.4185636616298070 39.8598912628172997
  1.4185636616298070  4.2556909848894211 39.8598912628172997
  4.2556909848894211  4.2556909848894211 39.8598912628172997
  7.0928183081490346  4.2556909848894211 39.8598912628172997
  9.9299456314086481  4.2556909848894211 39.8598912628172997
  1.4185636616298070  7.0928183081490346 39.8598912628172997
  4.2556909848894211  7.0928183081490346 39.8598912628172997
  7.0928183081490346  7.0928183081490346 39.8598912628172997
  9.9299456314086481  7.0928183081490346 39.8598912628172997
  1.4185636616298070  9.9299456314086481 39.8598912628172997
  4.2556909848894211  9.9299456314086481 39.8598912628172997
  7.0928183081490346  9.9299456314086481 39.8598912628172997
  9.9299456314086481  9.9299456314086481 39.8598912628172997
  0.0000000000000000  0.0000000000000000 41.2784549244471037
  2.8371273232596139  0.0000000000000000 41.2784549244471037
  5.6742546465192278  0.0000000000000000 41.2784549244471037
  8.5113819697788422  0.0000000000000000 41.2784549244471037
  0.0000000000000000  2.8371273232596139 41.2784549244471037
  2.8371273232596139  2.8371273232596139 41.2784549244471037
  5.6742546465192278  2.8371273232596139 41.2784549244471037
  8.5113819697788422  2.8371273232596139 41.2784549244471037
  0.0000000000000000  5.6742546465192278 41.2784549244471037
  2.8371273232596139  5.6742546465192278 41.2784549244471037
  5.6742546465192278  5.6742546465192278 41.2784549244471037
  8.5113819697788422  5.6742546465192278 41.2784549244471037
  0.0000000000000000  8.5113819697788422 41.2784549244471037
  2.8371273232596139  8.5113819697788422 41.2784549244471037
  5.6742546465192278  8.5113819697788422 41.2784549244471037
  8.5113819697788422  8.5113819697788422 41.2784549244471037
  1.4185636616298070  1.4185636616298070 42.6970185860769078
  4.2556909848894211  1.4185636616298070 42.6970185860769078
  7.0928183081490346  1.4185636616298070 42.6970185860769078
  9.9299456314086481  1.4185636616298070 42.6970185860769078
  1.4185636616298070  4.2556909848894211 42.6970185860769078
  4.2556909848894211  4.2556909848894211 42.6970185860769078
  7.0928183081490346  4.2556909848894211 42.6970185860769078
  9.9299456314086481  4.2556909848894211 42.6970185860769078
  1.4185636616298070  7.0928183081490346 42.6970185860769078
  4.2556909848894211  7.0928183081490346 42.6970185860769078
  7.0928183081490346  7.0928183081490346 42.6970185860769078
  9.9299456314086481  7.0928183081490346 42.6970185860769078
  1.4185636616298070  9.9299456314086481 42.6970185860769078
  4.2556909848894211  9.9299456314086481 42.6970185860769078
  7.0928183081490346  9.9299456314086481 42.6970185860769078
  9.9299456314086481  9.9299456314086481 42.6970185860769078
  0.0000000000000000  0.0000000000000000 44.1155822477067190
  2.8371273232596139  0.0000000000000000 44.1155822477067190
  5.6742546465192278  0.0000000000000000 44.1155822477067190
  8.5113819697788422  0.0000000000000000 44.1155822477067190
  0.0000000000000000  2.8371273232596139 44.1155822477067190
  2.8371273232596139  2.8371273232596139 44.1155822477067190
  5.6742546465192278  2.8371273232596139 44.1155822477067190
  8.5113819697788422  2.8371273232596139 44.1155822477067190
  0.0000000000000000  5.6742546465192278 44.1155822477067190
  2.8371273232596139  5.6742546465192278 44.1155822477067190
  5.6742546465192278  5.6742546465192278 44.1155822477067190
  8.5113819697788422  5.6742546465192278 44.1155822477067190
  0.0000000000000000  8.5113819697788422 44.1155822477067190
  2.8371273232596139  8.5113819697788422 44.1155822477067190
  5.6742546465192278  8.5113819697788422 44.1155822477067190
  8.5113819697788422  8.5113819697788422 44.1155822477067190
  1.4185636616298070  1.4185636616298070 45.5341459093365302
  4.2556909848894211  1.4185636616298070 45.5341459093365302
  7.0928183081490346  1.4185636616298070 45.5341459093365302
  9.9299456314086481  1.4185636616298070 45.5341459093365302
  1.4185636616298070  4.2556909848894211 45.5341459093365302
  4.2556909848894211  4.2556909848894211 45.5341459093365302
  7.0928183081490346  4.2556909848894211 45.5341459093365302
  9.9299456314086481  4.2556909848894211 45.5341459093365302
  1.4185636616298070  7.0928183081490346 45.5341459093365302
  4.2556909848894211  7.0928183081490346 45.5341459093365302
  7.0928183081490346  7.0928183081490346 45.5341459093365302
  9.9299456314086481  7.0928183081490346 45.5341459093365302
  1.4185636616298070  9.9299456314086481 45.5341459093365302
  4.2556909848894211  9.9299456314086481 45.5341459093365302
  7.0928183081490346  9.9299456314086481 45.5341459093365302
  9.9299456314086481  9.9299456314086481 45.5341459093365302
  0.0000000000000000  0.0000000000000000 46.9527095709663342
  2.8371273232596139  0.0000000000000000 46.9527095709663342
  5.6742546465192278  0.0000000000000000 46.9527095709663342
  8.5113819697788422  0.0000000000000000 46.9527095709663342
  0.0000000000000000  2.8371273232596139 46.9527095709663342
  2.8371273232596139  2.8371273232596139 46.9527095709663342
  5.6742546465192278  2.8371273232596139 46.9527095709663342
  8.5113819697788422  2.8371273232596139 46.9527095709663342
  0.0000000000000000  5.6742546465192278 46.9527095709663342
  2.8371273232596139  5.6742546465192278 46.9527095709663342
  5.6742546465192278  5.6742546465192278 46.9527095709663342
  8.5113819697788422  5.6742546465192278 46.9527095709663342
  0.0000000000000000  8.5113819697788422 46.9527095709663342
  2.8371273232596139  8.5113819697788422 46.9527095709663342
  5.6742546465192278  8.5113819697788422 46.9527095709663342
  8.5113819697788422  8.5113819697788422 46.9527095709663342
