Fe Ti
 1.0000000000000000
    11.3630255290561237    0.0000000000000000    0.0000000000000000
     0.0000000000000000   11.3630209961133417    0.0000000000000000
     0.0000000000000000    0.0000000000000000   11.3630246669951749
 Fe  Ti 
 126   1
Cartesian
 -0.0012332563826391  0.0242268539521566  0.0228968161311630
  0.0646869879543148  0.0505287552871890  2.7774235778698477
  1.4263908772747138  1.4153947558401632  4.2937889610425204
 -0.0011145606182244 -0.0005884080602049  5.6777549983420466
  1.4206596805583052  1.4209496321790887  7.0988586584452991
 -0.0061137927662874 -0.0026154426056775  8.5168806850009364
  1.3934726294567488  1.4474617484151064  9.8797159775980781
  0.0633238111722541  2.7760122831051031  0.0504814014053172
  1.4253692033860086  4.2937084279756554  1.4143054675242333
  0.0544879582504090  2.7862408998445916  2.7862689209535194
  1.4244429443552118  4.2444539351322677  4.2444952566990182
  0.0021230003484749  2.8414960262666660  5.6761536710461531
  1.4211450210085244  4.2637825093958073  7.0975487683112588
 -0.0077346846980517  2.8466480544423955  8.5161348761288789
  1.4171778728595521  4.2580525760717540  9.9477656118973723
  0.0013245207500399  5.6780560316934743 -0.0025487509562656
  1.4198198474212282  7.0989087567060292  1.4198908369557064
 -0.0006842700679855  5.6762295510821561  2.8385330033188261
  1.4206086567671148  7.0968577272305771  4.2619725733742575
  0.0029929679888320  5.6763307531509151  5.6748272589807343
  1.4202151942289116  7.1005741076405009  7.0997605709886153
 -0.0008233069845361  5.6783694886913905  8.5213728180884516
  1.4189986150705940  7.1041526699057735  9.9425961840414061
 -0.0084273925470754  8.5183742644764582 -0.0005169365147316
  1.3932767030376836  9.8797918758468306  1.4472418714774686
 -0.0058824676970940  8.5162111447112974  2.8484370800943979
  1.4187407147906095  9.9475436131036865  4.2561232436274805
 -0.0003821795027383  8.5222201553810351  5.6782028764544048
  1.4186650923417965  9.9426430356866664  7.1031470027593206
 -0.0037321166503332  8.5199240898263522  8.5208226343287539
  1.3980640767575570  9.9396008589601035  9.9390812698251736
  4.3240597575495503  1.4472204669944959  1.4475030317518993
  2.8165750370346720  0.0229304742765561  2.8419810636640621
  4.2560360828850037  1.4235400663873425  4.2581963586641969
  2.8426589082041214 -0.0042633998178453  5.6877262205418742
  4.2612625041145060  1.4217940077606370  7.1043068937468323
  2.8380559031284811  0.0044069856209185  8.5313345351481935
  4.2646914195905250  1.4426509580742255  9.9395468088578127
  2.8178580818022998  2.8419197704813755  0.0241662557677784
  4.2562867132809732  4.2560702522202121  1.4219709414329402
  2.7902643224613866  2.7773528163762418  2.7760575419195770
  4.2525736514497501  4.2526824351137043  4.2524923153825949
  2.8433556244843765  2.8394369412227283  5.6781282298355089
  4.2620610472113256  4.2639872978574687  7.0991711784562730
  2.8412689532847368  2.8491672792256599  8.5183250382802989
  4.2597546271319855  4.2655102362926183  9.9421287007077623
  2.8451075097662679  5.6876827817367426 -0.0019936777560146
  4.2611770965663052  7.1032130096592541  1.4219192426429557
  2.8413594432027449  5.6777690638869416  2.8414726913061989
  4.2622010539269741  7.0991479520309779  4.2641594993132541
  2.8393985033035274  5.6764196099448716  5.6771130566379533
  4.2587890638429959  7.1015725667591676  7.1013300806471760
  2.8389763117135671  5.6839593589307826  8.5240049484054854
  4.2611956813132554  7.1072563304153746  9.9431358774842291
  2.8363402899043226  8.5313504950882155  0.0026480086777193
  4.2642285870998897  9.9391332580312692  1.4427080926330496
  2.8433780235881430  8.5169630217923782  2.8467415343258162
  4.2616237640947965  9.9441326239358698  4.2655546220336067
  2.8390495351788303  8.5231972138471956  5.6811828400002655
  4.2604433923444258  9.9427287573261065  7.1071063947106490
  2.8372629529698479  8.5277810887863179  8.5264177730184230
  4.2591896952546149  9.9444264455987437  9.9446145126480996
  5.6723643164237796  0.0026716103834975  0.0044473879772258
  7.1050108786944337  1.4199415871361416  1.4210738128693006
  5.6856154349776773 -0.0004664509694815  2.8492647135767317
  7.1062299475517161  1.4197706924105447  4.2643329731082407
  5.6799773586225006  0.0017550491112817  5.6841135678791508
  7.1041792995384956  1.4206605825042549  7.1006557369809986
  5.6772363695365309  0.0034201465699892  8.5277399427214302
  7.1005827651082285  1.4219421974450759  9.9425349106289307
  5.6868734584827205  2.8467067017339867 -0.0026446033777348
  7.1067418648538894  4.2619234830830468  1.4201610148311601
  5.6874721818590945  2.8483766539717021  2.8467815984947844
  7.1079340956297532  4.2626438520007497  4.2631772193065141
  5.6823900443384074  2.8416800280238470  5.6785307842104658
  7.1061200043958905  4.2621093658485876  7.0980212777134790
  5.6831605429345657  2.8445664903878076  8.5199547194375072
  7.1046626579641456  4.2642890174308432  9.9414818518792192
  5.6805773067428271  5.6812087771493038  0.0016113903598496
  7.1032014211152319  7.0995977468131297  1.4205585740796813
  5.6814922456528105  5.6781476049024269  2.8413048276659461
  7.1057939597653172  7.0976670435401941  4.2618283979594862
  5.6810729256957577  5.6784970972989104  5.6785240971227235
  7.1050153682002248  7.0987446916747023  7.0987413745490775
  5.6828895661909673  5.6828979923082397  8.5206837769885286
  7.1022197657790498  7.1013917542820844  9.9449819821110719
  5.6761279432155165  8.5265482922319880  0.0035584263640048
  7.0996254901678268  9.9426014272225949  1.4218633904245568
  5.6838196257748468  8.5206700482282489  2.8444677587513025
  7.1046868914245955  9.9417118233905004  4.2637869221732512
  5.6828794042283697  8.5209685375842135  5.6827058026630493
  7.1024296351535403  9.9448060898995063  7.1014544306519358
  5.6806876272333842  8.5230255667299044  8.5230233865381209
  7.0965048331051266  9.9432498360087784  9.9427800304920595
  8.5160656621417878 -0.0019356843487973 -0.0043038598062788
  9.9099730361841996  1.4143648239943558  1.4154524352416959
  8.5257419142403421 -0.0025280964507425  2.8395863631556177
  9.9591916710247812  1.4163960520853844  4.2445201968622372
  8.5266059805941072  0.0013066334432265  5.6764496468328556
  9.9414290095107152  1.4202109606039113  7.0968148938484594
  8.5224435567093675  0.0015803075600358  8.5230860912404758
  9.9476048513338924  1.4219830857093327  9.9474363626571893
  8.5259788816652566  2.8415212989972143 -0.0006778234090229
  9.9592882955156341  4.2444312084936877  1.4163673338892919
  8.5273928744927172  2.8385804613881369  2.8417789835455420
  9.9542250600999971  4.2496395913534668  4.2495604113753833
  8.5289325480637341  2.8381392899822773  5.6764054397798596
  9.9414247090595840  4.2633928645418600  7.0957107951344884
  8.5257074369515653  2.8414273343073018  8.5221944397139442
  9.9511221819812317  4.2524934678096029  9.9511955527234779
  8.5273506747646977  5.6770756844839738  0.0015140464934443
  9.9400313876650195  7.0975675676999535  1.4197344862344783
  8.5274567168931661  5.6747390349116884  2.8377402234125464
  9.9405380848055707  7.0957044642818321  4.2625230798279388
  8.5271571272839246  5.6768160909312737  5.6768037489032821
  9.9419467390591247  7.0980259703212996  7.0977887097300654
  8.5253726257841898  5.6786925868369957  8.5228327515440174
  9.9398926345939831  7.0991421044924774  9.9419329952814373
  8.5198256716568963  8.5238994628931231  0.0018162815165501
  9.9456989539498348  9.9478196389409401  1.4235598155550133
  8.5254983787917116  8.5213676035287715  2.8414572963027904
  9.9512900900836048  9.9511050358019908  4.2526850755812919
  8.5251209045716276  8.5225569590822037  5.6782897203353908
  9.9394543053417106  9.9413674813743533  7.0991321241830372
  8.5209318218597190  8.5207677235104224  8.5210498768355958
  9.9381893629931817  9.9422346725331963  9.9440047458466392
  2.7182511464824941  0.1225063303609951  0.1224916426469496
