Fe Ti
 1.0000000000000000
    11.3822401706760594    0.0000000000000000    0.0000000000000000
     0.0000000000000000   11.3824815598675997    0.0000000000000000
     0.0000000000000000    0.0000000000000000   11.3822402510781835
 Fe  Ti 
 126   2
Cartesian
 -0.0090849247121326 -0.0039900874903921 -0.0020040919771339
  1.3961791469298455  1.4388713560879469  1.4500101934706087
 -0.0060613869072089 -0.0033585757926407  2.8504819897541172
  1.4205482210761817  1.4210084072119900  4.2743597192671681
 -0.0002183926915945 -0.0022249358678812  5.6926958498147782
  1.4217963357068553  1.4246393214382489  7.1111477528906963
 -0.0026558466810074 -0.0013446624824494  8.5312993441469018
  1.3983017165993694  1.4447196081631579  9.9316745931139110
 -0.0277855650580995  2.8237063731316074 -0.0244759496232670
 -0.0331902873599004  2.8268115954516362  2.8785618319818638
  1.4227667868628866  4.2705832134744304  4.2794051202994989
 -0.0039674217353294  2.8465084163567984  5.6947864581334935
  1.4228184476127528  4.2707773528643935  7.1126301499117748
 -0.0084154443656047  2.8509558665556316  8.5273630408622871
  1.4207774296141782  4.2724231526365388  9.9503717049243132
 -0.0260991300363695  5.7173684185970677 -0.0260037721298278
  1.4204133536599195  7.1198476017081171  1.4238723597262173
 -0.0290013291263458  5.7177230012352958  2.8745888417450329
  1.4230018433373766  7.1149029864092448  4.2737491753692813
 -0.0032402495309066  5.6923214966509956  5.6944852724678787
  1.4228294590293478  7.1126324398837015  7.1116254807129593
 -0.0043159511848119  5.6935977180260551  8.5310084809766682
  1.4216027981611365  7.1140089502646680  9.9541612244153015
 -0.0053014315446446  8.5369024064202108 -0.0011800540688050
  1.3970705379165993  9.9343557980671928  1.4481168931069908
 -0.0077462025457728  8.5335044038586112  2.8544004437290553
  1.4213968412295443  9.9573772677586962  4.2714568437057769
 -0.0028356351827251  8.5358554608842976  5.6935902745827311
  1.4207268435829248  9.9585415702286451  7.1106334843545396
 -0.0063371990595459  8.5326168780903302  8.5280945340081100
  1.3967761955627809  9.9335467103411172  9.9333628389630544
  4.2963175132231912  1.4446438482479829  1.4473547460566725
  2.8467467614174091 -0.0041896394977988  2.8555336252628050
  4.2756465978672074  1.4183043584178041  4.2774266164756929
  2.8455437014438676 -0.0017718182392096  5.6933078127467596
  4.2731198352642465  1.4210670378226244  7.1103857241069850
  2.8458862326059280 -0.0027625656405333  8.5264255984342370
  4.3013404851060715  1.4416178780685882  9.9262702382235055
  2.8727906632526454  2.8295568479207764 -0.0265994575309562
  4.2783143973594289  4.2726223215163142  1.4239668580540294
  2.8701353274615578  2.8237865263431439  2.8735382721053266
  4.2710673850866421  4.2706699974543536  4.2731029787168966
  2.8472954457305932  2.8447672712416412  5.6939285428150255
  4.2685302043830555  4.2699443734456501  7.1115007998979491
  2.8466401047371219  2.8464460536156984  8.5307482624434705
  4.2732602650644971  4.2717874026648639  9.9534008222232231
  2.8708953806625339  5.7165576721541953 -0.0257112684555982
  4.2724584807134924  7.1137723731036218  1.4246673916365624
  2.8711757942661453  5.7175894258609627  2.8717465294374489
  4.2748649802406371  7.1190192916313855  4.2773550142172647
  2.8467351158014247  5.6934714858862696  5.6943435053777813
  4.2712524793569369  7.1144075064143779  7.1122145704245874
  2.8475621882743138  5.6925394118603263  8.5336264202602887
  4.2771795066676992  7.1174107379476022  9.9517145787457739
  2.8466549406053852  8.5310645686841955 -0.0023671549753974
  4.2945250924245828  9.9333218866064836  1.4483960888324316
  2.8474471716987937  8.5371421907678666  2.8496791439915765
  4.2735276919048468  9.9584642271603343  4.2741712035410808
  2.8455869126016293  8.5390266440673628  5.6929558895654102
  4.2710128158652019  9.9576274522950321  7.1104889798437014
  2.8458627369528524  8.5352816874798219  8.5306877354352899
  4.2973694766286341  9.9331909406350700  9.9304584702270891
  5.7021858239484109 -0.0021535235909752 -0.0000137477994057
  7.1167092092940569  1.4236625560555192  1.4245155508044403
  5.6958854700765924 -0.0022385010382045  2.8482879478211935
  7.1156346502905548  1.4201426466027813  4.2735630506630180
  5.6949967948523037 -0.0032478406433972  5.6942059269618461
  7.1167792271382710  1.4214923374007793  7.1118575700599278
  5.6978805128893679 -0.0033768613220632  8.5300109678210667
  7.1175653085885253  1.4219209346890311  9.9554941538131967
  5.6971387683109924  2.8474225880379147 -0.0022308891971337
  7.1160861724425297  4.2702037969092856  1.4227633815823260
  5.7002050712776180  2.8501268937578677  2.8528646257141856
  7.1169854485971848  4.2716777140629265  4.2722152863764018
  5.6963444262385146  2.8482884875246306  5.6928551733319646
  7.1174132465270903  4.2719294643272780  7.1104001651602280
  5.6999548485851026  2.8518526992463546  8.5270363670894120
  7.1154770232162861  4.2706567878301174  9.9592435659669274
  5.6942360663740645  5.6935341981983631 -0.0013832354076249
  7.1157360647653700  7.1118865632366708  1.4228063023339297
  5.6969510334693094  5.6924468386646732  2.8507476854898579
  7.1172292253599201  7.1134211543160060  4.2746863051666368
  5.6938812501206559  5.6911296776053550  5.6935305339983611
  7.1174096052090166  7.1117490721046250  7.1102910090075016
  5.6965551178077458  5.6912878360814929  8.5318998886922088
  7.1163703219724006  7.1150546260375593  9.9566243832581112
  5.6965265729663681  8.5360096157097498  0.0002217260479172
  7.1171242850178853  9.9574389181363081  1.4239563554041559
  5.7001355580130078  8.5318927860813343  2.8520857115957763
  7.1163110935550575  9.9597826009414465  4.2711012648758944
  5.6974648817353559  8.5374903612880964  5.6944493160117267
  7.1159074603372252  9.9597369105554083  7.1112075477422527
  5.7015828667263531  8.5337440078248719  8.5264200484609187
  7.1172648981185747  9.9585917273629132  9.9562192162290355
  8.5354081098670491 -0.0023466014388166  0.0000372476722059
  9.9535283829548966  1.4219844340183061  1.4238588210287173
  8.5342803039936310 -0.0015154718480015  2.8457524161601029
  9.9498166533729240  1.4165788972137434  4.2771739056713383
  8.5331794567766046 -0.0034993740492728  5.6946334487446792
  9.9550577709996677  1.4199638503007190  7.1116284809119525
  8.5336084564030141 -0.0034569761416189  8.5329061466012845
  9.9501416251744423  1.4174735972356356  9.9510466766361905
  8.5339294951571407  2.8437886595812083 -0.0009831801862092
  9.9492083480939346  4.2711954273489523  1.4231062444011005
  8.5331661428195495  2.8473648636769240  2.8503400967375931
  9.9527919298187122  4.2718078355182225  4.2750989841119642
  8.5346373852762927  2.8469405702188411  5.6939995200772673
  9.9556871422802899  4.2718864442938491  7.1108294575574789
  8.5344078674911081  2.8484659672840489  8.5322779695849409
  9.9540809571766840  4.2697767149858938  9.9568060746785960
  8.5334151936970866  5.6923705039715271 -0.0020544744843632
  9.9534718590024180  7.1156312929301899  1.4230810666076621
  8.5332690121113259  5.6932852119007604  2.8482322569255705
  9.9491993158352088  7.1171675363160798  4.2788051349308205
  8.5339871543544596  5.6911757828736453  5.6931267946292969
  9.9530546610001576  7.1134197007942754  7.1104115155303926
  8.5348814228574419  5.6911168632199454  8.5332889851285749
  9.9508772178326534  7.1182948080211599  9.9531236663366389
  8.5344061033900100  8.5382799249153489  0.0000484824690365
  9.9564059232301840  9.9583710129281915  1.4247838073756780
  8.5349932330950828  8.5365041572877853  2.8484714038654779
  9.9546811894268910  9.9596239182280097  4.2737740683699661
  8.5330712747356436  8.5391609099821810  5.6946306524755173
  9.9560671031251378  9.9597957684666945  7.1121007256118656
  8.5331923192529278  8.5374915313315025  8.5302744113030933
  9.9537883480809306  9.9573140159959035  9.9551438852032881
  2.8487622689433776 -0.0073026806145857 -0.0032075267566534
  1.4195721774456778  4.2757338417913457  1.4259846151424953
