Fe Ti
 1.0000000000000000
    11.3791554558994950    0.0000000000000000    0.0000000000000000
     0.0000000000000000   11.3890862514292106    0.0000000000000000
     0.0000000000000000    0.0000000000000000   11.3791554706586595
 Fe  Ti 
 126   2
Cartesian
 -0.0094726670506171 -0.0051048921801311 -0.0008541838368766
  1.3846572888414774  1.4236358499643949  1.4601316168644172
 -0.0069622971108217 -0.0049858740537393  2.8521736950858561
  1.4211585898050387  1.4228096265262629  4.2711627451498861
 -0.0018920169635621 -0.0015724562405483  5.6894485016676102
  1.4211585756707801  1.4244619000255210  7.1079928024890071
 -0.0073847846671237 -0.0049858206627635  8.5274042094083882
  1.3846572777740969  1.4236358015875141  9.9190239789485499
 -0.0094726573594183  2.8523764585277638  0.0008542003258195
  1.3922119758230285  4.3052668139088608  1.4527848910934327
 -0.0073847203584238  2.8522574007393589  2.8517513244634909
  1.4202011052421264  4.2739793387695935  4.2727829514856115
 -0.0018920234614708  2.8488440151241070  5.6897069542000525
  1.4212384103789069  4.2754963649168047  7.1071472719991355
 -0.0069623403988424  2.8522573953359305  8.5269817798514271
  1.3920039712593055  4.3052667769260262  9.9265786497143722
 -0.0054367173435865  5.6996889490771343  0.0002174291718254
  1.4184697760073925  7.1181789096043584  1.4263192040339749
 -0.0106341435532968  5.7014158960928789  2.8556454592906402
  1.4217771087565534  7.1177602917321607  4.2723180258516136
 -0.0045321127589723  5.6965760435227324  5.6894481966826476
  1.4217771596386988  7.1185975073901613  7.1068374258253719
 -0.0108566915461376  5.7014158714358496  8.5237325070962751
  1.4184697520514522  7.1181789088131326  9.9528362955101830
 -0.0054367404043811  8.5366688787845071 -0.0002174151346184
  1.3920039923818519  9.9310910322136454  1.4525768215242947
 -0.0108566211960609  8.5349420234531195  2.8554229769309551
  1.4212384148989854  9.9608614608954404  4.2720081712440647
 -0.0045320902079507  8.5397817349111751  5.6897073034885706
  1.4202011202927307  9.9623784470390717  7.1063725313946637
 -0.0106341469339066  8.5349419518396363  8.5235100432851478
  1.3922120645822333  9.9310910513282860  9.9263705812715184
  4.3049204061052420  1.4236357810994764  1.4601314169715547
  2.8439346681219098 -0.0051048572943308  2.8542612791061388
  4.2684191380373022  1.4244618941353471  4.2711627529173404
  2.8447888673865682 -0.0004437407065743  5.6895777080828847
  4.2684191433974776  1.4228096640275651  7.1079927895065600
  2.8456430221791513 -0.0051048285494665  8.5248942375183105
  4.3049203585515148  1.4236357824299224  9.9190239796305040
  4.2975737960977511  4.3052668250768136  1.4525769115233116
  2.8456430947568006  2.8523764369683291  2.8542612791061388
  4.2683391989017077  4.2754963856445158  4.2720081961260084
  2.8447888811714845  2.8477153190390458  5.6895777224681661
  4.2693765697414738  4.2739793154126628  7.1063725409084801
  2.8439346919518127  2.8523763965179372  8.5248942375183105
  4.2973658734836260  4.3052667906735680  9.9263706265542808
  2.8447888531053711  5.7064861290318225 -0.0000000900333221
  4.2711080154253445  7.1181789183660422  1.4263191808837772
  2.8450063663356260  5.6996889669481146  2.8502258672465137
  4.2678005458273143  7.1185974726421559  4.2723180241155623
  2.8447888421822176  5.6948674368331496  5.6895777129379530
  4.2678005236388286  7.1177603254788169  7.1068374332139523
  2.8445713073774108  5.6996889508773521  8.5289294830511846
  4.2711080034908324  7.1181788949214173  9.9528362957479253
  2.8447888389617964  8.5298715797653362 -0.0000000913497564
  4.2973657542741872  9.9310909916264993  1.4527848777680719
  2.8445713402685042  8.5366688634075700  2.8502258847121924
  4.2693765649542996  9.9623784422068304  4.2727829492947134
  2.8447888438615672  8.5414903860252451  5.6895776932564761
  4.2683392023246700  9.9608614178375916  7.1071472713612289
  2.8450063968171686  8.5366688855433672  8.5289294533166302
  4.2975737671085659  9.9310910403348149  9.9265787017882570
  5.6990501586081690 -0.0051048862132448  0.0008541099224729
  7.1159515796199511  1.4228096858429218  1.4236302417588036
  5.6969624970523798 -0.0049858719885146  2.8517512475624716
  7.1153363707733899  1.4236357851590680  4.2705475413320944
  5.6914697333472413 -0.0015724880146890  5.6897069401623375
  7.1153363661463782  1.4236357858272120  7.1086079694819828
  5.6965400911191795 -0.0049857996763191  8.5269818165797719
  7.1159515838790428  1.4244618964389866  9.9555252790830213
  5.6990501328216938  2.8523764208892994 -0.0008541162808558
  7.1175717958136335  4.2739793651047542  1.4245876669883735
  5.6965401005970024  2.8522574130514595  2.8521736292632061
  7.1171601575421883  4.2728300839896871  4.2727971342557804
  5.6914697587111780  2.8488440322709927  5.6894484957614226
  7.1175859789973908  4.2728300997779280  7.1067841610443523
  5.6969624869534563  2.8522573862795717  8.5274042611136949
  7.1167970674622794  4.2754963750181547  9.9556050868641606
  5.6950147151947030  5.6996889497435701 -0.0002174922224371
  7.1171068249870171  7.1177603356956283  1.4230116505540453
  5.7004343124165535  5.7014159061246925  2.8554229878768234
  7.1197974835902924  7.1181789519064926  4.2750086401696841
  5.6941099483688653  5.6965761277451588  5.6897072878220847
  7.1197974952749421  7.1181789569978626  7.1041468165723805
  5.7002118994842608  5.7014159178690988  8.5235100647952002
  7.1171068268679498  7.1185975102455252  9.9561437440825706
  5.6950147151948514  8.5366688547534864  0.0002175064153154
  7.1167970341543150  9.9608613167607380  1.4235503287547582
  5.7002118496993424  8.5349419555964428  2.8556454347404707
  7.1175859533640171  9.9635276716097660  4.2723713266496297
  5.6941099403809980  8.5397817308127149  5.6894482022608859
  7.1171601394276500  9.9635276926467604  7.1063583854100738
  5.7004343063595639  8.5349419640398221  8.5237324704527246
  7.1175717882189966  9.9623784585828457  9.9545678337613079
  8.5343665962676489 -0.0004437727020631  0.0000000553524433
  9.9527815801892778  1.4244618674760678  1.4236302566277435
  8.5342373707818489 -0.0015725191954529  2.8466808482361432
  9.9533968447233185  1.4236357750426099  4.2705475571719980
  8.5343665987707027  0.0001912197711669  5.6895776909529294
  9.9533968368177064  1.4236357970293960  7.1086079513456371
  8.5344958113160061 -0.0015724801979244  8.5324746653177659
  9.9527815312121195  1.4228096925536653  9.9555252418863631
  8.5343666438400874  2.8477153330900302  0.0000000236147719
  9.9519360708701008  4.2754964079278270  1.4235503111797807
  8.5344958087268701  2.8488440298388165  2.8466808899339036
  9.9511472578392421  4.2728300840866433  4.2723713519200412
  8.5343666210450237  2.8470803465553978  5.6895777104090124
  9.9515729816528129  4.2728300846656655  7.1063583274121482
  8.5342373491290182  2.8488440109969599  8.5324746058061667
  9.9511613848292466  4.2739793300425362  9.9545678170657403
  8.5343666575040213  5.6948674493547413 -0.0000000279942356
  9.9516262371871864  7.1185975002942490  1.4230117337534425
  8.5342370482093255  5.6965761348450235  2.8493210617433200
  9.9489357327789705  7.1181789293602575  4.2750086492177086
  8.5343666222040646  5.6947233283369991  5.6895777240268712
  9.9489357084602936  7.1181789485082065  7.1041467935339915
  8.5344961910656849  5.6965761049863621  8.5298343715747933
  9.9516262232765875  7.1177603428688681  9.9561437543065594
  8.5343666537702578  8.5414903802326503 -0.0000000045657171
  9.9511614388496259  9.9623784391199699  1.4245876699873716
  8.5344961961063763  8.5397816930854056  2.8493210831078408
  9.9515729916283089  9.9635276679363098  4.2727971094082129
  8.5343666080380078  8.5416344791805869  5.6895777099406057
  9.9511472517672175  9.9635276715546794  7.1067841429126997
  8.5342370434376384  8.5397816978876726  8.5298343347034145
  9.9519360815594471  9.9608613258530490  9.9556050858032634
  2.8447888275953916 -0.0400940889135483 -0.0000000015081259
  2.8447888493738143  2.8873656561313537  0.0000000596628004
