Fe Ti
 1.0000000000000000
    11.3820558220413233    0.0000000000000000    0.0000000000000000
     0.0000000000000000   11.3820587673954989    0.0000000000000000
     0.0000000000000000    0.0000000000000000   11.3820558179961715
 Fe  Ti 
 126   2
Cartesian
 -0.0101669652078299 -0.0033628791957601 -0.0042728367872211
  1.4227510536812287  1.4227573470011989  1.4227508135745588
 -0.0034143466330040 -0.0100864622042584  2.8497784690179415
  1.4478670410335477  1.3973182852825887  4.2976467567168974
 -0.0004510647744889 -0.0030721858921488  5.6941103716403116
  1.4238812849429010  1.4239576883459018  7.1137513002658803
 -0.0031849160181709 -0.0002837720089582  8.5335187885813877
  1.3971699603354368  1.4479780051204416  9.9302093003669825
 -0.0042724810365967  2.8488775216933249 -0.0101676144572000
  1.4482408764670145  4.2973155792761881  1.3974876609176758
  1.4486874277286554  4.2942370116292068  4.2947244279292134
 -0.0015921271594349  2.8474052789813968  5.6984752289655978
  1.4240841852718922  4.2728481957339879  7.1146819692669325
 -0.0068757043059756  2.8525998018963685  8.5289730793731291
  1.4228022011950758  4.2731570819917408  9.9543188228158996
 -0.0004428187058446  5.6938669749682145 -0.0035423783077989
  1.4215140565218056  7.1137867036343190  1.4215143348349260
 -0.0016995700899284  5.6983186524508351  2.8470161355607528
  1.4250880787430109  7.1139418802905139  4.2710711852204986
 -0.0006168519234828  5.6936336720769880  5.6935939507785740
  1.4227406574042958  7.1145211716581693  7.1132519597658108
 -0.0028502431641130  5.6915336324734884  8.5334742929089860
  1.4215854285010798  7.1131524001136937  9.9549030372656624
 -0.0035427646081456  8.5337064571833512 -0.0004423068059439
  1.3974875736501073  9.9302578638617884  1.4482408800860231
 -0.0070508339035277  8.5289875881317059  2.8523485574252945
  1.4226812952111920  9.9533771617878024  4.2742657112817204
 -0.0030099842963896  8.5331585943267516  5.6910394993400057
  1.4204264718901340  9.9564478360255659  7.1132627471792995
 -0.0065921374912905  8.5301453111163834  8.5299679115468283
  1.3970937984181542  9.9327391850483284  9.9330368743009565
  4.2976469681376699  1.4481962180328565  1.4478669722219166
  2.8488677372743361 -0.0040766676115685  2.8557314423093452
  4.2734654258506302  1.4227572702893103  4.2734649768696551
  2.8526612083913463 -0.0068416773235839  5.6985550510664407
  4.2729975426466460  1.4237733655064508  7.1130640657935409
  2.8473642946246280 -0.0016506326358760  8.5290434028030031
  4.2942594286071900  1.4484392261670365  9.9324461514986009
  2.8497785275481706  2.8556006289590870 -0.0034148447890486
  4.2742657093895007  4.2741956690484351  1.4226811807893827
  2.8557316005438169  2.8495912811765489  2.8488677469878447
  4.2716850382714728  4.2720651206855393  4.2723389212537199
  2.8491405438828483  2.8459385808674034  5.6940423788560279
  4.2701551837140608  4.2703003362230127  7.1141062347853303
  2.8459357963864917  2.8489772755232501  8.5334396589164889
  4.2721319894167102  4.2717204556153003  9.9552446812932285
  2.8523485233682453  5.6985852868184841 -0.0070500230856736
  4.2710710371378680  7.1136314987615172  1.4250883942002570
  2.8486468101924030  5.6939150558220080  2.8456755398119111
  4.2705811186374696  7.1137867977967231  4.2705815290802889
  2.8520669984023566  5.6975414016219466  5.6975457805159362
  4.2715841024027954  7.1151640580805555  7.1157333371805951
  2.8484354567954164  5.6943062028518057  8.5366711616516096
  4.2733026389849522  7.1154506364596868  9.9550569882891011
  2.8470161153825067  8.5292553739742996 -0.0016990948489044
  4.2947244223948484  9.9333371613791090  1.4486873315416298
  2.8456754414472769  8.5336583565082389  2.8486468305339603
  4.2723388337550547  9.9555083353363010  4.2716849086798341
  2.8484690574432601  8.5361159442070527  5.6942169794384005
  4.2727759459953170  9.9541470594144350  7.1149550751785338
  2.8463907520650396  8.5343054401362686  8.5336022783893988
  4.2937251021644540  9.9339250208555132  9.9341439038752188
  5.6984751738105501 -0.0018896595003345 -0.0015925024477536
  7.1137527350915182  1.4215563200282859  1.4238818962239845
  5.6940431635812301 -0.0004235383497726  2.8491405325634411
  7.1130657405317548  1.4217408930692050  4.2729971210221915
  5.6918093935128793 -0.0029832297898991  5.6941876766035318
  7.1145804186656232  1.4227572583681884  7.1145799709254227
  5.6937738438919858 -0.0010429071710569  8.5341458436615714
  7.1140193528964684  1.4249646391568640  9.9562717183360530
  5.6941106475193317  2.8485859730695076 -0.0004512318883518
  7.1132626824981502  4.2711251159489017  1.4204265284737512
  5.6985556178276324  2.8523559375160739  2.8526611062107503
  7.1149551758866938  4.2734263441992155  4.2727759257323807
  5.6941881342386127  2.8484978730155337  5.6918089479753489
  7.1149144696102091  4.2719168766676914  7.1119625558073931
  5.6975708842026727  2.8520781951028957  8.5301323269389773
  7.1137173918556984  4.2708674920671914  9.9567732050335138
  5.6910392428171228  5.6944140388812023 -0.0030100327143166
  7.1132503651087733  7.1130517748065385  1.4227401237604309
  5.6942167012946374  5.6914571273143588  2.8484693307266151
  7.1157316974382949  7.1124090022769364  4.2715846400462709
  5.6922371359808119  5.6939080975450915  5.6938761561495008
  7.1136947027124302  7.1137866892648374  7.1136951808337781
  5.6937400037126089  5.6927435396415440  8.5338072747576703
  7.1123972610848245  7.1158259753806643  9.9559072849934616
  5.6935938798053076  8.5339406157664595 -0.0006164296744251
  7.1146819084210584  9.9547270324281474  1.4240841984840107
  5.6975447815150035  8.5300325931182659  2.8520668957028823
  7.1141062497875165  9.9572741109325182  4.2701551898996613
  5.6938756900257177  8.5336655004494926  5.6922374550871657
  7.1119624885359922  9.9556568684004834  7.1149144175861281
  5.6968582613142971  8.5307551679497529  8.5306719766605159
  7.1124623687782371  9.9548125929835152  9.9542780418155026
  8.5289739317189976 -0.0070849181655267 -0.0068757353851218
  9.9302110820605218  1.3975370466720709  1.3971694441927476
  8.5334397058034295 -0.0034624785954615  2.8459361693408476
  9.9324478380748875  1.3970759710096319  4.2942600881736608
  8.5301330748781012 -0.0065637631836647  5.6975708468004447
  9.9562718160968142  1.4205501001080456  7.1140191372224635
  8.5332194550891778 -0.0030949506896319  8.5360930155207946
  9.9531871641093286  1.4227573332020171  9.9531868523087645
  8.5335193782105829  2.8457982203351864 -0.0031849381073770
  9.9330369087182451  4.2948345536368784  1.3970938180823609
  8.5290443007711474  2.8471654805926390  2.8473642779152906
  9.9341439096152317  4.2936491373813537  4.2937250612715996
  8.5341462848764795  2.8465577029650357  5.6937738622970162
  9.9542780509893642  4.2727614752830014  7.1124624082141334
  8.5360929919153765  2.8486096781038395  8.5332192090096850
  9.9554901713890214  4.2723015143000920  9.9557658941754923
  8.5299675054111095  5.6974279364099463 -0.0065921675600942
  9.9549014183634466  7.1144214367544016  1.4215859667000377
  8.5336014154322637  5.6932681335893305  2.8463906140567352
  9.9550554010622267  7.1121233422731143  4.2733021350923153
  8.5306716318519680  5.6968184843957870  5.6968582531181182
  9.9559071938390407  7.1117475604889870  7.1123975660820831
  8.5336855414800414  5.6939375163692034  8.5350369069992542
  9.9573772198736226  7.1137867645408024  9.9573774520291281
  8.5334734686487597  8.5360400831701977 -0.0028501800825580
  9.9543187009690968  9.9544153065461156  1.4228021921851410
  8.5366711616516131  8.5332672063034529  2.8484352029807334
  9.9552445334465016  9.9558514161864498  4.2721319973828065
  8.5338063698979170  8.5348295581101148  5.6937399429630133
  9.9567731630966616  9.9567053858595091  7.1137173801432443
  8.5350369824452628  8.5336359396309103  8.5336857191886377
  9.9557659288550404  9.9552717934145107  9.9554901353150438
  2.8447128867110076  0.0008743334524807  0.0007532870980539
  0.0007538917542803  2.8446406915023679  2.8447128356342386
