Fe Ti
 1.0000000000000000
    11.3812141660129491    0.0000000000000000    0.0000000000000000
     0.0000000000000000   11.3832047319815928    0.0000000000000000
     0.0000000000000000    0.0000000000000000   11.3812143146100926
 Fe  Ti 
 126   2
Cartesian
 -0.0114665703696327  0.0000008103843356 -0.0114662156404241
  1.4226519911095852  1.4815125767707709  1.4226518357141216
  1.4473775198333469  1.4498221339950910  4.2955456131076568
  0.0002990712669653  0.0005821736162545  5.6976398386102929
  1.4226518768133642  1.4264849007123457  7.1132588812684618
 -0.0029355220342575 -0.0000718166889006  8.5327431455419074
  1.3979263528105512  1.4498222508304932  9.9309723330854531
 -0.0038876733180311  2.8531635915550582 -0.0033578288489741
  1.4226517322869074  4.2759411397992517  1.4226517333147806
 -0.0072427916055069  2.8604076252692336  2.8523335051631955
  1.4246456669356771  4.2732908284416817  4.2716770498491305
 -0.0022975737371517  2.8516839464836505  5.6939488966532350
  1.4226517071465878  4.2739449574877542  7.1132589312054959
 -0.0065253304223554  2.8529155380943143  8.5291138963407480
  1.4206576604070567  4.2732908447157083  9.9548409415231855
 -0.0004713529396377  5.6916030047018591 -0.0004715580543307
  1.4226516533313982  7.1072638781192241  1.4226516553989335
 -0.0029807932738655  5.6916024949712165  2.8482840827850935
  1.4238369081461750  7.1088407916081335  4.2721345640804751
 -0.0010699182769693  5.6916484382299819  5.6905147384462387
  1.4226516583360354  7.1108538876436373  7.1132590152785991
 -0.0029455400977366  5.6916116239783712  8.5329919158551739
  1.4214664165248603  7.1088407621154239  9.9543832568968753
 -0.0033585996031449  8.5300398505019182 -0.0038881588372525
  1.4226518218428554  9.9016918894967212  1.4226517558410499
 -0.0070296823283858  8.5227969062511058  2.8525456892088283
  1.4471123971579405  9.9326715299418371  4.2955569808674730
 -0.0025272071098842  8.5316860238932097  5.6937127638660643
  1.4226518876076508  9.9581705967758385  7.1132588548111642
 -0.0066786984849830  8.5307401484025824  8.5292833449669967
  1.3981915989752349  9.9326714429198439  9.9309609505809373
  4.2955576246531137  1.4505334443084441  1.4471119979837517
  2.8567706730820457  0.0000009779972466  2.8567697817971700
  4.2726190090179461  1.4262493987274312  4.2736051063515887
  2.8482396798985539 -0.0000717021281476  5.6937744312278671
  4.2716360832071416  1.4238546707670758  7.1131674937716189
  2.8450046641130400  0.0005822190806679  8.5288780165687879
  4.2942653921972962  1.4477137722680185  9.9330687925971564
  2.8525462408917295  2.8604077040841465 -0.0070297104702011
  4.2721338494734979  4.2743641223585387  1.4238370785295389
  2.8491914800502798  2.8531633749029299  2.8486616942397061
  4.2704215610576393  4.2728318012312121  4.2700252426731478
  2.8518288898606632  2.8529152958035566  5.6974041097073638
  4.2713259178376788  4.2740267116977630  7.1145178835615752
  2.8476012870668668  2.8516840257784697  8.5325689655144110
  4.2727523003753349  4.2747256414643102  9.9528879913495665
  2.8482839492939571  5.6916024767874607 -0.0029804421631778
  4.2716770523689611  7.1099137779701191  1.4246467662890538
  2.8457740429214491  5.6916032947294699  2.8457747693825657
  4.2700241962659833  7.1103729435809413  4.2704232247611165
  2.8482484863288242  5.6916116428173193  5.6935260565302537
  4.2713272391460508  7.1086917427018470  7.1148347974639199
  2.8463731599814190  5.6916484950434958  8.5360032921787194
  4.2736299482494635  7.1084789949579754  9.9537655560957692
  2.8523331809139942  8.5227968951847881 -0.0072422083712882
  4.2955455875372897  9.9333821956484680  1.4473763596883882
  2.8486619107477957  8.5300396034943144  2.8491918660141797
  4.2736060619354221  9.9569553215907067  4.2726175879449970
  2.8519819732721432  8.5307402540301673  5.6972343917386414
  4.2714606125681982  9.9586092516575970  7.1122538551114189
  2.8478307306592474  8.5316859643877070  8.5328051552493953
  4.2934489714633299  9.9354909247188203  9.9322523872498607
  5.6976395463306897 -0.0005819503513609  0.0002989828841842
  7.1132589034193776  1.4250349603233397  1.4226517190576566
  5.6937768183501758  0.0000717605497207  2.8482371909862834
  7.1122548604811708  1.4245955414532570  4.2714608219657055
  5.6913936797823634 -0.0000009020640427  5.6913930453087307
  7.1132589170306879  1.4227112227512693  7.1132588981057321
  5.6932809902962207 -0.0000000551426031  8.5332366625817269
  7.1142630449046278  1.4245954806366865  9.9550570785126009
  5.6937127697716985  2.8515189430882462 -0.0025272033722239
  7.1132587190904006  4.2723516788240925  1.4226517577891338
  5.6972343189291736  2.8524665692300828  2.8519820567500989
  7.1148335836162842  4.2745133192484577  4.2713271260736487
  5.6934906234529326  2.8514514159957938  5.6937555293299953
  7.1132588077541152  4.2754322762073018  7.1132589253730822
  5.6968145440918176  2.8532028855558109  8.5297915496797057
  7.1116838124278177  4.2745132540495332  9.9551907569390199
  5.6905146770526258  5.6915562234816166 -0.0010694788584874
  7.1132587435709347  7.1092589455285626  1.4226519267583781
  5.6935232183673881  5.6915930347218717  2.8482509319964131
  7.1145174211194151  7.1091777599085866  4.2713267335964016
  5.6920024651237000  5.6916014874870582  5.6920032201215589
  7.1132587949638948  7.1077724518429637  7.1132588659014795
  5.6934435099339105  5.6916022922160332  8.5330743032354537
  7.1120000620415098  7.1091778361119689  9.9551912798256499
  5.6939489279362183  8.5315204061448213 -0.0022979238187304
  7.1132589542361853  9.9567187519924367  1.4226516628249453
  5.6974042839410890  8.5302874283860906  2.8518290763645253
  7.1131677879573232  9.9593498652524666  4.2716354609809786
  5.6937554592379112  8.5317550875763128  5.6934906483347305
  7.1132589498707439  9.9604934152346924  7.1132589503439316
  5.6967263142827322  8.5300020442022326  8.5297033565589846
  7.1133502295131459  9.9593499484117771  9.9548824441272075
  8.5327416482051976  0.0000717981210436 -0.0029338767773979
  9.9309603898988783  1.4505335250487215  1.3981915557509395
  8.5288783931455630 -0.0005819545466839  2.8450045074573760
  9.9322524089439668  1.4477137806388951  4.2934490445159277
  8.5332369105343240 -0.0000000340284360  5.6932812411686911
  9.9548820331688361  1.4238547196515259  7.1133503797658131
  8.5351245178964934 -0.0000007024988361  8.5351249719252227
  9.9538989067077637  1.4262494008980160  9.9529127004585387
  8.5292833648963988  2.8524662160576195 -0.0066786665193462
  9.9543835202676743  4.2743640527507418  1.4214664337471987
  8.5328050561538191  2.8515189994327530  2.8478307983480549
  9.9537652981313709  4.2747256958804121  4.2736299025322202
  8.5297031158703973  2.8532028949628017  5.6967263317665831
  9.9551913871295721  4.2740266982941737  7.1120000197910160
  8.5330271346888100  2.8514511317287101  8.5327623163929349
  9.9560958277364282  4.2728316825108621  9.9564927284060012
  8.5329936324138416  5.6915931633779282 -0.0029471494948836
  9.9548405143877954  7.1099138501959773  1.4206568190143867
  8.5360027038252557  5.6915562617175706  2.8463731403702308
  9.9528876891162366  7.1084789967711828  4.2727524386763163
  8.5330738449977144  5.6916022794763430  5.6934435918338497
  9.9551902713174432  7.1086916947268115  7.1116831432557168
  8.5345148540867122  5.6916015984062440  8.5345147034595641
  9.9564930032941508  7.1103728786169125  9.9560941089841197
  8.5291137157974752  8.5302875380754486 -0.0065251919246308
  9.9309723393369485  9.9333822412300830  1.3979270553667398
  8.5325688114911475  8.5315203891311739  2.8476014997606054
  9.9330687150119097  9.9354909192362282  4.2942655009037960
  8.5297915029757245  8.5300019917644523  5.6968146218536759
  9.9550572631380465  9.9586092923340583  7.1142639553687381
  8.5327621467696932  8.5317549647208306  8.5330272478035383
  9.9529120252734966  9.9569554840256593  9.9539008258748236
  2.8441228732440047  0.0000001879095596  0.0011806411614619
  0.0011811255472751  0.0000001947361142  2.8441230508068016
