Fe Ti
 1.0000000000000000
    11.3668811940097338    0.0000000000000000    0.0000000000000000
     0.0000000000000000   11.3591734418884620    0.0000000000000000
     0.0000000000000000    0.0000000000000000   11.3668813025510786
 Fe  Ti 
 126   1
Cartesian
  0.0029264922624232  0.0146349459711094 -0.0007739057131368
  1.4285151977795887  1.5012498203161313  1.4116747171275488
  0.0031023338249685  0.0063616557064460  2.8393890530161112
  1.4165239150201987  1.4209604504858151  4.2651404613022805
 -0.0010244953222918 -0.0015689103559210  5.6833530375581836
  1.4188989455036598  1.4198106749743966  7.1017083966052361
  0.0023329598928904  0.0063598950330016  8.5282638513892906
  1.4300460164030164  1.5012491732334476  9.9536790740528929
 -0.0375834856188922  2.8424812654723977 -0.0002109949717998
  1.4723220461880244  4.2074233262818241  1.3699204757487520
  0.0017821459180862  2.8471744312152936  2.8406352108824624
  1.4212818294299419  4.2636028016269307  4.2637726837641186
 -0.0040536364857423  2.8428369602062697  5.6833416304078082
  1.4185580911986699  4.2616044852123292  7.1036088853801163
  0.0010860245992709  2.8471734963862785  8.5269439223370629
  1.4717986931358769  4.2074249686424530  9.9974827824679942
  0.0126507639031684  5.6664092269001225  0.0001027131431571
  1.4173606409974955  7.0939110935799876  1.4208302452274517
  0.0068032588491037  5.6709331814765180  2.8355531352357417
  1.4238993384965313  7.0943481235937016  4.2596332398888066
 -0.0001791380092983  5.6799798212420534  5.6836497145291949
  1.4236827848087634  7.0939418940912624  7.1058034439585223
  0.0061670529260744  5.6709353485589782  8.5319609696381331
  1.4208898406258625  7.0939086141614807  9.9425222843160626
 -0.0001388468019548  8.5181252977428858 -0.0007408350381724
  1.3957897196586000  9.9196237443631485  1.4463493052126963
 -0.0058459784424503  8.5126980438607784  2.8474529315344665
  1.4219578997644562  9.9404888490149474  4.2626475294201995
 -0.0001661653668150  8.5153508918001535  5.6837791757973486
  1.4215767747041945  9.9403643564581632  7.1053236547928282
 -0.0057342094717705  8.5126988957088727  8.5193138179942096
  1.3953703075416426  9.9196240378188776  9.9209507378952733
  4.2533958100668423  1.5012508902273065  1.4132037005011453
  2.8409458986568041  0.0146358597608537  2.8387921488256329
  4.2645425665527643  1.4198103991654787  4.2651706026080687
  2.8417213977628295 -0.0000496551932769  5.6834407995276059
  4.2669180065975647  1.4209637537207922  7.1017432918747421
  2.8424938014860230  0.0146353458577920  8.5280881696447963
  4.2549228671631321  1.5012506368439213  9.9552058297284276
  4.2116412659166542  4.2074203133902559  1.3693983434190282
  2.8415104403567599  2.8424820805896811  2.8793053054810427
  4.2648826057521090  4.2616100629289919  4.2632712218417748
  2.8417226681829271  2.8399954175521143  5.6834404767666626
  4.2621595798237211  4.2636042141768415  7.1031089474027294
  2.8419319826807738  2.8424815201007685  8.4875756753152594
  4.2111182106696852  4.2074227737648764  9.9969592246757895
  2.8417209794236014  5.7100452660936796  0.0000002402226945
  4.2625513155541777  7.0939117171111468  1.4243613338051127
  2.8418210883257333  5.6664091982372620  2.8290680427314387
  4.2597572945406448  7.0939415686246257  4.2610801538417533
  2.8417190395753322  5.6789799121006102  5.6834408581392788
  4.2595397699854596  7.0943499124808991  7.1072454876236586
  2.8416169907375770  5.6664097109748885  8.5378139617098778
  4.2660825686142152  7.0939100291621306  9.9460504627823756
  2.8417209125728666  8.5139576634045770  0.0000000147531066
  4.2880692139718892  9.9196219495749496  1.4459300205988106
  2.8409804710065836  8.5181249622134168  2.8418604091317956
  4.2618627950574535  9.9403649161904628  4.2615581511386873
  2.8417183280059160  8.5180935842399936  5.6834407713378283
  4.2614816710463774  9.9404866167322901  7.1042339723390606
  2.8424604409990564  8.5181252950961621  8.5250226770325011
  4.2876505827434856  9.9196239272120579  9.9205320310237823
  5.6805121067027704  0.0146363003005013  0.0007736846345465
  7.1068593539544738  1.4209613604244080  1.4251972037357619
  5.6811083497854629  0.0063613841823054  2.8386203997323505
  7.1037329604290544  1.4207812647904581  4.2642809113881439
  5.6844644817281136 -0.0015686251398254  5.6835281493678043
  7.1059998616497806  1.4207797015887695  7.1048690131211281
  5.6803393626132319  0.0063619371727414  8.5274944714391463
  7.1068910565742955  1.4198090355872559  9.9440596676462203
  5.7210231543202914  2.8424802053516696  0.0002105805812807
  7.1054942127282503  4.2636018828554372  1.4204399628331601
  5.6823557623268517  2.8471734808546287  2.8399395621966854
  7.1057247860660038  4.2628091784123292  4.2627525659856431
  5.6874895878956009  2.8428367393650058  5.6835398220473854
  7.1044737651425134  4.2628097623523429  7.1028786824055388
  5.6816592262694243  2.8471744435538948  8.5262495224074186
  7.1049924680948866  4.2616054404906558  9.9437183511983402
  5.6707891894830365  5.6664097156800626 -0.0001020498470228
  7.1013557277654193  7.0943466253656524  1.4178180647240550
  5.6772741551674946  5.6709370246685751  2.8349167641517661
  7.1045739778217705  7.0930627441543717  4.2624840185784274
  5.6836242259031495  5.6799814327640599  5.6832320470538216
  7.1042060482483063  7.0930629803379412  7.1040279529866046
  5.6766388868156135  5.6709354485978078  8.5313255301663222
  7.1027990669859209  7.0939408284555245  9.9488438220366628
  5.6835811946136312  8.5181241133083070  0.0007388880183681
  7.1043665633060682  9.9404897964320629  1.4197608811916507
  5.6891740884100734  8.5126976408357287  2.8475654815596130
  7.1045908281260575  9.9395327159171245  4.2623811229417550
  5.6836068432379978  8.5153501708113168  5.6831013823021257
  7.1040994200102059  9.9395330524385699  7.1040107504454753
  5.6892852105905369  8.5126957226902675  8.5194261336028312
  7.1032769641286428  9.9403657109363479  9.9467398176329169
  8.5251602992201718 -0.0000491509156978  0.0000020097791644
  9.9434303099248815  1.4198094708162190  1.4228222541215965
  8.5250733938299899 -0.0015685846272777  2.8427448410210667
  9.9443222041512591  1.4207805974327121  4.2620130800609841
  8.5251624632653140 -0.0006819345450917  5.6834433148237302
  9.9465884723121896  1.4207807471901073  7.1026040675521536
  8.5252483927414584 -0.0015686114982512  8.5241378159851866
  9.9434610372438694  1.4209620548543234  9.9416869251196243
  8.5251596673420185  2.8399947017165381 -0.0000004946311353
  9.9453309507171053  4.2616055729872899  1.4231610655585216
  8.5250599867470349  2.8428363353875956  2.8457768793159812
  9.9458510463337024  4.2628130574964613  4.2640034404857188
  8.5251635949485820  2.8421320295320744  5.6834398941432021
  9.9445982758557037  4.2628135765368143  7.1041268514660638
  8.5252605652088480  2.8428368176248027  8.5211099756617212
  9.9448289187533998  4.2636010800610649  9.9464400740403374
  8.5251627606508755  5.6789778301737419  0.0000013589103942
  9.9475220482073183  7.0939428887637357  1.4180364852362619
  8.5253688591579966  5.6799823871703969  2.8418970015589409
  9.9461141248278491  7.0930644542544954  4.2628535951279272
  8.5251591260494770  5.6789410250752077  5.6834407771579034
  9.9457470736616838  7.0930633906023237  7.1043946432157421
  8.5249512674542842  5.6799798288493788  8.5249778570885741
  9.9489667545566576  7.0943493527571757  9.9490607532015094
  8.5251613173090082  8.5180924588763904 -0.0000020294115014
  9.9470430685442057  9.9403667292497833  1.4201435578022634
  8.5254984924289996  8.5153503724183057  2.8418864204529055
  9.9462214170964938  9.9395308275347141  4.2628695748002459
  8.5251597878326777  8.5161683150118890  5.6834390278705449
  9.9457322464602917  9.9395322062305098  7.1045014524684191
  8.5248224376274280  8.5153503633245400  8.5249935444423528
  9.9459558538280302  9.9404863540354746  9.9471201428092204
  2.8417199710413414 -0.0164269360904197 -0.0000006653698672
