Fe Ti
 1.0000000000000000
    11.3739541166286653    0.0000000000000000    0.0000000000000000
     0.0000000000000000   11.3739546228198556    0.0000000000000000
     0.0000000000000000    0.0000000000000000   11.3739541987239701
 Fe  Ti 
 127   1
Cartesian
 -0.0082778571320600 -0.0000001283697350  0.0000006989651337
  1.3962116960674620  1.4473481351765651  1.4475981620906999
 -0.0032945114995619  0.0000000094551253  2.8467832133672628
  1.4195853519724504  1.4229239868045882  4.2682879682572361
 -0.0004996201204655  0.0000002287838583  5.6869769943744455
  1.4203924812499580  1.4238471155609700  7.1056093204238540
 -0.0032942958746435  0.0000000167777209  8.5271711583315959
  1.3958899305349590  1.4473483233379585  9.9266773724597996
 -0.0034531580589471  2.8465936510449938  0.0001224617091076
  1.4205975125282884  4.2680452504945317  1.4238410722592787
 -0.0067560658037643  2.8501844973523931  2.8502052209827768
  1.4218284034179711  4.2670683691638676  4.2675163315459654
 -0.0028840405489157  2.8464686736358265  5.6868314286279231
  1.4218358806505604  4.2677549863971347  7.1069244405260488
 -0.0067170943049895  2.8501840183803719  8.5237088499270754
  1.4196471756731801  4.2680448629879981  9.9510630550869177
  0.0002436040199680  5.6869771163113061 -0.0000000571556567
  1.4196472487937739  7.1059093922880079  1.4228912346666784
 -0.0027634511562017  5.6869772890133508  2.8462521543933672
  1.4218360507159657  7.1062002758856773  4.2670299449381490
 -0.0010354797753706  5.6869773148328351  5.6869769150153919
  1.4218281904913939  7.1068860809456575  7.1064382717557733
 -0.0027628987037961  5.6869770932374859  8.5277030027490053
  1.4205977230210625  7.1059096541074229  9.9501131231412590
 -0.0034531028546738  8.5273609876733509 -0.0001224829749519
  1.3958900040563469  9.9266064562883134  1.4472765643831933
 -0.0067167746150283  8.5237704114361570  2.8502438897605007
  1.4203924791324507  9.9501074514438219  4.2683446127772067
 -0.0028846452960167  8.5274864322144435  5.6871228553096742
  1.4195847977399794  9.9510306735671588  7.1056662149679042
 -0.0067559366462737  8.5237708391053602  8.5237486970455585
  1.3962121668425529  9.9266064139544596  9.9263555375785177
  4.2910871475805052  1.4473479951573116  1.4472764890717134
  2.8434885524001827  0.0000002842807830  2.8517663316784163
  4.2665844465083893  1.4238472918137777  4.2683444458751847
  2.8434885614133836  0.0000001115672325  5.6869768780727687
  4.2673921927140377  1.4229239456915295  7.1056664622072363
  2.8434883924239620  0.0000000141737606  8.5221882090330503
  4.2907650732995259  1.4473480669069914  9.9263556450681261
  2.8434883170138612  2.8515594212334316  0.0000005548277040
  4.2673298597898492  4.2680452118685261  1.4228909539625545
  2.8436111930480132  2.8465935872213022  2.8469412617461116
  4.2651404861312745  4.2677542260779999  4.2670295507727527
  2.8434882520994424  2.8438318779477032  5.6869770892154206
  4.2651481460842344  4.2670684328413566  7.1064378845829941
  2.8433656695927501  2.8465932448800761  8.5270126455583952
  4.2663796729501371  4.2680451182791552  9.9501133481551793
  2.8434884370357358  5.6869769949703795  0.0000000649713765
  4.2663797973793933  7.1059095325861268  1.4238413455651027
  2.8434882799298249  5.6869772191379004  2.8432456093783989
  4.2651486363838433  7.1068862515295796  4.2675164836397439
  2.8434879969715898  5.6869774207009112  5.6869771880262565
  4.2651408249236704  7.1062001519325024  7.1069242352647457
  2.8434883776692677  5.6869771334832215  8.5307089938801290
  4.2673297043360208  7.1059095926106899  9.9510634042238166
  2.8434885931606715  8.5223951024022444  0.0000000319767403
  4.2907651129205542  9.9266065727741086  1.4475986330140003
  2.8433656567866530  8.5273604797324527  2.8469419605364932
  4.2673925662260634  9.9510307165321148  4.2682877302154543
  2.8434885120647433  8.5301226352988628  5.6869772101965150
  4.2665852108640836  9.9501076488908264  7.1056098051460035
  2.8436111752646882  8.5273610840111900  8.5270120807269176
  4.2910867196596456  9.9266065556272451  9.9266774045977346
  5.6952547934492630  0.0000000425573129  0.0000003719782768
  7.1117766076347362  1.4229239724737091  1.4239039389285444
  5.6902720259493247  0.0000002140015756  2.8467833042187713
  7.1105766435768718  1.4218330075571481  4.2678550347664190
  5.6874770277700950  0.0000000147536882  5.6869769684993843
  7.1113429760496336  1.4218329236293785  7.1068655638596541
  5.6902718946407580  0.0000004196587788  8.5271709467003394
  7.1118333500231197  1.4238471928360308  9.9508579331332196
  5.6904303838401704  2.8465937911088361 -0.0001227482183381
  7.1110048287695591  4.2670683055438623  1.4216600047297854
  5.6936930371974750  2.8501842386837701  2.8502435458394655
  7.1121110493146862  4.2688661466876088  4.2687153668611035
  5.6898606091965220  2.8464683572470193  5.6871228334421593
  7.1122036551228227  4.2688659163247413  7.1053311347110455
  5.6937323725713958  2.8501839145480408  8.5237490852160533
  7.1105185025466442  4.2677543683137422  9.9523017998538315
  5.6867337691597459  5.6869775297371419  0.0000000470801332
  7.1105181330268810  7.1062002028772033  1.4216520777214787
  5.6897405915627610  5.6869772988168394  2.8462523190872320
  7.1122037064076942  7.1050885244987168  4.2686228892760703
  5.6880123187549900  5.6869774304660865  5.6869767471051533
  7.1121119861641908  7.1050887053921565  7.1052388377199200
  5.6897404161043212  5.6869772396118803  8.5277015252857549
  7.1110050074403794  7.1068865608451857  9.9522947526459529
  5.6904296726921890  8.5273606336743875  0.0001224594595915
  7.1118330984440270  9.9501078580962510  1.4230960050059274
  5.6937331038060925  8.5237698839288676  2.8502051488246725
  7.1113438354984355  9.9521219738522273  4.2670885024222232
  5.6898620527433605  8.5274858754351150  5.6868316521758349
  7.1105776244550691  9.9521214930328963  7.1060996270710071
  5.6936936087732031  8.5237701963693393  8.5237097154963095
  7.1117765376826352  9.9510306525005614  9.9500508222569071
  8.5304650263187067  0.0000000154448600  0.0000002295336810
  9.9490978782600674  1.4238476111659997  1.4230964656123823
  8.5304655516036085  0.0000001276449675  2.8439884668714273
  9.9495879606720266  1.4218329542020900  4.2670894284361971
  8.5304659896033108  0.0000000809847440  5.6869773147362697
  9.9503538680245622  1.4218330317211347  7.1060994348662758
  8.5304659861576777  0.0000003666951360  8.5299661588778442
  9.9491550352266369  1.4229243698707195  9.9500507512589724
  8.5304657767324770  2.8438317466804164  0.0000005623010888
  9.9504128943382657  4.2677541222016648  1.4216524802669548
  8.5303199105954430  2.8464685498766320  2.8463728981689611
  9.9487276873054142  4.2688658937058266  4.2686230379833487
  8.5304658113208180  2.8449389651450323  5.6869773996556345
  9.9488196968196814  4.2688657998946873  7.1052390236666731
  8.5306113004368438  2.8464684925043153  8.5275809509163132
  9.9499264905946436  4.2670679849821473  9.9522943034414162
  8.5304659309540547  5.6869773507307730 -0.0000003393134256
  9.9499264299975874  7.1068856228487549  1.4216599064398046
  8.5304654542017921  5.6869773990808321  2.8445238289150576
  9.9488198882881651  7.1050884578442259  4.2687146087211278
  8.5304649844253984  5.6869772764666200  5.6869769881341794
  9.9487274307581011  7.1050886347735780  7.1053314290893033
  8.5304651325433767  5.6869773950437423  8.5294299577324768
  9.9504126975519984  7.1062004105858518  9.9523015723318160
  8.5304652529098473  8.5301221348538210 -0.0000005774081967
  9.9491551200630628  9.9510310405716265  1.4239038474928016
  8.5306118923442966  8.5274859612968044  2.8463724786766993
  9.9503542071880133  9.9521215958296807  4.2678544968935288
  8.5304661825243748  8.5290157035638892  5.6869771526814974
  9.9495880604022382  9.9521216691319232  7.1068657232006140
  8.5303198715519937  8.5274855895206176  8.5275812570719101
  9.9490982244843025  9.9501077059507903  9.9508578448443163
  2.8434882133449726  0.0000001686130065 -0.0000002367483328
