Fe Ti
 1.0000000000000000
    11.3826071133230098    0.0000000000000000    0.0000000000000000
     0.0000000000000000   11.3826074065410019    0.0000000000000000
     0.0000000000000000    0.0000000000000000   11.3826072007779295
 Fe  Ti 
 126   2
Cartesian
 -0.0170495561623909 -0.0223411918568459 -0.0227800691432064
 -0.0330027312144571 -0.0270820062691597  2.8773460465293939
  1.4211980879061723  1.4248630979036692  4.2836656381513123
 -0.0017384916862585 -0.0022154692662280  5.6957575513869774
  1.4214072448435937  1.4246921260719962  7.1128258885375342
 -0.0015841559308841  0.0002870326100627  8.5333977719701526
  1.4000494038323246  1.4451648852954682  9.9427321234871791
 -0.0316987242651202  2.8784981591436005 -0.0271513418815631
  1.4208547026079112  4.2835702272639180  1.4243804180015323
 -0.0384757270734405  2.8840548242767046  2.8840420552233241
  1.4233658743034554  4.2744868235931488  4.2749762066148023
 -0.0051521466193493  2.8498892602767296  5.6974137418208732
  1.4230879674450589  4.2710288415533624  7.1132883053823415
 -0.0055967409545703  2.8528961644059136  8.5310106567701194
  1.4223589840682380  4.2733599318462945  9.9575422443580752
 -0.0022932812847638  5.6956792579802196 -0.0008107246786895
  1.4210201295096185  7.1131122582181474  1.4242226816614385
 -0.0041465702579171  5.6974662784188785  2.8508352471126037
  1.4230810846531263  7.1135619136609751  4.2692508862054872
 -0.0010735316463028  5.6937058630808641  5.6938769303632490
  1.4231967618118357  7.1125184573788527  7.1115070695669766
 -0.0021768130707175  5.6933140432399876  8.5331287679335688
  1.4220134248240213  7.1097611399800806  9.9574871567823457
 -0.0022439087528540  8.5320782961309156 -0.0004657492440274
  1.4003989255939167  9.9429013766048797  1.4456183421384439
 -0.0071476039968901  8.5311583688154968  2.8512241862988352
  1.4228830263310690  9.9583275058813712  4.2722214874627724
 -0.0024484639391271  8.5326632281455748  5.6921738243871678
  1.4204726608133904  9.9582297602760033  7.1096752670585897
 -0.0060119477976149  8.5282137556256732  8.5281553283545648
  1.3956761491719905  9.9269322240094571  9.9280771939285106
  4.2854700059338207  1.4455669464061678  1.4451387299880600
  2.8679646201774531 -0.0227418075656625  2.8626445315177769
  4.2705872039346797  1.4232474881430675  4.2735317177582379
  2.8475072562787309 -0.0013276985995607  5.6923907145468933
  4.2712157960391766  1.4236872008853887  7.1095894172019074
  2.8476531706122872 -0.0016005930655884  8.5216547064568431
  4.3001707022331912  1.4499072288852040  9.9267797269449183
  2.8684437855637395  2.8625325416363556 -0.0224249589734459
  4.2702683006099802  4.2718418818686059  1.4224653083143621
  2.8728212913664097  2.8772731716213307  2.8785129382221086
  4.2744837469609731  4.2773615277008821  4.2772102858680983
  2.8466866950601193  2.8482804228444003  5.6957723783341594
  4.2707407869650735  4.2724139659123139  7.1123789655508345
  2.8461353320922762  2.8476224254447362  8.5316309912798385
  4.2740506221869259  4.2742755409989526  9.9526395625365911
  2.8470485802277068  5.6923265871528486 -0.0018029458519329
  4.2697725261374098  7.1097544220881286  1.4251521798918163
  2.8479772437034625  5.6956801831247885  2.8469468453897830
  4.2708998284751036  7.1134376036256839  4.2726155776111181
  2.8453197534861174  5.6941045416109919  5.6929560297091033
  4.2695520674962157  7.1114758959647819  7.1117231117307833
  2.8454508339253266  5.6921477788410773  8.5349171405530075
  4.2736622347071185  7.1079709505390296  9.9556343671653487
  2.8472062361216768  8.5218644426300258 -0.0019734264637085
  4.3013383007538799  9.9281603663673028  1.4499945374927117
  2.8452901228252254  8.5335922604094403  2.8474419835381446
  4.2757660975681082  9.9542568659008008  4.2743661364548418
  2.8454637870824180  8.5359952309824223  5.6917094409523745
  4.2726330260876813  9.9546082771202027  7.1077129458290598
  2.8451868251809835  8.5304394244900301  8.5308393288945190
  4.3068665984778480  9.9213772653122607  9.9213003859335842
  5.7064905278133722 -0.0020372569848270 -0.0016285438887422
  7.1152183822416264  1.4241535035242607  1.4246816086702290
  5.6963574415622817 -0.0004210217058124  2.8477610526275665
  7.1149926269067389  1.4226964044657637  4.2712114071627880
  5.6940376023920933  0.0001322458549706  5.6921670123310042
  7.1170673874208044  1.4225965859927057  7.1125819488218145
  5.6973322528927586  0.0004030715850883  8.5302757299676362
  7.1185843169716678  1.4250417477588060  9.9580444380427586
  5.6950477841343430  2.8471043975234966  0.0000582746828443
  7.1145370103852530  4.2694368342125442  1.4226373648487003
  5.6971926487369782  2.8511764597727001  2.8529399126727779
  7.1165589907193683  4.2743317224716817  4.2744183748055864
  5.6952302083293409  2.8479899092516590  5.6935227290251298
  7.1174393555943096  4.2727325732471018  7.1110913996818264
  5.7002949279463655  2.8517007558697300  8.5282680482427491
  7.1150004591131291  4.2727686259064459  9.9573344356709192
  5.6920771344926573  5.6918724760794390  0.0002567251194596
  7.1157803493252638  7.1113280719487078  1.4224937633840566
  5.6954420921026552  5.6919944702998579  2.8480742510954871
  7.1172842316555753  7.1107504945354689  4.2723454782071029
  5.6951722664338336  5.6946797580242858  5.6944582953832770
  7.1181537682682734  7.1099194779708306  7.1099833157305978
  5.6970474975321581  5.6939897192167814  8.5310947628208265
  7.1167032389558571  7.1117262122963947  9.9587069638868382
  5.6978015151742234  8.5309473717833004  0.0005385365637664
  7.1185963606062828  9.9571539131591251  1.4238606018489648
  5.7000352783020150  8.5280717455632740  2.8516575400965785
  7.1163472166837689  9.9574445844153434  4.2724058372252678
  5.6972450203769895  8.5310995006052419  5.6937311673657636
  7.1165786529091042  9.9584467165739383  7.1113504163349379
  5.7015628627289141  8.5266428964408352  8.5265899664887748
  7.1202378690523496  9.9555441639171711  9.9546269503635880
  8.5356517583219755 -0.0018658259602499 -0.0014191310253241
  9.9444841318029908  1.4244252385623486  1.4248273812094572
  8.5324139129603846 -0.0008594909410629  2.8483917204983560
  9.9531015774511893  1.4224241490318366  4.2745073618050800
  8.5354063565454137  0.0002319328339848  5.6942428890896961
  9.9588106277453718  1.4227519910865332  7.1135118968486326
  8.5363357721185462  0.0000741031230184  8.5359829754833498
  9.9562242482076577  1.4225376674706831  9.9581958355684286
  8.5325057311722823  2.8472036596218189 -0.0023511704706955
  9.9536669263263988  4.2749934240922096  1.4223595218168108
  8.5305437612022139  2.8508262153844308  2.8498045011724460
  9.9494199000520158  4.2787887749185911  4.2787356911493371
  8.5341767610313646  2.8469859735572118  5.6937533180646556
  9.9540074381048846  4.2745607469465678  7.1113937946004846
  8.5363969309317547  2.8482183119497071  8.5326263345752178
  9.9509839892826868  4.2772193985350793  9.9537715662488875
  8.5343331296050700  5.6929123079103752  0.0003708317834490
  9.9577431678771973  7.1132878579806258  1.4226247198796773
  8.5345506946872849  5.6939524816990996  2.8467242479065682
  9.9539171920049654  7.1114424408981955  4.2742214379930559
  8.5328110354101785  5.6955089854852110  5.6953269159425988
  9.9558545429591696  7.1108951978252115  7.1108848893394043
  8.5337127918037137  5.6945356210401421  8.5330288895580306
  9.9559543804319759  7.1121202325789810  9.9576062269923700
  8.5361098723357731  8.5344059753437591  0.0002604641725953
  9.9544520231687628  9.9578128604681702  1.4233103112144689
  8.5351996013269034  8.5330208787059512  2.8479167044608213
  9.9510913968365262  9.9537331087947631  4.2774700429548362
  8.5339156913935401  8.5327001132088878  5.6946134696321984
  9.9554500546234035  9.9572150167029871  7.1135700575873946
  8.5342188512464361  8.5308689358879022  8.5311802788809761
  9.9538330744220698  9.9525368141295978  9.9541810186388204
  2.9049689006457151 -0.0593200622093990 -0.0593795478283574
  1.3634475978846679  1.4821430057833365  1.4821442070981212
