Fe Rh
 1.0000000000000000
    11.3659810638114500    0.0000000000000000    0.0000000000000000
     0.0000000000000000   11.3659810638114500    0.0000000000000000
     0.0000000000000000    0.0000000000000000   11.3659810638114500
 Fe  Rh 
 126   2
Cartesian
  0.0000000000000000  0.0000000000000000  0.0000000000000000
  1.4207476329764313  1.4207476329764313  1.4207476329764313
  0.0000000000000000  0.0000000000000000  2.8414952659528625
  1.4207476329764313  1.4207476329764313  4.2622428989292942
  0.0000000000000000  0.0000000000000000  5.6829905319057241
  1.4207476329764313  1.4207476329764313  7.1037381648821558
  0.0000000000000000  0.0000000000000000  8.5244857978585884
  1.4207476329764313  1.4207476329764313  9.9452334308350192
  0.0000000000000000  2.8414952659528625  0.0000000000000000
  1.4207476329764313  4.2622428989292942  1.4207476329764313
  0.0000000000000000  2.8414952659528625  2.8414952659528625
  1.4207476329764313  4.2622428989292942  4.2622428989292942
  0.0000000000000000  2.8414952659528625  5.6829905319057241
  1.4207476329764313  4.2622428989292942  7.1037381648821558
  0.0000000000000000  2.8414952659528625  8.5244857978585884
  1.4207476329764313  4.2622428989292942  9.9452334308350192
  0.0000000000000000  5.6829905319057241  0.0000000000000000
  1.4207476329764313  7.1037381648821558  1.4207476329764313
  0.0000000000000000  5.6829905319057241  2.8414952659528625
  1.4207476329764313  7.1037381648821558  4.2622428989292942
  0.0000000000000000  5.6829905319057241  5.6829905319057241
  1.4207476329764313  7.1037381648821558  7.1037381648821558
  0.0000000000000000  5.6829905319057241  8.5244857978585884
  1.4207476329764313  7.1037381648821558  9.9452334308350192
  0.0000000000000000  8.5244857978585884  0.0000000000000000
  1.4207476329764313  9.9452334308350192  1.4207476329764313
  0.0000000000000000  8.5244857978585884  2.8414952659528625
  1.4207476329764313  9.9452334308350192  4.2622428989292942
  0.0000000000000000  8.5244857978585884  5.6829905319057241
  1.4207476329764313  9.9452334308350192  7.1037381648821558
  0.0000000000000000  8.5244857978585884  8.5244857978585884
  1.4207476329764313  9.9452334308350192  9.9452334308350192
  4.2622428989292942  1.4207476329764313  1.4207476329764313
  2.8414952659528625  0.0000000000000000  2.8414952659528625
  4.2622428989292942  1.4207476329764313  4.2622428989292942
  2.8414952659528625  0.0000000000000000  5.6829905319057241
  4.2622428989292942  1.4207476329764313  7.1037381648821558
  2.8414952659528625  0.0000000000000000  8.5244857978585884
  4.2622428989292942  1.4207476329764313  9.9452334308350192
  4.2622428989292942  4.2622428989292942  1.4207476329764313
  2.8414952659528625  2.8414952659528625  2.8414952659528625
  4.2622428989292942  4.2622428989292942  4.2622428989292942
  2.8414952659528625  2.8414952659528625  5.6829905319057241
  4.2622428989292942  4.2622428989292942  7.1037381648821558
  2.8414952659528625  2.8414952659528625  8.5244857978585884
  4.2622428989292942  4.2622428989292942  9.9452334308350192
  2.8414952659528625  5.6829905319057241  0.0000000000000000
  4.2622428989292942  7.1037381648821558  1.4207476329764313
  2.8414952659528625  5.6829905319057241  2.8414952659528625
  4.2622428989292942  7.1037381648821558  4.2622428989292942
  2.8414952659528625  5.6829905319057241  5.6829905319057241
  4.2622428989292942  7.1037381648821558  7.1037381648821558
  2.8414952659528625  5.6829905319057241  8.5244857978585884
  4.2622428989292942  7.1037381648821558  9.9452334308350192
  2.8414952659528625  8.5244857978585884  0.0000000000000000
  4.2622428989292942  9.9452334308350192  1.4207476329764313
  2.8414952659528625  8.5244857978585884  2.8414952659528625
  4.2622428989292942  9.9452334308350192  4.2622428989292942
  2.8414952659528625  8.5244857978585884  5.6829905319057241
  4.2622428989292942  9.9452334308350192  7.1037381648821558
  2.8414952659528625  8.5244857978585884  8.5244857978585884
  4.2622428989292942  9.9452334308350192  9.9452334308350192
  5.6829905319057241  0.0000000000000000  0.0000000000000000
  7.1037381648821558  1.4207476329764313  1.4207476329764313
  5.6829905319057241  0.0000000000000000  2.8414952659528625
  7.1037381648821558  1.4207476329764313  4.2622428989292942
  5.6829905319057241  0.0000000000000000  5.6829905319057241
  7.1037381648821558  1.4207476329764313  7.1037381648821558
  5.6829905319057241  0.0000000000000000  8.5244857978585884
  7.1037381648821558  1.4207476329764313  9.9452334308350192
  5.6829905319057241  2.8414952659528625  0.0000000000000000
  7.1037381648821558  4.2622428989292942  1.4207476329764313
  5.6829905319057241  2.8414952659528625  2.8414952659528625
  7.1037381648821558  4.2622428989292942  4.2622428989292942
  5.6829905319057241  2.8414952659528625  5.6829905319057241
  7.1037381648821558  4.2622428989292942  7.1037381648821558
  5.6829905319057241  2.8414952659528625  8.5244857978585884
  7.1037381648821558  4.2622428989292942  9.9452334308350192
  5.6829905319057241  5.6829905319057241  0.0000000000000000
  7.1037381648821558  7.1037381648821558  1.4207476329764313
  5.6829905319057241  5.6829905319057241  2.8414952659528625
  7.1037381648821558  7.1037381648821558  4.2622428989292942
  5.6829905319057241  5.6829905319057241  5.6829905319057241
  7.1037381648821558  7.1037381648821558  7.1037381648821558
  5.6829905319057241  5.6829905319057241  8.5244857978585884
  7.1037381648821558  7.1037381648821558  9.9452334308350192
  5.6829905319057241  8.5244857978585884  0.0000000000000000
  7.1037381648821558  9.9452334308350192  1.4207476329764313
  5.6829905319057241  8.5244857978585884  2.8414952659528625
  7.1037381648821558  9.9452334308350192  4.2622428989292942
  5.6829905319057241  8.5244857978585884  5.6829905319057241
  7.1037381648821558  9.9452334308350192  7.1037381648821558
  5.6829905319057241  8.5244857978585884  8.5244857978585884
  7.1037381648821558  9.9452334308350192  9.9452334308350192
  8.5244857978585884  0.0000000000000000  0.0000000000000000
  9.9452334308350192  1.4207476329764313  1.4207476329764313
  8.5244857978585884  0.0000000000000000  2.8414952659528625
  9.9452334308350192  1.4207476329764313  4.2622428989292942
  8.5244857978585884  0.0000000000000000  5.6829905319057241
  9.9452334308350192  1.4207476329764313  7.1037381648821558
  8.5244857978585884  0.0000000000000000  8.5244857978585884
  9.9452334308350192  1.4207476329764313  9.9452334308350192
  8.5244857978585884  2.8414952659528625  0.0000000000000000
  9.9452334308350192  4.2622428989292942  1.4207476329764313
  8.5244857978585884  2.8414952659528625  2.8414952659528625
  9.9452334308350192  4.2622428989292942  4.2622428989292942
  8.5244857978585884  2.8414952659528625  5.6829905319057241
  9.9452334308350192  4.2622428989292942  7.1037381648821558
  8.5244857978585884  2.8414952659528625  8.5244857978585884
  9.9452334308350192  4.2622428989292942  9.9452334308350192
  8.5244857978585884  5.6829905319057241  0.0000000000000000
  9.9452334308350192  7.1037381648821558  1.4207476329764313
  8.5244857978585884  5.6829905319057241  2.8414952659528625
  9.9452334308350192  7.1037381648821558  4.2622428989292942
  8.5244857978585884  5.6829905319057241  5.6829905319057241
  9.9452334308350192  7.1037381648821558  7.1037381648821558
  8.5244857978585884  5.6829905319057241  8.5244857978585884
  9.9452334308350192  7.1037381648821558  9.9452334308350192
  8.5244857978585884  8.5244857978585884  0.0000000000000000
  9.9452334308350192  9.9452334308350192  1.4207476329764313
  8.5244857978585884  8.5244857978585884  2.8414952659528625
  9.9452334308350192  9.9452334308350192  4.2622428989292942
  8.5244857978585884  8.5244857978585884  5.6829905319057241
  9.9452334308350192  9.9452334308350192  7.1037381648821558
  8.5244857978585884  8.5244857978585884  8.5244857978585884
  9.9452334308350192  9.9452334308350192  9.9452334308350192
  2.8414952659528625  0.0000000000000000  0.0000000000000000
  2.8414952659528625  2.8414952659528625  0.0000000000000000
