Fe
 1.0000000000000000
    11.3709229028527403    0.0000000011276733   -0.0000000033525648
     0.0000000011276733   11.3709228899577823   -0.0000000000161715
    -0.0000000033525648   -0.0000000000161715   11.3709228962162658
 Fe 
 127
Cartesian
  1.3682453323324812  1.3682454445121606  1.3682452558929574
 -0.0000002399244354  0.0000000483210977  2.8832326554890200
  1.4233598724760039  1.4232755043466481  4.2656550396829420
 -0.0000000128786017  0.0000001388283207  5.6854613068057640
  1.4232753875582154  1.4233600757178642  7.1052678527748085
 -0.0000000853282609 -0.0000001189449509  8.4876903285855896
  1.3682452855493499  1.3682453529231622 10.0026777128960003
 -0.0000000743169224  2.8832326814003508 -0.0000000955186951
  1.4232756735318430  4.2656549814557776  1.4233599311470280
 -0.0000000293239037  2.8310860520246468  2.8310862530593046
  1.4205663891134652  4.2637951268092307  4.2638373223597164
 -0.0000000367499446  2.8339764024445313  5.6854614011402331
  1.4205663611843873  4.2638374420711092  7.1071277812681357
 -0.0000001034116263  2.8310860399678321  8.5398366386076656
  1.4233600423266335  4.2656549331720486  9.9476475080249323
  0.0000000672209870  5.6854614856964174 -0.0000001583687185
  1.4233601005168013  7.1052680175180063  1.4232754440256661
  0.0000000504148389  5.6854614408885755  2.8339765745104541
  1.4205662823051461  7.1070855303135678  4.2637951126347904
  0.0000000914527679  5.6854615339952606  5.6854614226146243
  1.4205662956588336  7.1071279152765197  7.1070854537794705
 -0.0000000463847161  5.6854614539273545  8.5369462420773505
  1.4232754304585766  7.1052677913944313  9.9475629267577226
  0.0000000898101122  8.4876904856101856  0.0000001429173808
  1.3682452856737211 10.0026772305899172  1.3682452781575216
  0.0000000952775297  8.5398367999045632  2.8310859995408904
  1.4232755154502754  9.9475628031258658  4.2656549678619875
  0.0000000874196260  8.5369462980769004  5.6854615260922126
  1.4233600917510889  9.9476471688943775  7.1052680077050629
 -0.0000001030543416  8.5398369546620199  8.5398365802095437
  1.3682452263789080 10.0026775258527998 10.0026775324464108
  2.8832327327976062  0.0000001200062282 -0.0000001000379176
  4.2656549313161962  1.4233600383913547  1.4232753774977178
  2.8310863765533294  0.0000000281081226  2.8310862462662394
  4.2638373923708626  1.4205664127108866  4.2637951260894509
  2.8339765982050986 -0.0000000016280912  5.6854613942951930
  4.2637950571186582  1.4205661478724880  7.1070855960062866
  2.8310863267190816 -0.0000000404640329  8.5398367311359582
  4.2656548346604870  1.4232754512667602  9.9475629447390386
  2.8310861634395770  2.8310861217695686 -0.0000000954448925
  4.2637949653152205  4.2638373423765001  1.4205663638523371
  2.8248684373250597  2.8248685339987896  2.8248683149252471
  4.2562038661526103  4.2562038131845394  4.2562039583748303
  2.8379923381667953  2.8379924729651935  5.6854614063759970
  4.2562038890283747  4.2562040245584543  7.1147189703845424
  2.8248684406416436  2.8248684126004546  8.5460546764264507
  4.2638372554371307  4.2637948386483080  9.9503565605105617
  2.8339764709217907  5.6854613827209590  0.0000000479632051
  4.2638374874773133  7.1071278739141128  1.4205664392293400
  2.8379924025464502  5.6854613448793074  2.8379922800547241
  4.2562041183071555  7.1147188144605700  4.2562039302342125
  2.8407726397346194  5.6854614319056251  5.6854615130421964
  4.2562040615308128  7.1147188452624981  7.1147190122536434
  2.8379924591352643  5.6854614140706889  8.5329305385799881
  4.2637951378852303  7.1070855475759522  9.9503565298579719
  2.8310860883176066  8.5398367465547391  0.0000001852044923
  4.2656549817373230  9.9476472987221847  1.4233599694202936
  2.8248683327667976  8.5460546298757798  2.8248682394291316
  4.2637951380765013  9.9503567392071748  4.2638372530432971
  2.8379921659888776  8.5329305484136544  5.6854615436621936
  4.2638373865103185  9.9503566110423325  7.1071278822971733
  2.8248684112181253  8.5460545478140784  8.5460543717285713
  4.2656549208800110  9.9475631597847798  9.9476474328531506
  5.6854612348278382 -0.0000001094534073  0.0000000329605379
  7.1052680465995994  1.4232754699912518  1.4233601072200377
  5.6854614405517596 -0.0000000881471651  2.8339765475255532
  7.1071278342215827  1.4205663458746076  4.2638372781450062
  5.6854613437421246 -0.0000001640151435  5.6854613715285343
  7.1070856411600669  1.4205663660886811  7.1071278908867885
  5.6854614256823872 -0.0000001546937939  8.5369462920350152
  7.1052682098242297  1.4233602395825662  9.9476472538000813
  5.6854614198896760  2.8339764522090456 -0.0000000819042607
  7.1070856306304622  4.2637951520036221  1.4205662997480266
  5.6854614313607863  2.8379923296772440  2.8379924751964078
  7.1147189727023790  4.2562037772714039  4.2562040710184528
  5.6854614349159540  2.8407727988019440  5.6854613927393736
  7.1147187754418892  4.2562039564101939  7.1147189453780779
  5.6854615450575077  2.8379923866754568  8.5329305562334863
  7.1071279270580829  4.2638372009076395  9.9503564751062044
  5.6854614993205388  5.6854615490447795  0.0000001899021998
  7.1071278521357488  7.1070855856643966  1.4205663248558860
  5.6854613860008136  5.6854615645175208  2.8407727123613906
  7.1147190385396160  7.1147189230814130  4.2562040465873379
  5.6854614391643912  5.6854615035268736  5.6854614505461383
  7.1147188128649352  7.1147189815280756  7.1147188460881177
  5.6854615611702348  5.6854614133925558  8.5301499713940707
  7.1070857602863251  7.1071277415746907  9.9503564698141709
  5.6854613656277007  8.5369463345779870  0.0000000984656082
  7.1052679513994246  9.9475628563108867  1.4232755678234019
  5.6854614552135532  8.5329306621671872  2.8379923000678398
  7.1070855370368191  9.9503567029601676  4.2637950742061692
  5.6854615721344244  8.5301501170741894  5.6854615742121721
  7.1071276511474881  9.9503564876548030  7.1070854333705729
  5.6854615290169175  8.5329304840857674  8.5329303783150756
  7.1052680731485669  9.9476475518124197  9.9475627384582772
  8.4876904036179006  0.0000000367275928 -0.0000000747671748
 10.0026775537860804  1.3682453298728288  1.3682453684125275
  8.5398367207901860  0.0000000068448737  2.8310861936683809
  9.9476474443428042  1.4233599452486647  4.2656547898126984
  8.5369463215451606  0.0000001288729021  5.6854613007164927
  9.9475629958212686  1.4232756012044370  7.1052680397548809
  8.5398366793790181  0.0000000691490329  8.5398369681010955
 10.0026774028118357  1.3682454250275533 10.0026775287449983
  8.5398369117959145  2.8310861062996908 -0.0000001047508351
  9.9475628029615724  4.2656550171722545  1.4232754719949166
  8.5460545097424010  2.8248683351481261  2.8248683969591903
  9.9503565795809568  4.2638373506618850  4.2637950093373469
  8.5329305189817681  2.8379922583196948  5.6854613208510036
  9.9503567135238473  4.2637950682965515  7.1070854723402768
  8.5460544224951889  2.8248682497642239  8.5460545506959740
  9.9476474216137944  4.2656548501637355  9.9475629560348615
  8.5369464911666757  5.6854615246341726  0.0000000564867081
  9.9476472469777182  7.1052680432259718  1.4233599515507613
  8.5329304748942878  5.6854615138983480  2.8379923368927455
  9.9503565058535557  7.1071276788323852  4.2638373463864010
  8.5301502984996773  5.6854615361932490  5.6854613434488055
  9.9503565049155434  7.1070856573807193  7.1071276938114885
  8.5329305882597541  5.6854614682761806  8.5329306198993038
  9.9475626933825723  7.1052680855915904  9.9476474533757884
  8.5398368504482001  8.5398365680310082  0.0000000865920922
 10.0026776955089929 10.0026774454249860  1.3682454074461152
  8.5460544820060651  8.5460544851043938  2.8248682603643531
  9.9475628541761267  9.9476475717825323  4.2656547674012657
  8.5329306471457169  8.5329304148735776  5.6854614091328761
  9.9476474823292058  9.9475625987249998  7.1052680402762007
  8.5460545750709418  8.5460544568253987  8.5460545707889963
 10.0026775322410941 10.0026775023233299 10.0026774204658260
