Fe
 1.0000000000000000
    11.3822442397713672    0.0000000000000000    0.0000000000000000
     0.0000000000000000   11.3822442397713672    0.0000000000000000
     0.0000000000000000    0.0000000000000000   47.0328300694569990
 Fe 
 320
Selective dynamics
Cartesian
  1.4227804760195797  1.4227805352083003  9.9736340535525425   T   T   T
  4.2683415415139487  1.4227805839247900  9.9736339340341793   T   T   T
  7.1139026737889548  1.4227805819233750  9.9736339196533130   T   T   T
  9.9594637804574262  1.4227805465121204  9.9736339507048637   T   T   T
  1.4227805238325071  4.2683415741203641  9.9736339672220584   T   T   T
  4.2683415638085922  4.2683415514767571  9.9736340363809006   T   T   T
  7.1139025956657722  4.2683415664163933  9.9736339818848929   T   T   T
  9.9594637088777400  4.2683415493890573  9.9736340725941339   T   T   T
  1.4227805416821548  7.1139026337139173  9.9736340647715060   T   T   T
  4.2683415638511537  7.1139026700726822  9.9736340424319820   T   T   T
  7.1139026143293185  7.1139026016253126  9.9736339880978786   T   T   T
  9.9594637097679772  7.1139026369670244  9.9736339866180188   T   T   T
  1.4227805915285272  9.9594637120852791  9.9736339989638889   T   T   T
  4.2683415429777867  9.9594636446887961  9.9736340149656311   T   T   T
  7.1139026141014918  9.9594636780029902  9.9736339065026840   T   T   T
  9.9594637172744473  9.9594637868329592  9.9736339685220656   T   T   T
 -0.0000000359065097 -0.0000000129635122 11.4044911356992564   T   T   T
  2.8455610101393130 -0.0000000366563900 11.4044910968984574   T   T   T
  5.6911221590621555 -0.0000000190784901 11.4044910915779205   T   T   T
  8.5366831980131757  0.0000000534970285 11.4044911826607365   T   T   T
 -0.0000000391569141  2.8455610241340970 11.4044910515648308   T   T   T
  2.8455610296810829  2.8455610745207833 11.4044910963377202   T   T   T
  5.6911221153987563  2.8455611446849147 11.4044910509988604   T   T   T
  8.5366832483831967  2.8455610983980457 11.4044910800666344   T   T   T
 -0.0000000023581814  5.6911221211692835 11.4044910632178809   T   T   T
  2.8455610420470121  5.6911220744618820 11.4044910956101617   T   T   T
  5.6911221316062228  5.6911220962221156 11.4044910803063360   T   T   T
  8.5366831910649132  5.6911220662156294 11.4044909907782195   T   T   T
 -0.0000000277387181  8.5366831799138012 11.4044911543270029   T   T   T
  2.8455610088106225  8.5366831762592472 11.4044910584525176   T   T   T
  5.6911220913330913  8.5366831664783813 11.4044911965225477   T   T   T
  8.5366832512149795  8.5366832309191807 11.4044911903170139   T   T   T
  1.4227805391160635  1.4227804644603894 12.8426450140691273   T   T   T
  4.2683416164079819  1.4227805218204164 12.8426450492379427   T   T   T
  7.1139026711023101  1.4227804858863968 12.8426450431136363   T   T   T
  9.9594636593309644  1.4227805177110342 12.8426450016484939   T   T   T
  1.4227804976351239  4.2683416274988915 12.8426451072803687   T   T   T
  4.2683415587725797  4.2683415897761758 12.8426450200465876   T   T   T
  7.1139026703980779  4.2683415394347293 12.8426449921093901   T   T   T
  9.9594637173585951  4.2683415189623863 12.8426450249897215   T   T   T
  1.4227804916653368  7.1139026733589521 12.8426450382479409   T   T   T
  4.2683416621300747  7.1139025955663149 12.8426450372488929   T   T   T
  7.1139026449579230  7.1139026608226068 12.8426450037456430   T   T   T
  9.9594637068642218  7.1139027133419308 12.8426450597644219   T   T   T
  1.4227804632105001  9.9594637161872690 12.8426449822219944   T   T   T
  4.2683416830010961  9.9594636983162257 12.8426449677956533   T   T   T
  7.1139026326118442  9.9594637140559037 12.8426450397359773   T   T   T
  9.9594636879381842  9.9594637156562840 12.8426449764374340   T   T   T
  0.0000000158503975 -0.0000000069397826 14.2310263829654531   T   T   T
  2.8455610969408203  0.0000000702398822 14.2310263567975781   T   T   T
  5.6911221244010761  0.0000000367324970 14.2310263358313058   T   T   T
  8.5366831861071528  0.0000000226216375 14.2310263343698047   T   T   T
 -0.0000000148926519  2.8455610128076270 14.2310264128727031   T   T   T
  2.8455610478932853  2.8455610531378253 14.2310263286477845   T   T   T
  5.6911221158680609  2.8455610547973702 14.2310263396736865   T   T   T
  8.5366831668662559  2.8455610639871347 14.2310263389723932   T   T   T
  0.0000000000941862  5.6911221122979363 14.2310263394655081   T   T   T
  2.8455610036293244  5.6911220779702987 14.2310263301097599   T   T   T
  5.6911220955612869  5.6911220928883779 14.2310263526440313   T   T   T
  8.5366832248729647  5.6911220400860980 14.2310263814373670   T   T   T
  0.0000000407627857  8.5366831342451324 14.2310263269147796   T   T   T
  2.8455610238899363  8.5366831560981407 14.2310263269616186   T   T   T
  5.6911221038624813  8.5366831532133691 14.2310263438514717   T   T   T
  8.5366832166568205  8.5366831773897101 14.2310263496166698   T   T   T
  1.4227805306273051  1.4227805236771645 15.6795676334767364   T   T   T
  4.2683415932861362  1.4227804994928992 15.6795676270553841   T   T   T
  7.1139026608710978  1.4227805570425647 15.6795676189483082   T   T   T
  9.9594637559467607  1.4227805361174093 15.6795676187758293   T   T   T
  1.4227805122639319  4.2683415588017466 15.6795676070648504   T   T   T
  4.2683415578565809  4.2683416300117392 15.6795676065358087   T   T   T
  7.1139026945058577  4.2683415671890961 15.6795675861114479   T   T   T
  9.9594637528345658  4.2683415410634957 15.6795675913736456   T   T   T
  1.4227805142048129  7.1139026274849622 15.6795676291788730   T   T   T
  4.2683415780186742  7.1139025854280309 15.6795675692788041   T   T   T
  7.1139026975118620  7.1139026395373257 15.6795675952465619   T   T   T
  9.9594636997068235  7.1139025856498739 15.6795675855393615   T   T   T
  1.4227805500629638  9.9594637359892193 15.6795676213879229   T   T   T
  4.2683416067484794  9.9594637188503707 15.6795675936622452   T   T   T
  7.1139026751279717  9.9594637087194133 15.6795676186123121   T   T   T
  9.9594637143100559  9.9594637528586034 15.6795676123388024   T   T   T
 -0.0000000220162124 -0.0000000388860192 17.0924182495663040   T   T   T
  2.8455610605039876 -0.0000000704065985 17.0924182700675047   T   T   T
  5.6911221116229145  0.0000000451516664 17.0924182734828385   T   T   T
  8.5366831620350379  0.0000000337484095 17.0924182829868769   T   T   T
  0.0000000133482108  2.8455610544454548 17.0924182557563213   T   T   T
  2.8455611307072330  2.8455610407602308 17.0924182808090706   T   T   T
  5.6911221350524039  2.8455609987066706 17.0924182710744965   T   T   T
  8.5366832121648049  2.8455611075010312 17.0924182514680894   T   T   T
 -0.0000000007196545  5.6911220741334665 17.0924182842357766   T   T   T
  2.8455610463911922  5.6911221164290069 17.0924183063763486   T   T   T
  5.6911221428406868  5.6911220636763735 17.0924182364110600   T   T   T
  8.5366831924856221  5.6911221151711633 17.0924182764985595   T   T   T
  0.0000000379172155  8.5366831212899861 17.0924182019251596   T   T   T
  2.8455610385375065  8.5366831086275887 17.0924182291052702   T   T   T
  5.6911220655432508  8.5366831760503850 17.0924182019027882   T   T   T
  8.5366831877658331  8.5366830849737614 17.0924182830313285   T   T   T
  1.4227805204170973  1.4227805473117876 18.5331125222932691   T   T   T
  4.2683415654023049  1.4227805622155165 18.5331124963177700   T   T   T
  7.1139026652565960  1.4227805610050139 18.5331124897217236   T   T   T
  9.9594637202865730  1.4227805332558980 18.5331124978590189   T   T   T
  1.4227805736720684  4.2683416317629144 18.5331125230763050   T   T   T
  4.2683416221288999  4.2683416229815432 18.5331124563882348   T   T   T
  7.1139026287779519  4.2683415985427047 18.5331124953878437   T   T   T
  9.9594637250470139  4.2683415840274028 18.5331125062816611   T   T   T
  1.4227805561921343  7.1139025894124970 18.5331125018282847   T   T   T
  4.2683416280677831  7.1139026375409840 18.5331124731592425   T   T   T
  7.1139026513693864  7.1139026559977614 18.5331124449495981   T   T   T
  9.9594636756539980  7.1139026417293501 18.5331124885557763   T   T   T
  1.4227805262747382  9.9594636782973911 18.5331124305065771   T   T   T
  4.2683416137234911  9.9594637117881106 18.5331124709340038   T   T   T
  7.1139026909797254  9.9594636976338631 18.5331125042446239   T   T   T
  9.9594637231642746  9.9594636664884835 18.5331124848437696   T   T   T
  0.0000000600822580 -0.0000000582575682 19.9598897278481466   T   T   T
  2.8455611351319789 -0.0000001084800908 19.9598896928475753   T   T   T
  5.6911221079951329 -0.0000000092844271 19.9598897312988726   T   T   T
  8.5366831927837463  0.0000000172313157 19.9598897318919164   T   T   T
  0.0000000216983184  2.8455610643231894 19.9598898070138056   T   T   T
  2.8455610630716457  2.8455610576748462 19.9598897700451907   T   T   T
  5.6911221629130431  2.8455610021717002 19.9598897466397318   T   T   T
  8.5366831538893422  2.8455610592372054 19.9598897669577227   T   T   T
  0.0000000170326450  5.6911221401608278 19.9598897407160543   T   T   T
  2.8455610575532426  5.6911221754180055 19.9598897722714170   T   T   T
  5.6911221017196576  5.6911220941308560 19.9598897999257474   T   T   T
  8.5366831799906979  5.6911221122879798 19.9598897420169230   T   T   T
  0.0000000329548298  8.5366831164775299 19.9598897163884388   T   T   T
  2.8455610774004749  8.5366831299776802 19.9598897059742981   T   T   T
  5.6911221123170144  8.5366832176311949 19.9598897388087195   T   T   T
  8.5366832000904100  8.5366831296366801 19.9598897697444357   T   T   T
  1.4227805299714209  1.4227805299714209 21.3822442397713672   F   F   F
  4.2683415899142627  1.4227805299714209 21.3822442397713672   F   F   F
  7.1139026498571045  1.4227805299714209 21.3822442397713672   F   F   F
  9.9594637097999463  1.4227805299714209 21.3822442397713672   F   F   F
  1.4227805299714209  4.2683415899142627 21.3822442397713672   F   F   F
  4.2683415899142627  4.2683415899142627 21.3822442397713672   F   F   F
  7.1139026498571045  4.2683415899142627 21.3822442397713672   F   F   F
  9.9594637097999463  4.2683415899142627 21.3822442397713672   F   F   F
  1.4227805299714209  7.1139026498571045 21.3822442397713672   F   F   F
  4.2683415899142627  7.1139026498571045 21.3822442397713672   F   F   F
  7.1139026498571045  7.1139026498571045 21.3822442397713672   F   F   F
  9.9594637097999463  7.1139026498571045 21.3822442397713672   F   F   F
  1.4227805299714209  9.9594637097999463 21.3822442397713672   F   F   F
  4.2683415899142627  9.9594637097999463 21.3822442397713672   F   F   F
  7.1139026498571045  9.9594637097999463 21.3822442397713672   F   F   F
  9.9594637097999463  9.9594637097999463 21.3822442397713672   F   F   F
  0.0000000000000000  0.0000000000000000 22.8050247697427864   F   F   F
  2.8455610599428418  0.0000000000000000 22.8050247697427864   F   F   F
  5.6911221198856836  0.0000000000000000 22.8050247697427864   F   F   F
  8.5366831798285254  0.0000000000000000 22.8050247697427864   F   F   F
  0.0000000000000000  2.8455610599428418 22.8050247697427864   F   F   F
  2.8455610599428418  2.8455610599428418 22.8050247697427864   F   F   F
  5.6911221198856836  2.8455610599428418 22.8050247697427864   F   F   F
  8.5366831798285254  2.8455610599428418 22.8050247697427864   F   F   F
  0.0000000000000000  5.6911221198856836 22.8050247697427864   F   F   F
  2.8455610599428418  5.6911221198856836 22.8050247697427864   F   F   F
  5.6911221198856836  5.6911221198856836 22.8050247697427864   F   F   F
  8.5366831798285254  5.6911221198856836 22.8050247697427864   F   F   F
  0.0000000000000000  8.5366831798285254 22.8050247697427864   F   F   F
  2.8455610599428418  8.5366831798285254 22.8050247697427864   F   F   F
  5.6911221198856836  8.5366831798285254 22.8050247697427864   F   F   F
  8.5366831798285254  8.5366831798285254 22.8050247697427864   F   F   F
  1.4227805299714209  1.4227805299714209 24.2278052997142090   F   F   F
  4.2683415899142627  1.4227805299714209 24.2278052997142090   F   F   F
  7.1139026498571045  1.4227805299714209 24.2278052997142090   F   F   F
  9.9594637097999463  1.4227805299714209 24.2278052997142090   F   F   F
  1.4227805299714209  4.2683415899142627 24.2278052997142090   F   F   F
  4.2683415899142627  4.2683415899142627 24.2278052997142090   F   F   F
  7.1139026498571045  4.2683415899142627 24.2278052997142090   F   F   F
  9.9594637097999463  4.2683415899142627 24.2278052997142090   F   F   F
  1.4227805299714209  7.1139026498571045 24.2278052997142090   F   F   F
  4.2683415899142627  7.1139026498571045 24.2278052997142090   F   F   F
  7.1139026498571045  7.1139026498571045 24.2278052997142090   F   F   F
  9.9594637097999463  7.1139026498571045 24.2278052997142090   F   F   F
  1.4227805299714209  9.9594637097999463 24.2278052997142090   F   F   F
  4.2683415899142627  9.9594637097999463 24.2278052997142090   F   F   F
  7.1139026498571045  9.9594637097999463 24.2278052997142090   F   F   F
  9.9594637097999463  9.9594637097999463 24.2278052997142090   F   F   F
  0.0000000000000000  0.0000000000000000 25.6505858296856317   F   F   F
  2.8455610599428418  0.0000000000000000 25.6505858296856317   F   F   F
  5.6911221198856836  0.0000000000000000 25.6505858296856317   F   F   F
  8.5366831798285254  0.0000000000000000 25.6505858296856317   F   F   F
  0.0000000000000000  2.8455610599428418 25.6505858296856317   F   F   F
  2.8455610599428418  2.8455610599428418 25.6505858296856317   F   F   F
  5.6911221198856836  2.8455610599428418 25.6505858296856317   F   F   F
  8.5366831798285254  2.8455610599428418 25.6505858296856317   F   F   F
  0.0000000000000000  5.6911221198856836 25.6505858296856317   F   F   F
  2.8455610599428418  5.6911221198856836 25.6505858296856317   F   F   F
  5.6911221198856836  5.6911221198856836 25.6505858296856317   F   F   F
  8.5366831798285254  5.6911221198856836 25.6505858296856317   F   F   F
  0.0000000000000000  8.5366831798285254 25.6505858296856317   F   F   F
  2.8455610599428418  8.5366831798285254 25.6505858296856317   F   F   F
  5.6911221198856836  8.5366831798285254 25.6505858296856317   F   F   F
  8.5366831798285254  8.5366831798285254 25.6505858296856317   F   F   F
  1.4227804884702138  1.4227805196521430 27.0729403087527984   T   T   T
  4.2683415701996532  1.4227805110061598 27.0729403118371899   T   T   T
  7.1139026691659542  1.4227805647175995 27.0729403351591777   T   T   T
  9.9594636693475884  1.4227805032338761 27.0729403294819022   T   T   T
  1.4227804933758665  4.2683416287706226 27.0729402665079100   T   T   T
  4.2683415373586326  4.2683415834791347 27.0729403413729592   T   T   T
  7.1139026574920603  4.2683416302307338 27.0729403153732484   T   T   T
  9.9594637099802394  4.2683415787220698 27.0729403155516479   T   T   T
  1.4227805311357002  7.1139026926112017 27.0729402946616062   T   T   T
  4.2683416207851161  7.1139026597983817 27.0729403100596002   T   T   T
  7.1139025994339686  7.1139026286869376 27.0729403231240120   T   T   T
  9.9594637202224519  7.1139026513675772 27.0729403149546144   T   T   T
  1.4227805398961346  9.9594637021733643 27.0729402919726674   T   T   T
  4.2683415824197981  9.9594637140070947 27.0729402980827736   T   T   T
  7.1139026386197663  9.9594637191172151 27.0729403436319238   T   T   T
  9.9594636617370575  9.9594636612277796 27.0729403252860159   T   T   T
  0.0000000151653103 -0.0000000159492523 28.4997175566047929   T   T   T
  2.8455610702331078  0.0000000003012564 28.4997175680580455   T   T   T
  5.6911220885559919  0.0000000363638250 28.4997175596630328   T   T   T
  8.5366831857128709 -0.0000000291969354 28.4997175706926029   T   T   T
 -0.0000000254872429  2.8455610532333497 28.4997175693728373   T   T   T
  2.8455610554471820  2.8455610500343229 28.4997175514676186   T   T   T
  5.6911220976521335  2.8455610226794490 28.4997175592530674   T   T   T
  8.5366831719227090  2.8455610683114037 28.4997175507288709   T   T   T
 -0.0000000211057377  5.6911221221076564 28.4997176018191389   T   T   T
  2.8455610480111080  5.6911221105608973 28.4997175593934102   T   T   T
  5.6911221099728735  5.6911221545476094 28.4997175500655651   T   T   T
  8.5366831310422562  5.6911221475084766 28.4997175779948471   T   T   T
  0.0000000140353268  8.5366831316990179 28.4997175835895042   T   T   T
  2.8455610947421048  8.5366831615557679 28.4997175272103789   T   T   T
  5.6911220875828432  8.5366832386880880 28.4997175381588868   T   T   T
  8.5366831680408133  8.5366831537266599 28.4997175595381442   T   T   T
  1.4227805442712018  1.4227805482807740 29.9404118204167133   T   T   T
  4.2683415993594824  1.4227805094712733 29.9404117473787359   T   T   T
  7.1139026747881111  1.4227804789062870 29.9404117990473182   T   T   T
  9.9594637094728018  1.4227804830299038 29.9404118017448972   T   T   T
  1.4227805530479922  4.2683415918864585 29.9404118401072452   T   T   T
  4.2683415630008401  4.2683415563151339 29.9404118303578137   T   T   T
  7.1139026405970691  4.2683415947264312 29.9404117938630456   T   T   T
  9.9594637224315505  4.2683415929596382 29.9404118057916264   T   T   T
  1.4227805040429704  7.1139025915068554 29.9404118121898506   T   T   T
  4.2683415927623631  7.1139026221703849 29.9404117853273171   T   T   T
  7.1139026230905600  7.1139026167977155 29.9404117833955787   T   T   T
  9.9594636782302253  7.1139026922084714 29.9404117945138495   T   T   T
  1.4227805333716677  9.9594636610806280 29.9404117732082042   T   T   T
  4.2683416156795815  9.9594637045266037 29.9404118035442082   T   T   T
  7.1139026296040564  9.9594636896753190 29.9404118001861264   T   T   T
  9.9594637476413084  9.9594636948532411 29.9404117787763973   T   T   T
 -0.0000000009039208  0.0000000265338410 31.3532624590885582   T   T   T
  2.8455610581541388  0.0000000330039490 31.3532624478569559   T   T   T
  5.6911220860878071 -0.0000000008721049 31.3532624735436620   T   T   T
  8.5366831639350433 -0.0000000463977237 31.3532624546572976   T   T   T
  0.0000000290101632  2.8455611116356434 31.3532624167791241   T   T   T
  2.8455610519584678  2.8455611106263201 31.3532624148280483   T   T   T
  5.6911221204173499  2.8455610455940068 31.3532624516033209   T   T   T
  8.5366831713968310  2.8455610770973401 31.3532624454163198   T   T   T
  0.0000000306561909  5.6911221131159273 31.3532624017065622   T   T   T
  2.8455610747835465  5.6911221566371548 31.3532624242921543   T   T   T
  5.6911221039636137  5.6911221232525078 31.3532624789996284   T   T   T
  8.5366831766009277  5.6911221460485537 31.3532624934447526   T   T   T
  0.0000000258108179  8.5366831795253528 31.3532624489316625   T   T   T
  2.8455610085772038  8.5366832247410080 31.3532624770277870   T   T   T
  5.6911220684435966  8.5366831399107213 31.3532624822182342   T   T   T
  8.5366831301814390  8.5366831974754778 31.3532624578809482   T   T   T
  1.4227804819351535  1.4227804734000118 32.8018037533046112   T   T   T
  4.2683415825397146  1.4227804771535886 32.8018037634274151   T   T   T
  7.1139026670403203  1.4227805215939275 32.8018037302004828   T   T   T
  9.9594636657994027  1.4227805153153794 32.8018037364704753   T   T   T
  1.4227805079718352  4.2683416223184416 32.8018037543376906   T   T   T
  4.2683416363416171  4.2683416195418351 32.8018037508707963   T   T   T
  7.1139026275322008  4.2683415834737062 32.8018037520581558   T   T   T
  9.9594637063433193  4.2683416033597705 32.8018037449039639   T   T   T
  1.4227804961522810  7.1139026635230671 32.8018037609528648   T   T   T
  4.2683416038904385  7.1139026419885854 32.8018037101362125   T   T   T
  7.1139026305877824  7.1139026608353833 32.8018037434726537   T   T   T
  9.9594637155626238  7.1139026345247167 32.8018037133790941   T   T   T
  1.4227805275093837  9.9594636784756361 32.8018037636918152   T   T   T
  4.2683415590657159  9.9594637160738078 32.8018037669880371   T   T   T
  7.1139026466323605  9.9594636507031264 32.8018037567367955   T   T   T
  9.9594637069388785  9.9594637185002934 32.8018037083376157   T   T   T
  0.0000000134718629 -0.0000000292361438 34.1901850477465956   T   T   T
  2.8455609841149485 -0.0000000553935159 34.1901850368792353   T   T   T
  5.6911221407823893  0.0000000036509043 34.1901851298277677   T   T   T
  8.5366831818452997  0.0000000051624236 34.1901850626594097   T   T   T
 -0.0000000060728061  2.8455610602023840 34.1901850584081615   T   T   T
  2.8455610837112326  2.8455610629089989 34.1901851347969412   T   T   T
  5.6911221178270708  2.8455610820540977 34.1901850069392168   T   T   T
  8.5366831844534872  2.8455610505384570 34.1901850928679849   T   T   T
 -0.0000000123710170  5.6911221701527905 34.1901851130203411   T   T   T
  2.8455610547436168  5.6911220491203354 34.1901850921154704   T   T   T
  5.6911220782699434  5.6911219863110034 34.1901849749061881   T   T   T
  8.5366831536606522  5.6911220873484893 34.1901851019693197   T   T   T
  0.0000000523900179  8.5366831787154158 34.1901849886831073   T   T   T
  2.8455610318944440  8.5366833097048147 34.1901849762922936   T   T   T
  5.6911221608739844  8.5366832067914835 34.1901850362791038   T   T   T
  8.5366831540197570  8.5366831946906814 34.1901850248059134   T   T   T
  1.4227805646716050  1.4227805263480509 35.6283389255363190   T   T   T
  4.2683416730522286  1.4227805326697067 35.6283390557919688   T   T   T
  7.1139026513021211  1.4227805424351876 35.6283389563463686   T   T   T
  9.9594636761208797  1.4227805461992038 35.6283389736193143   T   T   T
  1.4227805537161144  4.2683415863879084 35.6283389365172454   T   T   T
  4.2683415876370576  4.2683415709638171 35.6283389073168237   T   T   T
  7.1139026844715074  4.2683415472574602 35.6283389394001944   T   T   T
  9.9594636633696982  4.2683416179515712 35.6283389691402093   T   T   T
  1.4227805382411458  7.1139025431300800 35.6283389347316586   T   T   T
  4.2683416433757548  7.1139026518827126 35.6283389618869748   T   T   T
  7.1139026835486492  7.1139027191314810 35.6283390752598166   T   T   T
  9.9594637059081794  7.1139025518531378 35.6283389773011834   T   T   T
  1.4227805504442186  9.9594637446642160 35.6283389098936567   T   T   T
  4.2683416444224154  9.9594636892428330 35.6283389137395901   T   T   T
  7.1139026336451119  9.9594636651360773 35.6283389357431233   T   T   T
  9.9594637080431578  9.9594637214453954 35.6283389261036021   T   T   T
 -0.0000000993054147  0.0000000006514107 37.0591961274425969   T   T   T
  2.8455610716939717 -0.0000000488589468 37.0591961136332912   T   T   T
  5.6911220831325711 -0.0000000526251456 37.0591960417574597   T   T   T
  8.5366831757438533  0.0000000078140879 37.0591960818924022   T   T   T
 -0.0000000191375766  2.8455610346917570 37.0591961455165446   T   T   T
  2.8455611566500445  2.8455610280141923 37.0591960834384153   T   T   T
  5.6911221497135775  2.8455609795006489 37.0591960518656194   T   T   T
  8.5366832085757718  2.8455610085207028 37.0591960491995991   T   T   T
 -0.0000000490577705  5.6911221762113335 37.0591960682635317   T   T   T
  2.8455610886641596  5.6911221541677808 37.0591960977954784   T   T   T
  5.6911221293232144  5.6911221645291148 37.0591960799855542   T   T   T
  8.5366831892474302  5.6911221197744171 37.0591960595560934   T   T   T
 -0.0000000692512099  8.5366831555131100 37.0591961212485970   T   T   T
  2.8455610754862160  8.5366831318126852 37.0591960653671251   T   T   T
  5.6911221284130358  8.5366831675936350 37.0591960269086371   T   T   T
  8.5366831560792154  8.5366831744479956 37.0591960258698023   T   T   T
