Fe
 1.0000000000000000
    16.0969241741277074    0.0000000000000000    0.0000000000000000
     0.0000000000000000   13.9403452575864364    0.0000000000000000
     0.0000000000000000    0.0000000000000000   35.6074117175584064
 Fe 
 320
Selective dynamics
Cartesian
 -0.0000000261714355  2.3233908169425601 10.1706785678227973   T   T   T
  4.0242310394429550  2.3233907800484475 10.1706785807143287   T   T   T
  8.0484621016173747  2.3233908079623480 10.1706785612822674   T   T   T
 12.0726931301070373  2.3233907715181279 10.1706785831747446   T   T   T
  2.0121155534970687  5.8084770751733359 10.1706786053859890   T   T   T
  6.0363466133901857  5.8084770936724697 10.1706786085869449   T   T   T
 10.0605776439221088  5.8084770906541587 10.1706785898908336   T   T   T
 14.0848086282107232  5.8084771228915208 10.1706786157969518   T   T   T
  0.0000000093657718  9.2935634105868701 10.1706786152915569   T   T   T
  4.0242310991932415  9.2935633976988239 10.1706786285501494   T   T   T
  8.0484620575012507  9.2935633919809018 10.1706785617934639   T   T   T
 12.0726931342378965  9.2935633872129948 10.1706785856407187   T   T   T
  2.0121155076707780 12.7786497317902406 10.1706785751366038   T   T   T
  6.0363465351208916 12.7786497150713050 10.1706785887579052   T   T   T
 10.0605776153259683 12.7786497679613209 10.1706785688655792   T   T   T
 14.0848086308050178 12.7786497044324108 10.1706785699752906   T   T   T
  0.0000000374433893 -0.0000000857093216 10.7633512080946829   T   T   T
  4.0242309568390606 -0.0000001045988507 10.7633511984141794   T   T   T
  8.0484621216784120 -0.0000000586434749 10.7633512171534740   T   T   T
 12.0726930766660328 -0.0000000955279489 10.7633511791763041   T   T   T
  2.0121155383304350  3.4850862005662813 10.7633511446639769   T   T   T
  6.0363465234136324  3.4850862274699970 10.7633511498839329   T   T   T
 10.0605776685341564  3.4850862167768919 10.7633511853589194   T   T   T
 14.0848086415875198  3.4850862671905394 10.7633511641959565   T   T   T
 -0.0000000218949463  6.9701725305843114 10.7633511963268624   T   T   T
  4.0242310948164386  6.9701725342913097 10.7633512198586612   T   T   T
  8.0484620999929071  6.9701725343514163 10.7633512259490534   T   T   T
 12.0726930616347516  6.9701725421860079 10.7633512108409910   T   T   T
  2.0121155410341189 10.4552588806086213 10.7633511852196673   T   T   T
  6.0363465484299370 10.4552588662814703 10.7633512233341602   T   T   T
 10.0605776153883220 10.4552588105308963 10.7633511642334003   T   T   T
 14.0848086256455023 10.4552588509885158 10.7633512148487114   T   T   T
  2.0121154736206779  1.1616953576156914 11.5437860512662951   T   T   T
  6.0363465656416064  1.1616952978145498 11.5437861087671791   T   T   T
 10.0605775614595032  1.1616953495764089 11.5437860899236000   T   T   T
 14.0848086396368952  1.1616953132785712 11.5437860980547704   T   T   T
 -0.0000000091921053  4.6467816948268013 11.5437860843179472   T   T   T
  4.0242310341799712  4.6467816937599000 11.5437861014049723   T   T   T
  8.0484621053981904  4.6467816827150834 11.5437861194572360   T   T   T
 12.0726931630420893  4.6467816624862222 11.5437861142308620   T   T   T
  2.0121155089425331  8.1318679963336038 11.5437861072008605   T   T   T
  6.0363466177966894  8.1318680135842065 11.5437860977492779   T   T   T
 10.0605776316057902  8.1318679627254618 11.5437860795685658   T   T   T
 14.0848087368517731  8.1318679791505648 11.5437861169572002   T   T   T
  0.0000000340759202 11.6169543309152381 11.5437860935093912   T   T   T
  4.0242310628951081 11.6169543168090357 11.5437860953395077   T   T   T
  8.0484620385759893 11.6169542924077103 11.5437860944460589   T   T   T
 12.0726930581530425 11.6169542766590386 11.5437861206976162   T   T   T
  0.0000000129026883  2.3233908269385495 12.5428884922220067   T   T   T
  4.0242309861851915  2.3233908224386464 12.5428884093657942   T   T   T
  8.0484621512834291  2.3233908346434244 12.5428884700343666   T   T   T
 12.0726931292526452  2.3233907988974090 12.5428884529996640   T   T   T
  2.0121154579676772  5.8084771248467346 12.5428885533747945   T   T   T
  6.0363465800023031  5.8084771365463199 12.5428884967438030   T   T   T
 10.0605775930507111  5.8084771317995862 12.5428884957199731   T   T   T
 14.0848085970996308  5.8084771429768240 12.5428885159538286   T   T   T
 -0.0000000230348023  9.2935634607008719 12.5428885010892941   T   T   T
  4.0242310198153755  9.2935634314764624 12.5428885180439984   T   T   T
  8.0484620564154579  9.2935634363894817 12.5428884843213275   T   T   T
 12.0726931516397080  9.2935634466151118 12.5428884607838569   T   T   T
  2.0121155732903802 12.7786497678299966 12.5428884262869289   T   T   T
  6.0363465379120607 12.7786497863541459 12.5428884665603135   T   T   T
 10.0605776212081803 12.7786497515835009 12.5428885063292679   T   T   T
 14.0848086472400986 12.7786497671077584 12.5428884995932872   T   T   T
  0.0000000186154127 -0.0000000636998355 13.2845201167323559   T   T   T
  4.0242310818721707 -0.0000000512829405 13.2845200792215614   T   T   T
  8.0484620383627323 -0.0000000395783569 13.2845201055550728   T   T   T
 12.0726930932579162 -0.0000000460227119 13.2845200968069275   T   T   T
  2.0121154850938368  3.4850862746438667 13.2845200750454850   T   T   T
  6.0363465594926602  3.4850862566305856 13.2845201023867343   T   T   T
 10.0605776109991485  3.4850862485531571 13.2845200873979472   T   T   T
 14.0848085880450284  3.4850862440322068 13.2845200928514640   T   T   T
  0.0000000297288713  6.9701725732288251 13.2845201131828752   T   T   T
  4.0242310435040691  6.9701725706616777 13.2845201182346404   T   T   T
  8.0484620769855280  6.9701725716940066 13.2845200816449029   T   T   T
 12.0726931717654420  6.9701725815204378 13.2845200907000596   T   T   T
  2.0121154653265796 10.4552589392260451 13.2845201025076367   T   T   T
  6.0363464940832419 10.4552589021230755 13.2845201024311717   T   T   T
 10.0605776541091867 10.4552588964024906 13.2845200905515046   T   T   T
 14.0848086559307273 10.4552588884446909 13.2845201010320793   T   T   T
  2.0121155669738804  1.1616953819325535 14.0761343969326091   T   T   T
  6.0363465330462116  1.1616953925966069 14.0761344135915465   T   T   T
 10.0605776024993929  1.1616953885405830 14.0761344657467848   T   T   T
 14.0848086205041927  1.1616953719084535 14.0761344553078640   T   T   T
  0.0000000043962141  4.6467816936701691 14.0761344577729659   T   T   T
  4.0242310398076091  4.6467817084271203 14.0761344249365816   T   T   T
  8.0484621541981998  4.6467816914905811 14.0761344329140989   T   T   T
 12.0726931772765518  4.6467816908756410 14.0761344572515359   T   T   T
  2.0121155495295335  8.1318680168415796 14.0761344861041700   T   T   T
  6.0363465642547709  8.1318680021758638 14.0761344792733567   T   T   T
 10.0605775810058606  8.1318680134169998 14.0761344363020697   T   T   T
 14.0848086728588431  8.1318680059773598 14.0761344577000784   T   T   T
 -0.0000000113581622 11.6169543191153881 14.0761344277912546   T   T   T
  4.0242310404220776 11.6169543365906307 14.0761344549464358   T   T   T
  8.0484620792729622 11.6169543010931076 14.0761344701556652   T   T   T
 12.0726931335136207 11.6169543258633201 14.0761344386010840   T   T   T
 -0.0000000203637531  2.3233908571112996 14.9593957976955956   T   T   T
  4.0242310777271895  2.3233908586289114 14.9593957055354689   T   T   T
  8.0484620607472799  2.3233908570951209 14.9593957726461042   T   T   T
 12.0726931175582628  2.3233908530082759 14.9593957431524220   T   T   T
  2.0121155341265342  5.8084771553137742 14.9593957816507892   T   T   T
  6.0363465716109701  5.8084771635938690 14.9593957649586446   T   T   T
 10.0605775865631895  5.8084772012359362 14.9593957502831572   T   T   T
 14.0848085973249582  5.8084771528400614 14.9593958053403853   T   T   T
  0.0000000368703439  9.2935634775521443 14.9593957883804709   T   T   T
  4.0242310710895515  9.2935634533591518 14.9593957811774310   T   T   T
  8.0484620966244194  9.2935634807304091 14.9593957583062416   T   T   T
 12.0726930836693089  9.2935634672075320 14.9593957592328852   T   T   T
  2.0121154893805229 12.7786498065749807 14.9593957499256334   T   T   T
  6.0363465613765435 12.7786498058107458 14.9593958101288873   T   T   T
 10.0605775940281994 12.7786497887510979 14.9593957829579622   T   T   T
 14.0848086805850947 12.7786497883512613 14.9593957739278913   T   T   T
  0.0000000349684108 -0.0000000187131599 15.7267331500358978   T   T   T
  4.0242310762235665 -0.0000000306295378 15.7267331398851535   T   T   T
  8.0484621581905795 -0.0000000386334412 15.7267331443610825   T   T   T
 12.0726931198161402 -0.0000000304636929 15.7267331550067180   T   T   T
  2.0121155781239315  3.4850862790768491 15.7267331390392737   T   T   T
  6.0363466347043664  3.4850862831743505 15.7267331562807993   T   T   T
 10.0605776219123992  3.4850862678146468 15.7267331446826333   T   T   T
 14.0848086483367023  3.4850862786467189 15.7267331699867938   T   T   T
 -0.0000000299884314  6.9701725832914478 15.7267331308457212   T   T   T
  4.0242309888109684  6.9701726016141832 15.7267331506892241   T   T   T
  8.0484621000020837  6.9701725951190241 15.7267331668043386   T   T   T
 12.0726931041348546  6.9701725948579956 15.7267331778689190   T   T   T
  2.0121155522363541 10.4552589080963667 15.7267331743238898   T   T   T
  6.0363466026920491 10.4552589212607501 15.7267331517750009   T   T   T
 10.0605776088371126 10.4552589094340718 15.7267331428876354   T   T   T
 14.0848086741709597 10.4552589213612759 15.7267331964840178   T   T   T
  2.0121155217659634  1.1616954381322029 16.5715417758140653   F   F   F
  6.0363465652978903  1.1616954381322029 16.5715417758140653   F   F   F
 10.0605776088298171  1.1616954381322029 16.5715417758140653   F   F   F
 14.0848086523617440  1.1616954381322029 16.5715417758140653   F   F   F
  0.0000000000000000  4.6467817525288115 16.5715417758140653   F   F   F
  4.0242310435319268  4.6467817525288115 16.5715417758140653   F   F   F
  8.0484620870638537  4.6467817525288115 16.5715417758140653   F   F   F
 12.0726931305957805  4.6467817525288115 16.5715417758140653   F   F   F
  2.0121155217659634  8.1318680669254224 16.5715417758140653   F   F   F
  6.0363465652978903  8.1318680669254224 16.5715417758140653   F   F   F
 10.0605776088298171  8.1318680669254224 16.5715417758140653   F   F   F
 14.0848086523617440  8.1318680669254224 16.5715417758140653   F   F   F
  0.0000000000000000 11.6169543813220315 16.5715417758140653   F   F   F
  4.0242310435319268 11.6169543813220315 16.5715417758140653   F   F   F
  8.0484620870638537 11.6169543813220315 16.5715417758140653   F   F   F
 12.0726931305957805 11.6169543813220315 16.5715417758140653   F   F   F
  0.0000000000000000  2.3233908762644058 17.3929844977908239   F   F   F
  4.0242310435319268  2.3233908762644058 17.3929844977908239   F   F   F
  8.0484620870638537  2.3233908762644058 17.3929844977908239   F   F   F
 12.0726931305957805  2.3233908762644058 17.3929844977908239   F   F   F
  2.0121155217659634  5.8084771906610149 17.3929844977908239   F   F   F
  6.0363465652978903  5.8084771906610149 17.3929844977908239   F   F   F
 10.0605776088298171  5.8084771906610149 17.3929844977908239   F   F   F
 14.0848086523617440  5.8084771906610149 17.3929844977908239   F   F   F
  0.0000000000000000  9.2935635050576231 17.3929844977908239   F   F   F
  4.0242310435319268  9.2935635050576231 17.3929844977908239   F   F   F
  8.0484620870638537  9.2935635050576231 17.3929844977908239   F   F   F
 12.0726931305957805  9.2935635050576231 17.3929844977908239   F   F   F
  2.0121155217659634 12.7786498194542322 17.3929844977908239   F   F   F
  6.0363465652978903 12.7786498194542322 17.3929844977908239   F   F   F
 10.0605776088298171 12.7786498194542322 17.3929844977908239   F   F   F
 14.0848086523617440 12.7786498194542322 17.3929844977908239   F   F   F
  0.0000000000000000  0.0000000000000000 18.2144272197675825   F   F   F
  4.0242310435319268  0.0000000000000000 18.2144272197675825   F   F   F
  8.0484620870638537  0.0000000000000000 18.2144272197675825   F   F   F
 12.0726931305957805  0.0000000000000000 18.2144272197675825   F   F   F
  2.0121155217659634  3.4850863143966091 18.2144272197675825   F   F   F
  6.0363465652978903  3.4850863143966091 18.2144272197675825   F   F   F
 10.0605776088298171  3.4850863143966091 18.2144272197675825   F   F   F
 14.0848086523617440  3.4850863143966091 18.2144272197675825   F   F   F
  0.0000000000000000  6.9701726287932182 18.2144272197675825   F   F   F
  4.0242310435319268  6.9701726287932182 18.2144272197675825   F   F   F
  8.0484620870638537  6.9701726287932182 18.2144272197675825   F   F   F
 12.0726931305957805  6.9701726287932182 18.2144272197675825   F   F   F
  2.0121155217659634 10.4552589431898273 18.2144272197675825   F   F   F
  6.0363465652978903 10.4552589431898273 18.2144272197675825   F   F   F
 10.0605776088298171 10.4552589431898273 18.2144272197675825   F   F   F
 14.0848086523617440 10.4552589431898273 18.2144272197675825   F   F   F
  2.0121155217659634  1.1616954381322029 19.0358699417443411   F   F   F
  6.0363465652978903  1.1616954381322029 19.0358699417443411   F   F   F
 10.0605776088298171  1.1616954381322029 19.0358699417443411   F   F   F
 14.0848086523617440  1.1616954381322029 19.0358699417443411   F   F   F
  0.0000000000000000  4.6467817525288115 19.0358699417443411   F   F   F
  4.0242310435319268  4.6467817525288115 19.0358699417443411   F   F   F
  8.0484620870638537  4.6467817525288115 19.0358699417443411   F   F   F
 12.0726931305957805  4.6467817525288115 19.0358699417443411   F   F   F
  2.0121155217659634  8.1318680669254224 19.0358699417443411   F   F   F
  6.0363465652978903  8.1318680669254224 19.0358699417443411   F   F   F
 10.0605776088298171  8.1318680669254224 19.0358699417443411   F   F   F
 14.0848086523617440  8.1318680669254224 19.0358699417443411   F   F   F
  0.0000000000000000 11.6169543813220315 19.0358699417443411   F   F   F
  4.0242310435319268 11.6169543813220315 19.0358699417443411   F   F   F
  8.0484620870638537 11.6169543813220315 19.0358699417443411   F   F   F
 12.0726931305957805 11.6169543813220315 19.0358699417443411   F   F   F
 -0.0000000029559177  2.3233909401033341 19.8806785323462911   T   T   T
  4.0242310608355121  2.3233908779151258 19.8806785767759919   T   T   T
  8.0484620829248161  2.3233908997154615 19.8806785058828268   T   T   T
 12.0726931862473865  2.3233909111472828 19.8806785591916899   T   T   T
  2.0121154790058888  5.8084772288426301 19.8806785363748304   T   T   T
  6.0363465654315291  5.8084772301959715 19.8806785323128565   T   T   T
 10.0605776287168904  5.8084772098093840 19.8806785150883840   T   T   T
 14.0848086995976889  5.8084772275013314 19.8806785607759338   T   T   T
 -0.0000000571313892  9.2935635424924801 19.8806785308180096   T   T   T
  4.0242310463231101  9.2935635403459660 19.8806785441315093   T   T   T
  8.0484620519241474  9.2935635321366536 19.8806785316876145   T   T   T
 12.0726930903859291  9.2935635242553616 19.8806785399427177   T   T   T
  2.0121154926746034 12.7786498552605075 19.8806785325161215   T   T   T
  6.0363465800379208 12.7786498452079105 19.8806785499358085   T   T   T
 10.0605776157959106 12.7786498516491491 19.8806784958985610   T   T   T
 14.0848086113483131 12.7786498557192818 19.8806785680002633   T   T   T
  0.0000000077368602  0.0000000402318459 20.6480159759041726   T   T   T
  4.0242310099426115  0.0000000079366520 20.6480159286123026   T   T   T
  8.0484620620677525  0.0000000246321391 20.6480159613850880   T   T   T
 12.0726931435833489 -0.0000000110015664 20.6480159986836682   T   T   T
  2.0121155398910058  3.4850863538442876 20.6480159513564594   T   T   T
  6.0363465686189999  3.4850863453929399 20.6480159605728240   T   T   T
 10.0605776182290541  3.4850863556447993 20.6480159841496089   T   T   T
 14.0848085912648351  3.4850863625473534 20.6480159604465641   T   T   T
 -0.0000000227141238  6.9701726860577660 20.6480159515617032   T   T   T
  4.0242309999769557  6.9701726575887832 20.6480159607743268   T   T   T
  8.0484620795896280  6.9701726393987560 20.6480159489602855   T   T   T
 12.0726932145676695  6.9701726726208779 20.6480159675047510   T   T   T
  2.0121155091448988 10.4552589778250997 20.6480159519207191   T   T   T
  6.0363465836576431 10.4552589628226844 20.6480159741344664   T   T   T
 10.0605776036966805 10.4552589945075098 20.6480159593556643   T   T   T
 14.0848086063629214 10.4552589946554075 20.6480159676120607   T   T   T
  2.0121154869195723  1.1616955010253700 21.5312772936416827   T   T   T
  6.0363466026138930  1.1616954957447980 21.5312772648177919   T   T   T
 10.0605776124310609  1.1616955087273610 21.5312772776309842   T   T   T
 14.0848085804750074  1.1616955298924736 21.5312772568063764   T   T   T
 -0.0000000254791807  4.6467818267704608 21.5312772464118183   T   T   T
  4.0242310501963896  4.6467818136632326 21.5312772815335620   T   T   T
  8.0484620601323069  4.6467818120568651 21.5312772656845759   T   T   T
 12.0726931841271892  4.6467818048910061 21.5312773086463416   T   T   T
  2.0121154946223125  8.1318681247762949 21.5312772755376756   T   T   T
  6.0363465670750855  8.1318681139945017 21.5312772651054196   T   T   T
 10.0605776653709160  8.1318681380164737 21.5312772822956617   T   T   T
 14.0848086017573237  8.1318681217983286 21.5312772684509426   T   T   T
 -0.0000000174381844 11.6169544177864914 21.5312772963250865   T   T   T
  4.0242310312083100 11.6169544169375030 21.5312772116914637   T   T   T
  8.0484621187513277 11.6169544335120101 21.5312773016588217   T   T   T
 12.0726931598659757 11.6169544289690965 21.5312772550584342   T   T   T
 -0.0000000233793952  2.3233909568709805 22.3228915939965447   T   T   T
  4.0242310382146496  2.3233909311999037 22.3228916145110396   T   T   T
  8.0484621907943019  2.3233909303131650 22.3228916248134510   T   T   T
 12.0726931452009776  2.3233909419144294 22.3228916471810699   T   T   T
  2.0121154756078248  5.8084772567889633 22.3228916145630905   T   T   T
  6.0363466031511708  5.8084772555172801 22.3228916094554677   T   T   T
 10.0605776164520222  5.8084772316804685 22.3228916290129042   T   T   T
 14.0848086186519836  5.8084772502438904 22.3228916182069064   T   T   T
 -0.0000000012353226  9.2935635620263870 22.3228916058534672   T   T   T
  4.0242310247086959  9.2935635655317235 22.3228916164452436   T   T   T
  8.0484620759829948  9.2935635481975201 22.3228916279269214   T   T   T
 12.0726931706079590  9.2935635534109000 22.3228916379560687   T   T   T
  2.0121154967023465 12.7786498943303624 22.3228916095389280   T   T   T
  6.0363465545646253 12.7786498646439863 22.3228916133320681   T   T   T
 10.0605776434136729 12.7786498724867830 22.3228915636732310   T   T   T
 14.0848087527993666 12.7786498789246696 22.3228916337415093   T   T   T
 -0.0000000261510711  0.0000000695482041 23.0645232612554629   T   T   T
  4.0242310512916086  0.0000000906605099 23.0645231911915261   T   T   T
  8.0484621021386040  0.0000000589174261 23.0645232539988996   T   T   T
 12.0726931744019055  0.0000000755205889 23.0645232260522732   T   T   T
  2.0121154829806502  3.4850863881078804 23.0645232172214953   T   T   T
  6.0363466130752998  3.4850863929961213 23.0645232416870982   T   T   T
 10.0605776100691120  3.4850863935254042 23.0645232341748638   T   T   T
 14.0848086222272837  3.4850864062506517 23.0645232470110599   T   T   T
 -0.0000000395666511  6.9701726987350812 23.0645231959044814   T   T   T
  4.0242310504791003  6.9701726904123316 23.0645232167857976   T   T   T
  8.0484620958773920  6.9701727049075997 23.0645231848078183   T   T   T
 12.0726931272219833  6.9701726765651415 23.0645232841633572   T   T   T
  2.0121155076123101 10.4552589814451409 23.0645232076778690   T   T   T
  6.0363465393376794 10.4552590109811430 23.0645232245088856   T   T   T
 10.0605776374612041 10.4552590317025675 23.0645232318734230   T   T   T
 14.0848086195595243 10.4552590096451592 23.0645232094496784   T   T   T
  2.0121155736016934  1.1616955146831802 24.0636256317220436   T   T   T
  6.0363465330371699  1.1616955254232517 24.0636256689979504   T   T   T
 10.0605776442935522  1.1616955499766950 24.0636256391216357   T   T   T
 14.0848086728955781  1.1616955297570959 24.0636256291766593   T   T   T
 -0.0000000029384195  4.6467818454467675 24.0636256180383086   T   T   T
  4.0242310414005971  4.6467818258758324 24.0636256204025969   T   T   T
  8.0484620462459517  4.6467818251120958 24.0636255846312359   T   T   T
 12.0726930436072522  4.6467818150598301 24.0636256241128557   T   T   T
  2.0121155409611249  8.1318681026945061 24.0636256371257033   T   T   T
  6.0363466002672528  8.1318681386262455 24.0636256177185537   T   T   T
 10.0605776461127956  8.1318681597242701 24.0636256402538464   T   T   T
 14.0848086148172573  8.1318681077763344 24.0636256188462809   T   T   T
 -0.0000000360590433 11.6169544693788858 24.0636256326943219   T   T   T
  4.0242310937727108 11.6169544749909033 24.0636256545137890   T   T   T
  8.0484621188307166 11.6169544343567583 24.0636256182145729   T   T   T
 12.0726930727965325 11.6169544822197821 24.0636255975017299   T   T   T
 -0.0000000149427936  2.3233909638018919 24.8440605052782253   T   T   T
  4.0242310627913556  2.3233909773889478 24.8440604850370619   T   T   T
  8.0484620892329470  2.3233909849532686 24.8440604739285256   T   T   T
 12.0726931424521187  2.3233909753982074 24.8440605142001232   T   T   T
  2.0121155560562687  5.8084772396338673 24.8440604933272446   T   T   T
  6.0363465906020082  5.8084772899763495 24.8440605454695316   T   T   T
 10.0605775398297972  5.8084772842614916 24.8440605117545275   T   T   T
 14.0848086381901147  5.8084772659501631 24.8440604861645511   T   T   T
  0.0000000300344163  9.2935635999330550 24.8440604829006446   T   T   T
  4.0242310566132558  9.2935635897812414 24.8440604849143760   T   T   T
  8.0484620793246293  9.2935635850548319 24.8440605122431855   T   T   T
 12.0726930628305809  9.2935636092759708 24.8440605056293080   T   T   T
  2.0121155528086083 12.7786499099750639 24.8440605044923544   T   T   T
  6.0363465796393161 12.7786499186771660 24.8440604878309905   T   T   T
 10.0605776078370539 12.7786499159121014 24.8440605084481021   T   T   T
 14.0848086345067198 12.7786499437335372 24.8440605161417913   T   T   T
 -0.0000000154634100  0.0000001032474895 25.4367331151248379   T   T   T
  4.0242310045067979  0.0000000914624455 25.4367331989475574   T   T   T
  8.0484620373541667  0.0000001300309626 25.4367331553842746   T   T   T
 12.0726931348414368  0.0000001128877260 25.4367331011004509   T   T   T
  2.0121155137770232  3.4850863997277566 25.4367331091734492   T   T   T
  6.0363466130506680  3.4850864153707213 25.4367331268722907   T   T   T
 10.0605775903830885  3.4850864379838136 25.4367331313526215   T   T   T
 14.0848086074235823  3.4850864212456614 25.4367331200602109   T   T   T
  0.0000000090055067  6.9701727332990986 25.4367330645054217   T   T   T
  4.0242310595574322  6.9701727024383615 25.4367331621161767   T   T   T
  8.0484620894722045  6.9701727055083582 25.4367330845942945   T   T   T
 12.0726931339201915  6.9701727062940728 25.4367331493386182   T   T   T
  2.0121155460209339 10.4552590483041641 25.4367331055534187   T   T   T
  6.0363465801250191 10.4552590286241482 25.4367331348883852   T   T   T
 10.0605775566273099 10.4552590352543149 25.4367331283592506   T   T   T
 14.0848086346678585 10.4552590814480446 25.4367331328546200   T   T   T
