Fe
 1.0000000000000000
    11.3822442397713672    0.0000000000000000    0.0000000000000000
     0.0000000000000000    8.0484620870638537    0.0000000000000000
     0.0000000000000000    0.0000000000000000   58.2301949135533050
 Fe 
 320
Selective dynamics
Cartesian
  0.0000000912822081  2.0121155366356929 10.0001981622208262   T   T   T
  2.8455608381668775  2.0121156836258280 10.0001983211023351   T   T   T
  5.6911223180782811  2.0121155439734331 10.0001983125727190   T   T   T
  8.5366833869284111  2.0121154990661214 10.0001981830492159   T   T   T
  1.4227805773728599  4.0242309594442256 10.0001981786024512   T   T   T
  4.2683414293478892  4.0242310111383555 10.0001982430096561   T   T   T
  7.1139025352856526  4.0242312125358932 10.0001982902682069   T   T   T
  9.9594636434479540  4.0242309973513102 10.0001982379512384   T   T   T
 -0.0000001685286452  6.0363464892566299 10.0001983319324790   T   T   T
  2.8455610757808998  6.0363465969251227 10.0001983456644403   T   T   T
  5.6911221114284816  6.0363466941867978 10.0001981562197546   T   T   T
  8.5366831613361942  6.0363465953473083 10.0001982642358858   T   T   T
  1.4227805571248870  8.0484620784984173 10.0001981647898948   T   T   T
  4.2683416273612140  8.0484619458388096 10.0001982929119233   T   T   T
  7.1139027625320779  8.0484620048117588 10.0001982345094547   T   T   T
  9.9594636563001071  8.0484620147944455 10.0001983556150567   T   T   T
  0.0000001522365764 -0.0000001133003074 11.9940871203134076   T   T   T
  2.8455610673734908  0.0000000822377595 11.9940871671714930   T   T   T
  5.6911221626544535  0.0000000073523928 11.9940871243075033   T   T   T
  8.5366831424370719 -0.0000000116244914 11.9940870817849898   T   T   T
  1.4227808669249280  2.0121154948386821 11.9940871288250612   T   T   T
  4.2683417354244018  2.0121155137816928 11.9940871171590899   T   T   T
  7.1139026011410076  2.0121155137922804 11.9940869932569036   T   T   T
  9.9594635459000038  2.0121153740988191 11.9940871452609219   T   T   T
  0.0000000454544493  4.0242310138993043 11.9940871423507165   T   T   T
  2.8455610617548164  4.0242309996276440 11.9940869500969445   T   T   T
  5.6911220047212154  4.0242309670647582 11.9940871050285836   T   T   T
  8.5366831410228396  4.0242310622539126 11.9940869533825509   T   T   T
  1.4227806607400177  6.0363467076623527 11.9940871861809590   T   T   T
  4.2683416435987880  6.0363465135966621 11.9940868452110010   T   T   T
  7.1139027259003260  6.0363466768642215 11.9940869750816663   T   T   T
  9.9594635076141032  6.0363465452652125 11.9940870136389162   T   T   T
  0.0000000539541198  2.0121155170413774 14.0165260804709835   T   T   T
  2.8455609610615644  2.0121155114927691 14.0165260473087407   T   T   T
  5.6911220583301887  2.0121153391421571 14.0165259372485629   T   T   T
  8.5366831755426400  2.0121155356851590 14.0165260887137961   T   T   T
  1.4227805361565842  4.0242310564317743 14.0165261763094282   T   T   T
  4.2683416796187066  4.0242310862131854 14.0165263507216373   T   T   T
  7.1139025920123888  4.0242310431943631 14.0165261742308136   T   T   T
  9.9594637660196064  4.0242311052441480 14.0165262023065580   T   T   T
 -0.0000000196740416  6.0363465704653061 14.0165261568483377   T   T   T
  2.8455608702231672  6.0363465381071890 14.0165261782238524   T   T   T
  5.6911219435990716  6.0363466347200623 14.0165263202741759   T   T   T
  8.5366831530168632  6.0363466674388091 14.0165261770079628   T   T   T
  1.4227805536952105  8.0484620675604965 14.0165259283874892   T   T   T
  4.2683416636416665  8.0484620372674307 14.0165262081355646   T   T   T
  7.1139027345297805  8.0484619912207389 14.0165261018070098   T   T   T
  9.9594635811891603  8.0484621455728931 14.0165260677824097   T   T   T
  0.0000000303919149  0.0000000329695130 16.0220049185426809   T   T   T
  2.8455610159714801 -0.0000000377124037 16.0220048497761312   T   T   T
  5.6911221792139726  0.0000001349928740 16.0220051842129330   T   T   T
  8.5366830243163587  0.0000000103597947 16.0220048410790952   T   T   T
  1.4227805880265909  2.0121155107102231 16.0220048427152157   T   T   T
  4.2683415144280161  2.0121155020764259 16.0220048263331662   T   T   T
  7.1139024908580240  2.0121154758588040 16.0220049610469957   T   T   T
  9.9594635799227706  2.0121154151397111 16.0220048649942761   T   T   T
 -0.0000000455882015  4.0242310242717769 16.0220047950610862   T   T   T
  2.8455610781730996  4.0242310905929104 16.0220049637723498   T   T   T
  5.6911221318330343  4.0242310004174913 16.0220047619818473   T   T   T
  8.5366831344008034  4.0242309959527693 16.0220049498661297   T   T   T
  1.4227804799588921  6.0363465324174976 16.0220048735005989   T   T   T
  4.2683416429523602  6.0363465955364131 16.0220048580565759   T   T   T
  7.1139026894300592  6.0363466916780473 16.0220048878037922   T   T   T
  9.9594636772731739  6.0363465724800731 16.0220048376607842   T   T   T
  0.0000001276442085  2.0121155749590875 18.0524916243806643   T   T   T
  2.8455613255161403  2.0121155080581454 18.0524917012470070   T   T   T
  5.6911221295027188  2.0121154973124731 18.0524916007912317   T   T   T
  8.5366830788516843  2.0121154620426553 18.0524915276446762   T   T   T
  1.4227804230888392  4.0242309902992304 18.0524915969556936   T   T   T
  4.2683415801729918  4.0242309413572306 18.0524916463019096   T   T   T
  7.1139027046033778  4.0242310844171785 18.0524916358129950   T   T   T
  9.9594638153688226  4.0242310369101606 18.0524915333633338   T   T   T
 -0.0000000975004334  6.0363465737417492 18.0524915062885647   T   T   T
  2.8455611663675233  6.0363465037228741 18.0524915507769599   T   T   T
  5.6911221531081857  6.0363465977602493 18.0524915766254104   T   T   T
  8.5366832443650420  6.0363465383258390 18.0524916215760030   T   T   T
  1.4227804958560375  8.0484620168731293 18.0524915370098888   T   T   T
  4.2683416266770617  8.0484620152771296 18.0524915518453568   T   T   T
  7.1139025431881882  8.0484620776530651 18.0524915111842361   T   T   T
  9.9594637987277945  8.0484620039884227 18.0524914896831241   T   T   T
  0.0000000195770974  0.0000000331983073 20.0580504346730599   T   T   T
  2.8455609504079642 -0.0000000975448499 20.0580505734775727   T   T   T
  5.6911220766569608  0.0000000532999318 20.0580503732204498   T   T   T
  8.5366831366380058  0.0000000826289413 20.0580505486970360   T   T   T
  1.4227805726247444  2.0121156101573425 20.0580506722066758   T   T   T
  4.2683415858706111  2.0121155117956269 20.0580506312082392   T   T   T
  7.1139025920507883  2.0121155868968637 20.0580506366843245   T   T   T
  9.9594636368421501  2.0121154824242948 20.0580507038424471   T   T   T
  0.0000000858507166  4.0242310575828366 20.0580505812939762   T   T   T
  2.8455611456286722  4.0242311053590987 20.0580505563698992   T   T   T
  5.6911220166407581  4.0242309951228030 20.0580506602446000   T   T   T
  8.5366832334816678  4.0242310259795246 20.0580505203901396   T   T   T
  1.4227806258483093  6.0363467651343168 20.0580505940155582   T   T   T
  4.2683417000288175  6.0363465071210243 20.0580505834420997   T   T   T
  7.1139026790810238  6.0363465341000113 20.0580504859460582   T   T   T
  9.9594634516604934  6.0363465612757281 20.0580505543690961   T   T   T
  0.0000000409477138  2.0121155778501514 22.0757731206510321   T   T   T
  2.8455611425101033  2.0121155103395720 22.0757731849414078   T   T   T
  5.6911220774739792  2.0121155627704614 22.0757731797097883   T   T   T
  8.5366832810683277  2.0121155588146520 22.0757731932427745   T   T   T
  1.4227804426707666  4.0242309146311559 22.0757733205622060   T   T   T
  4.2683417457409440  4.0242310299251027 22.0757731145234644   T   T   T
  7.1139025909250044  4.0242311124135206 22.0757730761397823   T   T   T
  9.9594636461563617  4.0242310089871962 22.0757732932819195   T   T   T
 -0.0000000544424613  6.0363464363334725 22.0757734302418669   T   T   T
  2.8455610316526552  6.0363465057719941 22.0757732865090688   T   T   T
  5.6911222803457511  6.0363466239673977 22.0757730996089165   T   T   T
  8.5366831419270213  6.0363465808231771 22.0757732053251381   T   T   T
  1.4227804517396749  8.0484620988522213 22.0757733158649927   T   T   T
  4.2683415304732542  8.0484621366719118 22.0757734060664070   T   T   T
  7.1139026544444217  8.0484621009257626 22.0757732579542392   T   T   T
  9.9594636243861778  8.0484620563561950 22.0757732639103459   T   T   T
 -0.0000000934556453 -0.0000001148708088 24.0838703932401721   T   T   T
  2.8455611071294462 -0.0000000675186474 24.0838703786944741   T   T   T
  5.6911221551348143 -0.0000000095107694 24.0838703416565103   T   T   T
  8.5366832101089312  0.0000000771890400 24.0838703250579158   T   T   T
  1.4227805754318354  2.0121153636141802 24.0838703504408222   T   T   T
  4.2683416048328366  2.0121155926392564 24.0838704522501352   T   T   T
  7.1139025957068993  2.0121154649992858 24.0838703133375773   T   T   T
  9.9594636698563956  2.0121153749039467 24.0838704150423446   T   T   T
 -0.0000000074851475  4.0242309907985137 24.0838703276200548   T   T   T
  2.8455609556677151  4.0242309918022752 24.0838704022325452   T   T   T
  5.6911221380753219  4.0242310779939983 24.0838703584447629   T   T   T
  8.5366833897230556  4.0242310291569670 24.0838704695983488   T   T   T
  1.4227805845688744  6.0363465605968889 24.0838703593728916   T   T   T
  4.2683416138522414  6.0363465164089529 24.0838703394166629   T   T   T
  7.1139025402501783  6.0363465847982631 24.0838703758740351   T   T   T
  9.9594636033174666  6.0363464975733061 24.0838703447591556   T   T   T
  0.0000000000000000  2.0121155217659634 26.0969241741277074   F   F   F
  2.8455610599428418  2.0121155217659634 26.0969241741277074   F   F   F
  5.6911221198856836  2.0121155217659634 26.0969241741277074   F   F   F
  8.5366831798285254  2.0121155217659634 26.0969241741277074   F   F   F
  1.4227805299714209  4.0242310435319268 26.0969241741277074   F   F   F
  4.2683415899142627  4.0242310435319268 26.0969241741277074   F   F   F
  7.1139026498571045  4.0242310435319268 26.0969241741277074   F   F   F
  9.9594637097999463  4.0242310435319268 26.0969241741277074   F   F   F
  0.0000000000000000  6.0363465652978903 26.0969241741277074   F   F   F
  2.8455610599428418  6.0363465652978903 26.0969241741277074   F   F   F
  5.6911221198856836  6.0363465652978903 26.0969241741277074   F   F   F
  8.5366831798285254  6.0363465652978903 26.0969241741277074   F   F   F
  1.4227805299714209  8.0484620870638537 26.0969241741277074   F   F   F
  4.2683415899142627  8.0484620870638537 26.0969241741277074   F   F   F
  7.1139026498571045  8.0484620870638537 26.0969241741277074   F   F   F
  9.9594637097999463  8.0484620870638537 26.0969241741277074   F   F   F
  0.0000000000000000  0.0000000000000000 28.1090396958936708   F   F   F
  2.8455610599428418  0.0000000000000000 28.1090396958936708   F   F   F
  5.6911221198856836  0.0000000000000000 28.1090396958936708   F   F   F
  8.5366831798285254  0.0000000000000000 28.1090396958936708   F   F   F
  1.4227805299714209  2.0121155217659634 28.1090396958936708   F   F   F
  4.2683415899142627  2.0121155217659634 28.1090396958936708   F   F   F
  7.1139026498571045  2.0121155217659634 28.1090396958936708   F   F   F
  9.9594637097999463  2.0121155217659634 28.1090396958936708   F   F   F
  0.0000000000000000  4.0242310435319268 28.1090396958936708   F   F   F
  2.8455610599428418  4.0242310435319268 28.1090396958936708   F   F   F
  5.6911221198856836  4.0242310435319268 28.1090396958936708   F   F   F
  8.5366831798285254  4.0242310435319268 28.1090396958936708   F   F   F
  1.4227805299714209  6.0363465652978903 28.1090396958936708   F   F   F
  4.2683415899142627  6.0363465652978903 28.1090396958936708   F   F   F
  7.1139026498571045  6.0363465652978903 28.1090396958936708   F   F   F
  9.9594637097999463  6.0363465652978903 28.1090396958936708   F   F   F
  0.0000000000000000  2.0121155217659634 30.1211552176596342   F   F   F
  2.8455610599428418  2.0121155217659634 30.1211552176596342   F   F   F
  5.6911221198856836  2.0121155217659634 30.1211552176596342   F   F   F
  8.5366831798285254  2.0121155217659634 30.1211552176596342   F   F   F
  1.4227805299714209  4.0242310435319268 30.1211552176596342   F   F   F
  4.2683415899142627  4.0242310435319268 30.1211552176596342   F   F   F
  7.1139026498571045  4.0242310435319268 30.1211552176596342   F   F   F
  9.9594637097999463  4.0242310435319268 30.1211552176596342   F   F   F
  0.0000000000000000  6.0363465652978903 30.1211552176596342   F   F   F
  2.8455610599428418  6.0363465652978903 30.1211552176596342   F   F   F
  5.6911221198856836  6.0363465652978903 30.1211552176596342   F   F   F
  8.5366831798285254  6.0363465652978903 30.1211552176596342   F   F   F
  1.4227805299714209  8.0484620870638537 30.1211552176596342   F   F   F
  4.2683415899142627  8.0484620870638537 30.1211552176596342   F   F   F
  7.1139026498571045  8.0484620870638537 30.1211552176596342   F   F   F
  9.9594637097999463  8.0484620870638537 30.1211552176596342   F   F   F
  0.0000000000000000  0.0000000000000000 32.1332707394255976   F   F   F
  2.8455610599428418  0.0000000000000000 32.1332707394255976   F   F   F
  5.6911221198856836  0.0000000000000000 32.1332707394255976   F   F   F
  8.5366831798285254  0.0000000000000000 32.1332707394255976   F   F   F
  1.4227805299714209  2.0121155217659634 32.1332707394255976   F   F   F
  4.2683415899142627  2.0121155217659634 32.1332707394255976   F   F   F
  7.1139026498571045  2.0121155217659634 32.1332707394255976   F   F   F
  9.9594637097999463  2.0121155217659634 32.1332707394255976   F   F   F
  0.0000000000000000  4.0242310435319268 32.1332707394255976   F   F   F
  2.8455610599428418  4.0242310435319268 32.1332707394255976   F   F   F
  5.6911221198856836  4.0242310435319268 32.1332707394255976   F   F   F
  8.5366831798285254  4.0242310435319268 32.1332707394255976   F   F   F
  1.4227805299714209  6.0363465652978903 32.1332707394255976   F   F   F
  4.2683415899142627  6.0363465652978903 32.1332707394255976   F   F   F
  7.1139026498571045  6.0363465652978903 32.1332707394255976   F   F   F
  9.9594637097999463  6.0363465652978903 32.1332707394255976   F   F   F
 -0.0000000440131250  2.0121153606183722 34.1463245015075714   T   T   T
  2.8455610856124163  2.0121155940308451 34.1463244532865389   T   T   T
  5.6911222112721092  2.0121155061820564 34.1463245338644228   T   T   T
  8.5366833007700240  2.0121155465503500 34.1463244421860139   T   T   T
  1.4227805193444536  4.0242310433360409 34.1463244880045167   T   T   T
  4.2683415959840190  4.0242310725992434 34.1463246745380076   T   T   T
  7.1139026393654552  4.0242310277057900 34.1463245189707010   T   T   T
  9.9594636407356667  4.0242309803949619 34.1463243870103881   T   T   T
  0.0000000375716820  6.0363465650632468 34.1463246890837198   T   T   T
  2.8455610719465025  6.0363465379320624 34.1463245488404894   T   T   T
  5.6911219774195843  6.0363465846062239 34.1463246611957629   T   T   T
  8.5366831934418403  6.0363465024093657 34.1463245281462164   T   T   T
  1.4227804591287538  8.0484621479153162 34.1463245509832660   T   T   T
  4.2683417411042299  8.0484621280588264 34.1463246947085750   T   T   T
  7.1139025158945204  8.0484620329266932 34.1463246224532497   T   T   T
  9.9594634984023429  8.0484620688136399 34.1463246198744983   T   T   T
  0.0000000277805533 -0.0000000033627233 36.1544216486279595   T   T   T
  2.8455610257556154 -0.0000000020076534 36.1544218492078002   T   T   T
  5.6911220643487690  0.0000000999519160 36.1544215863646841   T   T   T
  8.5366831466364559  0.0000000208841057 36.1544215206389126   T   T   T
  1.4227804889751332  2.0121155716711683 36.1544216538648513   T   T   T
  4.2683416685288460  2.0121154977162559 36.1544216515426911   T   T   T
  7.1139026426969387  2.0121153815594321 36.1544217325382746   T   T   T
  9.9594637102499597  2.0121155291695425 36.1544217230631872   T   T   T
  0.0000001333924203  4.0242310620876260 36.1544216617041485   T   T   T
  2.8455609963630000  4.0242310845925759 36.1544216785591459   T   T   T
  5.6911220330463639  4.0242309192105834 36.1544217168388187   T   T   T
  8.5366831449703398  4.0242310413404301 36.1544216978257040   T   T   T
  1.4227805450802455  6.0363465548391835 36.1544216125273650   T   T   T
  4.2683414981296668  6.0363466014058886 36.1544215407794667   T   T   T
  7.1139026407885728  6.0363465300195545 36.1544215616287516   T   T   T
  9.9594636665454050  6.0363466245171953 36.1544216389502751   T   T   T
 -0.0000001511140123  2.0121154576730635 38.1721443183458504   T   T   T
  2.8455609355637184  2.0121155850086496 38.1721443359915540   T   T   T
  5.6911221296062067  2.0121155154633872 38.1721442300477207   T   T   T
  8.5366831800148049  2.0121154596170658 38.1721442960939399   T   T   T
  1.4227804646861133  4.0242310365829521 38.1721441866360607   T   T   T
  4.2683415674469298  4.0242310888077473 38.1721443457746190   T   T   T
  7.1139025777071883  4.0242311244821654 38.1721443511417817   T   T   T
  9.9594637088576530  4.0242310818990399 38.1721443697745428   T   T   T
  0.0000000254736855  6.0363465131147782 38.1721443120158028   T   T   T
  2.8455610884669871  6.0363465951793316 38.1721442705795013   T   T   T
  5.6911221939981012  6.0363466584344918 38.1721443058315231   T   T   T
  8.5366831960570035  6.0363465930208831 38.1721444094744555   T   T   T
  1.4227806530194389  8.0484621828081639 38.1721443409161125   T   T   T
  4.2683415319244107  8.0484621620268708 38.1721442962783186   T   T   T
  7.1139025394472597  8.0484620137619824 38.1721442148458863   T   T   T
  9.9594637310694054  8.0484619890429929 38.1721443103767726   T   T   T
 -0.0000000005044055 -0.0000000382724413 40.1777033237947521   T   T   T
  2.8455610060246501 -0.0000000008410132 40.1777033830944390   T   T   T
  5.6911219741621997 -0.0000001026163166 40.1777032621457124   T   T   T
  8.5366832915306521  0.0000000777552874 40.1777032137389867   T   T   T
  1.4227804653024443  2.0121155491706024 40.1777032524051023   T   T   T
  4.2683415387820167  2.0121154200272700 40.1777034979077428   T   T   T
  7.1139027568298951  2.0121154916179869 40.1777032688227962   T   T   T
  9.9594637321573742  2.0121153454119565 40.1777033174645624   T   T   T
  0.0000000583095293  4.0242309757762671 40.1777034249795548   T   T   T
  2.8455611230033728  4.0242312239733380 40.1777033502312051   T   T   T
  5.6911221287840981  4.0242310252559053 40.1777033206072431   T   T   T
  8.5366831720626077  4.0242310419640770 40.1777032433306260   T   T   T
  1.4227804375872826  6.0363466289162275 40.1777033328432935   T   T   T
  4.2683415483644342  6.0363465404700190 40.1777033555386751   T   T   T
  7.1139026612810765  6.0363465228932673 40.1777033920276523   T   T   T
  9.9594637170503368  6.0363466702324891 40.1777033109619666   T   T   T
 -0.0000000114139172  2.0121156354079290 42.2081899697935157   T   T   T
  2.8455609892404841  2.0121156051948939 42.2081900388967597   T   T   T
  5.6911221029010584  2.0121154368097844 42.2081900453622083   T   T   T
  8.5366832510901016  2.0121155151393051 42.2081901682720186   T   T   T
  1.4227805867763055  4.0242310125526455 42.2081900388236377   T   T   T
  4.2683416849446418  4.0242310562858732 42.2081900831967332   T   T   T
  7.1139027524455694  4.0242310482257544 42.2081900490703248   T   T   T
  9.9594636243282366  4.0242309755782193 42.2081899670695364   T   T   T
 -0.0000000571243971  6.0363465374885017 42.2081899785326442   T   T   T
  2.8455610277455157  6.0363465746549752 42.2081899699675702   T   T   T
  5.6911221269198489  6.0363464935951425 42.2081901073273755   T   T   T
  8.5366832717553791  6.0363464491209733 42.2081900743836584   T   T   T
  1.4227804322739985  8.0484620357683259 42.2081900459703760   T   T   T
  4.2683416416551330  8.0484621498727869 42.2081900688919234   T   T   T
  7.1139026666343730  8.0484621374064105 42.2081900255013451   T   T   T
  9.9594637852119998  8.0484621214859118 42.2081900911855783   T   T   T
  0.0000002139123286 -0.0000001470023220 44.2136686563464636   T   T   T
  2.8455610835397267  0.0000000018833262 44.2136686395644318   T   T   T
  5.6911218912752046 -0.0000000636321301 44.2136687721887753   T   T   T
  8.5366833329558798 -0.0000000965934063 44.2136688345396180   T   T   T
  1.4227804433666904  2.0121155347606066 44.2136687466118588   T   T   T
  4.2683415102248805  2.0121155475618493 44.2136686663214249   T   T   T
  7.1139027541666096  2.0121156121665575 44.2136685837341972   T   T   T
  9.9594638028204052  2.0121154933814012 44.2136684799905879   T   T   T
  0.0000000535983381  4.0242311319949833 44.2136686424630128   T   T   T
  2.8455610784587777  4.0242309179480413 44.2136685454598108   T   T   T
  5.6911221796516189  4.0242310121278546 44.2136688564296136   T   T   T
  8.5366831914125907  4.0242310667983947 44.2136688204792989   T   T   T
  1.4227804095172678  6.0363465781011225 44.2136684380445999   T   T   T
  4.2683415129458995  6.0363465737106115 44.2136687036752605   T   T   T
  7.1139026029024288  6.0363465764273583 44.2136687112518700   T   T   T
  9.9594637862512094  6.0363465196403956 44.2136686063741067   T   T   T
  0.0000003192076109  2.0121154360498319 46.2361080571341532   T   T   T
  2.8455610899451145  2.0121153776454954 46.2361077723212546   T   T   T
  5.6911219644103657  2.0121155814137390 46.2361077901063737   T   T   T
  8.5366832521413230  2.0121154916839354 46.2361081631210880   T   T   T
  1.4227805312629691  4.0242309948952784 46.2361079788401881   T   T   T
  4.2683416053166230  4.0242312155462869 46.2361078684910964   T   T   T
  7.1139027519200919  4.0242310850950274 46.2361078678321462   T   T   T
  9.9594636053141361  4.0242310005283120 46.2361077307398247   T   T   T
 -0.0000000252551816  6.0363467240557025 46.2361079393318732   T   T   T
  2.8455613030392368  6.0363465759824582 46.2361078187002690   T   T   T
  5.6911218966051269  6.0363464415892514 46.2361078984012508   T   T   T
  8.5366831827462093  6.0363465759819270 46.2361078151812706   T   T   T
  1.4227806490104731  8.0484620579195401 46.2361078615658840   T   T   T
  4.2683415391570128  8.0484620840541066 46.2361078264058847   T   T   T
  7.1139026421297320  8.0484620547570316 46.2361079510562263   T   T   T
  9.9594637681738121  8.0484621884253364 46.2361077057911700   T   T   T
  0.0000000807045319 -0.0000000752146248 48.2299967751483152   T   T   T
  2.8455612112482704  0.0000000037123099 48.2299967204231308   T   T   T
  5.6911220655971535  0.0000000163154972 48.2299966525566290   T   T   T
  8.5366831700673469 -0.0000001113275348 48.2299967103994476   T   T   T
  1.4227804321296744  2.0121154643323140 48.2299966812292169   T   T   T
  4.2683414117976985  2.0121155350513593 48.2299967348698289   T   T   T
  7.1139028565117322  2.0121154139247679 48.2299966265768560   T   T   T
  9.9594636831104015  2.0121155264693473 48.2299967002925101   T   T   T
  0.0000000050236186  4.0242311382544207 48.2299966030864056   T   T   T
  2.8455611443438609  4.0242312216653353 48.2299966986705471   T   T   T
  5.6911221433244314  4.0242310302978446 48.2299965419865515   T   T   T
  8.5366831533693617  4.0242310394681908 48.2299967034836428   T   T   T
  1.4227805048187752  6.0363464742675355 48.2299967462562336   T   T   T
  4.2683414740597172  6.0363466238359988 48.2299967356123034   T   T   T
  7.1139026372930561  6.0363467902344743 48.2299966386356047   T   T   T
  9.9594637159523725  6.0363464283550696 48.2299967352186556   T   T   T
