Fe
 1.0000000000000000
    11.3822442397713690    0.0000000000000000    0.0000000000000000
     0.0000000000000000   11.3822442111568396    0.0000000000000000
     0.0000000000000000    0.0000000000000000   11.3822442276926612
 Fe 
 128
Cartesian
  0.0000003109325454  0.0000008110257440  0.0000010727524601
  1.4227817886573271  1.4227791061863628  1.4227802081413070
  0.0000007239126083 -0.0000002946993226  2.8455604358922595
  1.4227803992895449  1.4227815457545367  4.2683411266534845
 -0.0000004027753783  0.0000006296563781  5.6911222937052344
  1.4227808512441971  1.4227798601588666  7.1139024853064425
 -0.0000006356969304  0.0000000419918948  8.5366824284191942
  1.4227824423475899  1.4227802799648990  9.9594645445713414
 -0.0000002032515540  2.8455615418034612  0.0000000479247324
  1.4227800751094533  4.2683411769806492  1.4227806910517853
  0.0000007763350563  2.8455618707305228  2.8455630487873846
  1.4227783521092130  4.2683417919723086  4.2683415839620542
 -0.0000001187410705  2.8455610993102334  5.6911210615212520
  1.4227799190670367  4.2683420896492485  7.1139019835892370
 -0.0000009075252961  2.8455615383783535  8.5366826943012395
  1.4227802827328000  4.2683415487780341  9.9594637159742891
 -0.0000019536170764  5.6911211556954626 -0.0000006656396165
  1.4227810902494780  7.1139039625449412  1.4227828047041569
  0.0000008286863953  5.6911224977093546  2.8455627216333088
  1.4227790037967487  7.1139018469987745  4.2683401645625869
  0.0000011714885388  5.6911215574884908  5.6911208488808418
  1.4227797749440700  7.1139033575823767  7.1139028621867872
 -0.0000002846862750  5.6911224807873193  8.5366831211235290
  1.4227805902753132  7.1139028733041023  9.9594627651644050
 -0.0000005028628175  8.5366830579017599 -0.0000004573659189
  1.4227811389528375  9.9594645935280504  1.4227816536296447
  0.0000011934646746  8.5366816753609953  2.8455617348747704
  1.4227796021461776  9.9594633512694752  4.2683413210372061
  0.0000001634891664  8.5366824401685371  5.6911218989049912
  1.4227812870104131  9.9594628303748287  7.1139032880854733
  0.0000004220825951  8.5366827077504954  8.5366819864957506
  1.4227810809769736  9.9594634688009052  9.9594629200671569
  2.8455600747211234  0.0000013328877893 -0.0000004022752473
  4.2683408641952099  1.4227805568318344  1.4227810552865772
  2.8455601517390434  0.0000005516193448  2.8455593960756635
  4.2683409397743883  1.4227810768896332  4.2683422258452826
  2.8455613499735541  0.0000000177067309  5.6911227892428755
  4.2683406018732155  1.4227802692708345  7.1139033503256668
  2.8455613642145656  0.0000006636330267  8.5366836448134968
  4.2683396761378525  1.4227808428493800  9.9594633246595556
  2.8455609093469501  2.8455599042548232 -0.0000004335172482
  4.2683422485601312  4.2683418744649515  1.4227798003967327
  2.8455616493844520  2.8455599798519686  2.8455612667947277
  4.2683423339189108  4.2683407508091022  4.2683416423374450
  2.8455615445465177  2.8455600222298081  5.6911217164356591
  4.2683423188780374  4.2683418394739716  7.1139029553809481
  2.8455619380334962  2.8455595238026019  8.5366840262199908
  4.2683411607912660  4.2683417180914356  9.9594638143596690
  2.8455628905877313  5.6911221549234146 -0.0000005492590732
  4.2683420979287314  7.1139025703852461  1.4227808881949493
  2.8455606439649990  5.6911237012768083  2.8455603512110321
  4.2683424168580881  7.1139028873589893  4.2683407732250211
  2.8455611503228528  5.6911218519961198  5.6911225860716721
  4.2683422910398976  7.1139025980589627  7.1139018215030569
  2.8455608601919327  5.6911221841639401  8.5366838513313912
  4.2683409873248532  7.1139021164896139  9.9594645194836531
  2.8455621206198445  8.5366833360551038 -0.0000001330392930
  4.2683417131742365  9.9594626109912312  1.4227806343146356
  2.8455602606569346  8.5366825423823727  2.8455595665350484
  4.2683424433600710  9.9594632741439248  4.2683423043194777
  2.8455612455460049  8.5366838189895038  5.6911231800101598
  4.2683416354949264  9.9594642166221021  7.1139026313792160
  2.8455595044184592  8.5366840652632892  8.5366834100317739
  4.2683411914630920  9.9594634236164961  9.9594638806010742
  5.6911237857200154 -0.0000001958613238 -0.0000001111479599
  7.1139010196654580  1.4227807250383695  1.4227801803568785
  5.6911216996927383  0.0000001406362557  2.8455602620372944
  7.1139028567322793  1.4227823889936642  4.2683419835435190
  5.6911211994594693 -0.0000005198324440  5.6911221281233875
  7.1139028993491964  1.4227807643007884  7.1139038300127648
  5.6911223017850912 -0.0000000478410511  8.5366827489811943
  7.1139033172380604  1.4227795242769257  9.9594634106983229
  5.6911224232543738  2.8455615408763770  0.0000010155277086
  7.1139023168877342  4.2683397714638849  1.4227815666346257
  5.6911233285872838  2.8455617046924120  2.8455608516896413
  7.1139025135515706  4.2683404866203212  4.2683412305171649
  5.6911224742893562  2.8455614914473828  5.6911209961866200
  7.1139015586981680  4.2683427334219921  7.1139025674355061
  5.6911222363536629  2.8455612785084115  8.5366826184357620
  7.1139033333719084  4.2683416148404962  9.9594636918321875
  5.6911207535708286  5.6911221079548762  0.0000001961326114
  7.1139017635661403  7.1139035647984707  1.4227817956918647
  5.6911217038900901  5.6911225166791546  2.8455612436695343
  7.1139016117818299  7.1139023989943642  4.2683421238519710
  5.6911232069516018  5.6911225452829264  5.6911225961737237
  7.1139018197266637  7.1139015976635411  7.1139019502437311
  5.6911226355846170  5.6911215626829357  8.5366818263190023
  7.1139034120999050  7.1139019179543777  9.9594631723348517
  5.6911215546646714  8.5366832980578664  0.0000015206935444
  7.1139028488663598  9.9594635148163722  1.4227806021987450
  5.6911214566319899  8.5366823105308089  2.8455605870498490
  7.1139040499172737  9.9594631935938089  4.2683417990035961
  5.6911219137596953  8.5366823010498400  5.6911216655769215
  7.1139033239461860  9.9594636940724328  7.1139024708334695
  5.6911223584242894  8.5366832028823190  8.5366823733235844
  7.1139035023423594  9.9594650142937873  9.9594644167199604
  8.5366823694509453 -0.0000010621874382 -0.0000007798459513
  9.9594647037363480  1.4227799982367118  1.4227794552152055
  8.5366835036060884 -0.0000015531767278  2.8455613390953176
  9.9594635430409415  1.4227816455433080  4.2683430357215029
  8.5366840301224016 -0.0000003662837853  5.6911225076432777
  9.9594640079179779  1.4227795708217867  7.1139024595159039
  8.5366832464628093  0.0000001142668858  8.5366835328781843
  9.9594631451825553  1.4227808907275159  9.9594633018238241
  8.5366832399434216  2.8455615150681322 -0.0000001546131311
  9.9594634189649618  4.2683420071604488  1.4227794025543909
  8.5366818161716402  2.8455618247203485  2.8455621546242460
  9.9594645770578119  4.2683410340022796  4.2683409580611080
  8.5366830189282989  2.8455597091776372  5.6911209397339961
  9.9594641004912798  4.2683415184753253  7.1139036096926169
  8.5366831438746491  2.8455602671219928  8.5366835160498002
  9.9594636038026003  4.2683428968249375  9.9594644878442526
  8.5366849110466756  5.6911218477175902 -0.0000016596324244
  9.9594634547598790  7.1139026090137651  1.4227805289346322
  8.5366835637598921  5.6911223790822794  2.8455610643783218
  9.9594652144762783  7.1139023920400684  4.2683402363610083
  8.5366818241471485  5.6911218340601808  5.6911226201523393
  9.9594641120749205  7.1139036097158543  7.1139042159395247
  8.5366836682673899  5.6911224211106921  8.5366836199954541
  9.9594635785956616  7.1139013320914852  9.9594639615305098
  8.5366840283964773  8.5366847342890235  0.0000001048878435
  9.9594621627342708  9.9594639618511085  1.4227803899395908
  8.5366827290468628  8.5366834404682805  2.8455602603237398
  9.9594629199686526  9.9594642470257906  4.2683419029339245
  8.5366823573383535  8.5366848090506515  5.6911225482228911
  9.9594628464814576  9.9594639165715559  7.1139034304024671
  8.5366844029973308  8.5366836595860764  8.5366829354021423
  9.9594625185952488  9.9594636155525755  9.9594634892241416
