Fe
 1.0000000000000000
    16.0969241741277074    0.0000000000000000    0.0000000000000000
     0.0000000000000000   13.9403452575864364    0.0000000000000000
     0.0000000000000000    0.0000000000000000   35.6074117175584064
 Fe 
 320
Selective dynamics
Cartesian
  0.0000000000000000  2.3233908762644058 10.0000000000000000   T   T   T
  4.0242310435319268  2.3233908762644058 10.0000000000000000   T   T   T
  8.0484620870638537  2.3233908762644058 10.0000000000000000   T   T   T
 12.0726931305957805  2.3233908762644058 10.0000000000000000   T   T   T
  2.0121155217659634  5.8084771906610149 10.0000000000000000   T   T   T
  6.0363465652978903  5.8084771906610149 10.0000000000000000   T   T   T
 10.0605776088298171  5.8084771906610149 10.0000000000000000   T   T   T
 14.0848086523617440  5.8084771906610149 10.0000000000000000   T   T   T
  0.0000000000000000  9.2935635050576231 10.0000000000000000   T   T   T
  4.0242310435319268  9.2935635050576231 10.0000000000000000   T   T   T
  8.0484620870638537  9.2935635050576231 10.0000000000000000   T   T   T
 12.0726931305957805  9.2935635050576231 10.0000000000000000   T   T   T
  2.0121155217659634 12.7786498194542322 10.0000000000000000   T   T   T
  6.0363465652978903 12.7786498194542322 10.0000000000000000   T   T   T
 10.0605776088298171 12.7786498194542322 10.0000000000000000   T   T   T
 14.0848086523617440 12.7786498194542322 10.0000000000000000   T   T   T
  0.0000000000000000  0.0000000000000000 10.8214427219767586   T   T   T
  4.0242310435319268  0.0000000000000000 10.8214427219767586   T   T   T
  8.0484620870638537  0.0000000000000000 10.8214427219767586   T   T   T
 12.0726931305957805  0.0000000000000000 10.8214427219767586   T   T   T
  2.0121155217659634  3.4850863143966091 10.8214427219767586   T   T   T
  6.0363465652978903  3.4850863143966091 10.8214427219767586   T   T   T
 10.0605776088298171  3.4850863143966091 10.8214427219767586   T   T   T
 14.0848086523617440  3.4850863143966091 10.8214427219767586   T   T   T
  0.0000000000000000  6.9701726287932182 10.8214427219767586   T   T   T
  4.0242310435319268  6.9701726287932182 10.8214427219767586   T   T   T
  8.0484620870638537  6.9701726287932182 10.8214427219767586   T   T   T
 12.0726931305957805  6.9701726287932182 10.8214427219767586   T   T   T
  2.0121155217659634 10.4552589431898273 10.8214427219767586   T   T   T
  6.0363465652978903 10.4552589431898273 10.8214427219767586   T   T   T
 10.0605776088298171 10.4552589431898273 10.8214427219767586   T   T   T
 14.0848086523617440 10.4552589431898273 10.8214427219767586   T   T   T
  2.0121155217659634  1.1616954381322029 11.6428854439535172   T   T   T
  6.0363465652978903  1.1616954381322029 11.6428854439535172   T   T   T
 10.0605776088298171  1.1616954381322029 11.6428854439535172   T   T   T
 14.0848086523617440  1.1616954381322029 11.6428854439535172   T   T   T
  0.0000000000000000  4.6467817525288115 11.6428854439535172   T   T   T
  4.0242310435319268  4.6467817525288115 11.6428854439535172   T   T   T
  8.0484620870638537  4.6467817525288115 11.6428854439535172   T   T   T
 12.0726931305957805  4.6467817525288115 11.6428854439535172   T   T   T
  2.0121155217659634  8.1318680669254224 11.6428854439535172   T   T   T
  6.0363465652978903  8.1318680669254224 11.6428854439535172   T   T   T
 10.0605776088298171  8.1318680669254224 11.6428854439535172   T   T   T
 14.0848086523617440  8.1318680669254224 11.6428854439535172   T   T   T
  0.0000000000000000 11.6169543813220315 11.6428854439535172   T   T   T
  4.0242310435319268 11.6169543813220315 11.6428854439535172   T   T   T
  8.0484620870638537 11.6169543813220315 11.6428854439535172   T   T   T
 12.0726931305957805 11.6169543813220315 11.6428854439535172   T   T   T
  0.0000000000000000  2.3233908762644058 12.4643281659302758   T   T   T
  4.0242310435319268  2.3233908762644058 12.4643281659302758   T   T   T
  8.0484620870638537  2.3233908762644058 12.4643281659302758   T   T   T
 12.0726931305957805  2.3233908762644058 12.4643281659302758   T   T   T
  2.0121155217659634  5.8084771906610149 12.4643281659302758   T   T   T
  6.0363465652978903  5.8084771906610149 12.4643281659302758   T   T   T
 10.0605776088298171  5.8084771906610149 12.4643281659302758   T   T   T
 14.0848086523617440  5.8084771906610149 12.4643281659302758   T   T   T
  0.0000000000000000  9.2935635050576231 12.4643281659302758   T   T   T
  4.0242310435319268  9.2935635050576231 12.4643281659302758   T   T   T
  8.0484620870638537  9.2935635050576231 12.4643281659302758   T   T   T
 12.0726931305957805  9.2935635050576231 12.4643281659302758   T   T   T
  2.0121155217659634 12.7786498194542322 12.4643281659302758   T   T   T
  6.0363465652978903 12.7786498194542322 12.4643281659302758   T   T   T
 10.0605776088298171 12.7786498194542322 12.4643281659302758   T   T   T
 14.0848086523617440 12.7786498194542322 12.4643281659302758   T   T   T
  0.0000000000000000  0.0000000000000000 13.2857708879070326   T   T   T
  4.0242310435319268  0.0000000000000000 13.2857708879070326   T   T   T
  8.0484620870638537  0.0000000000000000 13.2857708879070326   T   T   T
 12.0726931305957805  0.0000000000000000 13.2857708879070326   T   T   T
  2.0121155217659634  3.4850863143966091 13.2857708879070326   T   T   T
  6.0363465652978903  3.4850863143966091 13.2857708879070326   T   T   T
 10.0605776088298171  3.4850863143966091 13.2857708879070326   T   T   T
 14.0848086523617440  3.4850863143966091 13.2857708879070326   T   T   T
  0.0000000000000000  6.9701726287932182 13.2857708879070326   T   T   T
  4.0242310435319268  6.9701726287932182 13.2857708879070326   T   T   T
  8.0484620870638537  6.9701726287932182 13.2857708879070326   T   T   T
 12.0726931305957805  6.9701726287932182 13.2857708879070326   T   T   T
  2.0121155217659634 10.4552589431898273 13.2857708879070326   T   T   T
  6.0363465652978903 10.4552589431898273 13.2857708879070326   T   T   T
 10.0605776088298171 10.4552589431898273 13.2857708879070326   T   T   T
 14.0848086523617440 10.4552589431898273 13.2857708879070326   T   T   T
  2.0121155217659634  1.1616954381322029 14.1072136098837912   T   T   T
  6.0363465652978903  1.1616954381322029 14.1072136098837912   T   T   T
 10.0605776088298171  1.1616954381322029 14.1072136098837912   T   T   T
 14.0848086523617440  1.1616954381322029 14.1072136098837912   T   T   T
  0.0000000000000000  4.6467817525288115 14.1072136098837912   T   T   T
  4.0242310435319268  4.6467817525288115 14.1072136098837912   T   T   T
  8.0484620870638537  4.6467817525288115 14.1072136098837912   T   T   T
 12.0726931305957805  4.6467817525288115 14.1072136098837912   T   T   T
  2.0121155217659634  8.1318680669254224 14.1072136098837912   T   T   T
  6.0363465652978903  8.1318680669254224 14.1072136098837912   T   T   T
 10.0605776088298171  8.1318680669254224 14.1072136098837912   T   T   T
 14.0848086523617440  8.1318680669254224 14.1072136098837912   T   T   T
  0.0000000000000000 11.6169543813220315 14.1072136098837912   T   T   T
  4.0242310435319268 11.6169543813220315 14.1072136098837912   T   T   T
  8.0484620870638537 11.6169543813220315 14.1072136098837912   T   T   T
 12.0726931305957805 11.6169543813220315 14.1072136098837912   T   T   T
  0.0000000000000000  2.3233908762644058 14.9286563318605499   T   T   T
  4.0242310435319268  2.3233908762644058 14.9286563318605499   T   T   T
  8.0484620870638537  2.3233908762644058 14.9286563318605499   T   T   T
 12.0726931305957805  2.3233908762644058 14.9286563318605499   T   T   T
  2.0121155217659634  5.8084771906610149 14.9286563318605499   T   T   T
  6.0363465652978903  5.8084771906610149 14.9286563318605499   T   T   T
 10.0605776088298171  5.8084771906610149 14.9286563318605499   T   T   T
 14.0848086523617440  5.8084771906610149 14.9286563318605499   T   T   T
  0.0000000000000000  9.2935635050576231 14.9286563318605499   T   T   T
  4.0242310435319268  9.2935635050576231 14.9286563318605499   T   T   T
  8.0484620870638537  9.2935635050576231 14.9286563318605499   T   T   T
 12.0726931305957805  9.2935635050576231 14.9286563318605499   T   T   T
  2.0121155217659634 12.7786498194542322 14.9286563318605499   T   T   T
  6.0363465652978903 12.7786498194542322 14.9286563318605499   T   T   T
 10.0605776088298171 12.7786498194542322 14.9286563318605499   T   T   T
 14.0848086523617440 12.7786498194542322 14.9286563318605499   T   T   T
  0.0000000000000000  0.0000000000000000 15.7500990538373067   T   T   T
  4.0242310435319268  0.0000000000000000 15.7500990538373067   T   T   T
  8.0484620870638537  0.0000000000000000 15.7500990538373067   T   T   T
 12.0726931305957805  0.0000000000000000 15.7500990538373067   T   T   T
  2.0121155217659634  3.4850863143966091 15.7500990538373067   T   T   T
  6.0363465652978903  3.4850863143966091 15.7500990538373067   T   T   T
 10.0605776088298171  3.4850863143966091 15.7500990538373067   T   T   T
 14.0848086523617440  3.4850863143966091 15.7500990538373067   T   T   T
  0.0000000000000000  6.9701726287932182 15.7500990538373067   T   T   T
  4.0242310435319268  6.9701726287932182 15.7500990538373067   T   T   T
  8.0484620870638537  6.9701726287932182 15.7500990538373067   T   T   T
 12.0726931305957805  6.9701726287932182 15.7500990538373067   T   T   T
  2.0121155217659634 10.4552589431898273 15.7500990538373067   T   T   T
  6.0363465652978903 10.4552589431898273 15.7500990538373067   T   T   T
 10.0605776088298171 10.4552589431898273 15.7500990538373067   T   T   T
 14.0848086523617440 10.4552589431898273 15.7500990538373067   T   T   T
  2.0121155217659634  1.1616954381322029 16.5715417758140653   F   F   F
  6.0363465652978903  1.1616954381322029 16.5715417758140653   F   F   F
 10.0605776088298171  1.1616954381322029 16.5715417758140653   F   F   F
 14.0848086523617440  1.1616954381322029 16.5715417758140653   F   F   F
  0.0000000000000000  4.6467817525288115 16.5715417758140653   F   F   F
  4.0242310435319268  4.6467817525288115 16.5715417758140653   F   F   F
  8.0484620870638537  4.6467817525288115 16.5715417758140653   F   F   F
 12.0726931305957805  4.6467817525288115 16.5715417758140653   F   F   F
  2.0121155217659634  8.1318680669254224 16.5715417758140653   F   F   F
  6.0363465652978903  8.1318680669254224 16.5715417758140653   F   F   F
 10.0605776088298171  8.1318680669254224 16.5715417758140653   F   F   F
 14.0848086523617440  8.1318680669254224 16.5715417758140653   F   F   F
  0.0000000000000000 11.6169543813220315 16.5715417758140653   F   F   F
  4.0242310435319268 11.6169543813220315 16.5715417758140653   F   F   F
  8.0484620870638537 11.6169543813220315 16.5715417758140653   F   F   F
 12.0726931305957805 11.6169543813220315 16.5715417758140653   F   F   F
  0.0000000000000000  2.3233908762644058 17.3929844977908239   F   F   F
  4.0242310435319268  2.3233908762644058 17.3929844977908239   F   F   F
  8.0484620870638537  2.3233908762644058 17.3929844977908239   F   F   F
 12.0726931305957805  2.3233908762644058 17.3929844977908239   F   F   F
  2.0121155217659634  5.8084771906610149 17.3929844977908239   F   F   F
  6.0363465652978903  5.8084771906610149 17.3929844977908239   F   F   F
 10.0605776088298171  5.8084771906610149 17.3929844977908239   F   F   F
 14.0848086523617440  5.8084771906610149 17.3929844977908239   F   F   F
  0.0000000000000000  9.2935635050576231 17.3929844977908239   F   F   F
  4.0242310435319268  9.2935635050576231 17.3929844977908239   F   F   F
  8.0484620870638537  9.2935635050576231 17.3929844977908239   F   F   F
 12.0726931305957805  9.2935635050576231 17.3929844977908239   F   F   F
  2.0121155217659634 12.7786498194542322 17.3929844977908239   F   F   F
  6.0363465652978903 12.7786498194542322 17.3929844977908239   F   F   F
 10.0605776088298171 12.7786498194542322 17.3929844977908239   F   F   F
 14.0848086523617440 12.7786498194542322 17.3929844977908239   F   F   F
  0.0000000000000000  0.0000000000000000 18.2144272197675825   F   F   F
  4.0242310435319268  0.0000000000000000 18.2144272197675825   F   F   F
  8.0484620870638537  0.0000000000000000 18.2144272197675825   F   F   F
 12.0726931305957805  0.0000000000000000 18.2144272197675825   F   F   F
  2.0121155217659634  3.4850863143966091 18.2144272197675825   F   F   F
  6.0363465652978903  3.4850863143966091 18.2144272197675825   F   F   F
 10.0605776088298171  3.4850863143966091 18.2144272197675825   F   F   F
 14.0848086523617440  3.4850863143966091 18.2144272197675825   F   F   F
  0.0000000000000000  6.9701726287932182 18.2144272197675825   F   F   F
  4.0242310435319268  6.9701726287932182 18.2144272197675825   F   F   F
  8.0484620870638537  6.9701726287932182 18.2144272197675825   F   F   F
 12.0726931305957805  6.9701726287932182 18.2144272197675825   F   F   F
  2.0121155217659634 10.4552589431898273 18.2144272197675825   F   F   F
  6.0363465652978903 10.4552589431898273 18.2144272197675825   F   F   F
 10.0605776088298171 10.4552589431898273 18.2144272197675825   F   F   F
 14.0848086523617440 10.4552589431898273 18.2144272197675825   F   F   F
  2.0121155217659634  1.1616954381322029 19.0358699417443411   F   F   F
  6.0363465652978903  1.1616954381322029 19.0358699417443411   F   F   F
 10.0605776088298171  1.1616954381322029 19.0358699417443411   F   F   F
 14.0848086523617440  1.1616954381322029 19.0358699417443411   F   F   F
  0.0000000000000000  4.6467817525288115 19.0358699417443411   F   F   F
  4.0242310435319268  4.6467817525288115 19.0358699417443411   F   F   F
  8.0484620870638537  4.6467817525288115 19.0358699417443411   F   F   F
 12.0726931305957805  4.6467817525288115 19.0358699417443411   F   F   F
  2.0121155217659634  8.1318680669254224 19.0358699417443411   F   F   F
  6.0363465652978903  8.1318680669254224 19.0358699417443411   F   F   F
 10.0605776088298171  8.1318680669254224 19.0358699417443411   F   F   F
 14.0848086523617440  8.1318680669254224 19.0358699417443411   F   F   F
  0.0000000000000000 11.6169543813220315 19.0358699417443411   F   F   F
  4.0242310435319268 11.6169543813220315 19.0358699417443411   F   F   F
  8.0484620870638537 11.6169543813220315 19.0358699417443411   F   F   F
 12.0726931305957805 11.6169543813220315 19.0358699417443411   F   F   F
  0.0000000000000000  2.3233908762644058 19.8573126637210997   T   T   T
  4.0242310435319268  2.3233908762644058 19.8573126637210997   T   T   T
  8.0484620870638537  2.3233908762644058 19.8573126637210997   T   T   T
 12.0726931305957805  2.3233908762644058 19.8573126637210997   T   T   T
  2.0121155217659634  5.8084771906610149 19.8573126637210997   T   T   T
  6.0363465652978903  5.8084771906610149 19.8573126637210997   T   T   T
 10.0605776088298171  5.8084771906610149 19.8573126637210997   T   T   T
 14.0848086523617440  5.8084771906610149 19.8573126637210997   T   T   T
  0.0000000000000000  9.2935635050576231 19.8573126637210997   T   T   T
  4.0242310435319268  9.2935635050576231 19.8573126637210997   T   T   T
  8.0484620870638537  9.2935635050576231 19.8573126637210997   T   T   T
 12.0726931305957805  9.2935635050576231 19.8573126637210997   T   T   T
  2.0121155217659634 12.7786498194542322 19.8573126637210997   T   T   T
  6.0363465652978903 12.7786498194542322 19.8573126637210997   T   T   T
 10.0605776088298171 12.7786498194542322 19.8573126637210997   T   T   T
 14.0848086523617440 12.7786498194542322 19.8573126637210997   T   T   T
  0.0000000000000000  0.0000000000000000 20.6787553856978583   T   T   T
  4.0242310435319268  0.0000000000000000 20.6787553856978583   T   T   T
  8.0484620870638537  0.0000000000000000 20.6787553856978583   T   T   T
 12.0726931305957805  0.0000000000000000 20.6787553856978583   T   T   T
  2.0121155217659634  3.4850863143966091 20.6787553856978583   T   T   T
  6.0363465652978903  3.4850863143966091 20.6787553856978583   T   T   T
 10.0605776088298171  3.4850863143966091 20.6787553856978583   T   T   T
 14.0848086523617440  3.4850863143966091 20.6787553856978583   T   T   T
  0.0000000000000000  6.9701726287932182 20.6787553856978583   T   T   T
  4.0242310435319268  6.9701726287932182 20.6787553856978583   T   T   T
  8.0484620870638537  6.9701726287932182 20.6787553856978583   T   T   T
 12.0726931305957805  6.9701726287932182 20.6787553856978583   T   T   T
  2.0121155217659634 10.4552589431898273 20.6787553856978583   T   T   T
  6.0363465652978903 10.4552589431898273 20.6787553856978583   T   T   T
 10.0605776088298171 10.4552589431898273 20.6787553856978583   T   T   T
 14.0848086523617440 10.4552589431898273 20.6787553856978583   T   T   T
  2.0121155217659634  1.1616954381322029 21.5001981076746134   T   T   T
  6.0363465652978903  1.1616954381322029 21.5001981076746134   T   T   T
 10.0605776088298171  1.1616954381322029 21.5001981076746134   T   T   T
 14.0848086523617440  1.1616954381322029 21.5001981076746134   T   T   T
  0.0000000000000000  4.6467817525288115 21.5001981076746134   T   T   T
  4.0242310435319268  4.6467817525288115 21.5001981076746134   T   T   T
  8.0484620870638537  4.6467817525288115 21.5001981076746134   T   T   T
 12.0726931305957805  4.6467817525288115 21.5001981076746134   T   T   T
  2.0121155217659634  8.1318680669254224 21.5001981076746134   T   T   T
  6.0363465652978903  8.1318680669254224 21.5001981076746134   T   T   T
 10.0605776088298171  8.1318680669254224 21.5001981076746134   T   T   T
 14.0848086523617440  8.1318680669254224 21.5001981076746134   T   T   T
  0.0000000000000000 11.6169543813220315 21.5001981076746134   T   T   T
  4.0242310435319268 11.6169543813220315 21.5001981076746134   T   T   T
  8.0484620870638537 11.6169543813220315 21.5001981076746134   T   T   T
 12.0726931305957805 11.6169543813220315 21.5001981076746134   T   T   T
  0.0000000000000000  2.3233908762644058 22.3216408296513720   T   T   T
  4.0242310435319268  2.3233908762644058 22.3216408296513720   T   T   T
  8.0484620870638537  2.3233908762644058 22.3216408296513720   T   T   T
 12.0726931305957805  2.3233908762644058 22.3216408296513720   T   T   T
  2.0121155217659634  5.8084771906610149 22.3216408296513720   T   T   T
  6.0363465652978903  5.8084771906610149 22.3216408296513720   T   T   T
 10.0605776088298171  5.8084771906610149 22.3216408296513720   T   T   T
 14.0848086523617440  5.8084771906610149 22.3216408296513720   T   T   T
  0.0000000000000000  9.2935635050576231 22.3216408296513720   T   T   T
  4.0242310435319268  9.2935635050576231 22.3216408296513720   T   T   T
  8.0484620870638537  9.2935635050576231 22.3216408296513720   T   T   T
 12.0726931305957805  9.2935635050576231 22.3216408296513720   T   T   T
  2.0121155217659634 12.7786498194542322 22.3216408296513720   T   T   T
  6.0363465652978903 12.7786498194542322 22.3216408296513720   T   T   T
 10.0605776088298171 12.7786498194542322 22.3216408296513720   T   T   T
 14.0848086523617440 12.7786498194542322 22.3216408296513720   T   T   T
  0.0000000000000000  0.0000000000000000 23.1430835516281306   T   T   T
  4.0242310435319268  0.0000000000000000 23.1430835516281306   T   T   T
  8.0484620870638537  0.0000000000000000 23.1430835516281306   T   T   T
 12.0726931305957805  0.0000000000000000 23.1430835516281306   T   T   T
  2.0121155217659634  3.4850863143966091 23.1430835516281306   T   T   T
  6.0363465652978903  3.4850863143966091 23.1430835516281306   T   T   T
 10.0605776088298171  3.4850863143966091 23.1430835516281306   T   T   T
 14.0848086523617440  3.4850863143966091 23.1430835516281306   T   T   T
  0.0000000000000000  6.9701726287932182 23.1430835516281306   T   T   T
  4.0242310435319268  6.9701726287932182 23.1430835516281306   T   T   T
  8.0484620870638537  6.9701726287932182 23.1430835516281306   T   T   T
 12.0726931305957805  6.9701726287932182 23.1430835516281306   T   T   T
  2.0121155217659634 10.4552589431898273 23.1430835516281306   T   T   T
  6.0363465652978903 10.4552589431898273 23.1430835516281306   T   T   T
 10.0605776088298171 10.4552589431898273 23.1430835516281306   T   T   T
 14.0848086523617440 10.4552589431898273 23.1430835516281306   T   T   T
  2.0121155217659634  1.1616954381322029 23.9645262736048892   T   T   T
  6.0363465652978903  1.1616954381322029 23.9645262736048892   T   T   T
 10.0605776088298171  1.1616954381322029 23.9645262736048892   T   T   T
 14.0848086523617440  1.1616954381322029 23.9645262736048892   T   T   T
  0.0000000000000000  4.6467817525288115 23.9645262736048892   T   T   T
  4.0242310435319268  4.6467817525288115 23.9645262736048892   T   T   T
  8.0484620870638537  4.6467817525288115 23.9645262736048892   T   T   T
 12.0726931305957805  4.6467817525288115 23.9645262736048892   T   T   T
  2.0121155217659634  8.1318680669254224 23.9645262736048892   T   T   T
  6.0363465652978903  8.1318680669254224 23.9645262736048892   T   T   T
 10.0605776088298171  8.1318680669254224 23.9645262736048892   T   T   T
 14.0848086523617440  8.1318680669254224 23.9645262736048892   T   T   T
  0.0000000000000000 11.6169543813220315 23.9645262736048892   T   T   T
  4.0242310435319268 11.6169543813220315 23.9645262736048892   T   T   T
  8.0484620870638537 11.6169543813220315 23.9645262736048892   T   T   T
 12.0726931305957805 11.6169543813220315 23.9645262736048892   T   T   T
  0.0000000000000000  2.3233908762644058 24.7859689955816478   T   T   T
  4.0242310435319268  2.3233908762644058 24.7859689955816478   T   T   T
  8.0484620870638537  2.3233908762644058 24.7859689955816478   T   T   T
 12.0726931305957805  2.3233908762644058 24.7859689955816478   T   T   T
  2.0121155217659634  5.8084771906610149 24.7859689955816478   T   T   T
  6.0363465652978903  5.8084771906610149 24.7859689955816478   T   T   T
 10.0605776088298171  5.8084771906610149 24.7859689955816478   T   T   T
 14.0848086523617440  5.8084771906610149 24.7859689955816478   T   T   T
  0.0000000000000000  9.2935635050576231 24.7859689955816478   T   T   T
  4.0242310435319268  9.2935635050576231 24.7859689955816478   T   T   T
  8.0484620870638537  9.2935635050576231 24.7859689955816478   T   T   T
 12.0726931305957805  9.2935635050576231 24.7859689955816478   T   T   T
  2.0121155217659634 12.7786498194542322 24.7859689955816478   T   T   T
  6.0363465652978903 12.7786498194542322 24.7859689955816478   T   T   T
 10.0605776088298171 12.7786498194542322 24.7859689955816478   T   T   T
 14.0848086523617440 12.7786498194542322 24.7859689955816478   T   T   T
  0.0000000000000000  0.0000000000000000 25.6074117175584064   T   T   T
  4.0242310435319268  0.0000000000000000 25.6074117175584064   T   T   T
  8.0484620870638537  0.0000000000000000 25.6074117175584064   T   T   T
 12.0726931305957805  0.0000000000000000 25.6074117175584064   T   T   T
  2.0121155217659634  3.4850863143966091 25.6074117175584064   T   T   T
  6.0363465652978903  3.4850863143966091 25.6074117175584064   T   T   T
 10.0605776088298171  3.4850863143966091 25.6074117175584064   T   T   T
 14.0848086523617440  3.4850863143966091 25.6074117175584064   T   T   T
  0.0000000000000000  6.9701726287932182 25.6074117175584064   T   T   T
  4.0242310435319268  6.9701726287932182 25.6074117175584064   T   T   T
  8.0484620870638537  6.9701726287932182 25.6074117175584064   T   T   T
 12.0726931305957805  6.9701726287932182 25.6074117175584064   T   T   T
  2.0121155217659634 10.4552589431898273 25.6074117175584064   T   T   T
  6.0363465652978903 10.4552589431898273 25.6074117175584064   T   T   T
 10.0605776088298171 10.4552589431898273 25.6074117175584064   T   T   T
 14.0848086523617440 10.4552589431898273 25.6074117175584064   T   T   T
