Fe
 1.0000000000000000
    11.3822442397713672    0.0000000000000000    0.0000000000000000
     0.0000000000000000   11.3822442397713672    0.0000000000000000
     0.0000000000000000    0.0000000000000000   47.0328300694569990
 Fe 
 320
Selective dynamics
Cartesian
  1.4227805299714209  1.4227805299714209 10.0000000000000000   T   T   T
  4.2683415899142627  1.4227805299714209 10.0000000000000000   T   T   T
  7.1139026498571045  1.4227805299714209 10.0000000000000000   T   T   T
  9.9594637097999463  1.4227805299714209 10.0000000000000000   T   T   T
  1.4227805299714209  4.2683415899142627 10.0000000000000000   T   T   T
  4.2683415899142627  4.2683415899142627 10.0000000000000000   T   T   T
  7.1139026498571045  4.2683415899142627 10.0000000000000000   T   T   T
  9.9594637097999463  4.2683415899142627 10.0000000000000000   T   T   T
  1.4227805299714209  7.1139026498571045 10.0000000000000000   T   T   T
  4.2683415899142627  7.1139026498571045 10.0000000000000000   T   T   T
  7.1139026498571045  7.1139026498571045 10.0000000000000000   T   T   T
  9.9594637097999463  7.1139026498571045 10.0000000000000000   T   T   T
  1.4227805299714209  9.9594637097999463 10.0000000000000000   T   T   T
  4.2683415899142627  9.9594637097999463 10.0000000000000000   T   T   T
  7.1139026498571045  9.9594637097999463 10.0000000000000000   T   T   T
  9.9594637097999463  9.9594637097999463 10.0000000000000000   T   T   T
  0.0000000000000000  0.0000000000000000 11.4227805299714209   T   T   T
  2.8455610599428418  0.0000000000000000 11.4227805299714209   T   T   T
  5.6911221198856836  0.0000000000000000 11.4227805299714209   T   T   T
  8.5366831798285254  0.0000000000000000 11.4227805299714209   T   T   T
  0.0000000000000000  2.8455610599428418 11.4227805299714209   T   T   T
  2.8455610599428418  2.8455610599428418 11.4227805299714209   T   T   T
  5.6911221198856836  2.8455610599428418 11.4227805299714209   T   T   T
  8.5366831798285254  2.8455610599428418 11.4227805299714209   T   T   T
  0.0000000000000000  5.6911221198856836 11.4227805299714209   T   T   T
  2.8455610599428418  5.6911221198856836 11.4227805299714209   T   T   T
  5.6911221198856836  5.6911221198856836 11.4227805299714209   T   T   T
  8.5366831798285254  5.6911221198856836 11.4227805299714209   T   T   T
  0.0000000000000000  8.5366831798285254 11.4227805299714209   T   T   T
  2.8455610599428418  8.5366831798285254 11.4227805299714209   T   T   T
  5.6911221198856836  8.5366831798285254 11.4227805299714209   T   T   T
  8.5366831798285254  8.5366831798285254 11.4227805299714209   T   T   T
  1.4227805299714209  1.4227805299714209 12.8455610599428418   T   T   T
  4.2683415899142627  1.4227805299714209 12.8455610599428418   T   T   T
  7.1139026498571045  1.4227805299714209 12.8455610599428418   T   T   T
  9.9594637097999463  1.4227805299714209 12.8455610599428418   T   T   T
  1.4227805299714209  4.2683415899142627 12.8455610599428418   T   T   T
  4.2683415899142627  4.2683415899142627 12.8455610599428418   T   T   T
  7.1139026498571045  4.2683415899142627 12.8455610599428418   T   T   T
  9.9594637097999463  4.2683415899142627 12.8455610599428418   T   T   T
  1.4227805299714209  7.1139026498571045 12.8455610599428418   T   T   T
  4.2683415899142627  7.1139026498571045 12.8455610599428418   T   T   T
  7.1139026498571045  7.1139026498571045 12.8455610599428418   T   T   T
  9.9594637097999463  7.1139026498571045 12.8455610599428418   T   T   T
  1.4227805299714209  9.9594637097999463 12.8455610599428418   T   T   T
  4.2683415899142627  9.9594637097999463 12.8455610599428418   T   T   T
  7.1139026498571045  9.9594637097999463 12.8455610599428418   T   T   T
  9.9594637097999463  9.9594637097999463 12.8455610599428418   T   T   T
  0.0000000000000000  0.0000000000000000 14.2683415899142627   T   T   T
  2.8455610599428418  0.0000000000000000 14.2683415899142627   T   T   T
  5.6911221198856836  0.0000000000000000 14.2683415899142627   T   T   T
  8.5366831798285254  0.0000000000000000 14.2683415899142627   T   T   T
  0.0000000000000000  2.8455610599428418 14.2683415899142627   T   T   T
  2.8455610599428418  2.8455610599428418 14.2683415899142627   T   T   T
  5.6911221198856836  2.8455610599428418 14.2683415899142627   T   T   T
  8.5366831798285254  2.8455610599428418 14.2683415899142627   T   T   T
  0.0000000000000000  5.6911221198856836 14.2683415899142627   T   T   T
  2.8455610599428418  5.6911221198856836 14.2683415899142627   T   T   T
  5.6911221198856836  5.6911221198856836 14.2683415899142627   T   T   T
  8.5366831798285254  5.6911221198856836 14.2683415899142627   T   T   T
  0.0000000000000000  8.5366831798285254 14.2683415899142627   T   T   T
  2.8455610599428418  8.5366831798285254 14.2683415899142627   T   T   T
  5.6911221198856836  8.5366831798285254 14.2683415899142627   T   T   T
  8.5366831798285254  8.5366831798285254 14.2683415899142627   T   T   T
  1.4227805299714209  1.4227805299714209 15.6911221198856836   T   T   T
  4.2683415899142627  1.4227805299714209 15.6911221198856836   T   T   T
  7.1139026498571045  1.4227805299714209 15.6911221198856836   T   T   T
  9.9594637097999463  1.4227805299714209 15.6911221198856836   T   T   T
  1.4227805299714209  4.2683415899142627 15.6911221198856836   T   T   T
  4.2683415899142627  4.2683415899142627 15.6911221198856836   T   T   T
  7.1139026498571045  4.2683415899142627 15.6911221198856836   T   T   T
  9.9594637097999463  4.2683415899142627 15.6911221198856836   T   T   T
  1.4227805299714209  7.1139026498571045 15.6911221198856836   T   T   T
  4.2683415899142627  7.1139026498571045 15.6911221198856836   T   T   T
  7.1139026498571045  7.1139026498571045 15.6911221198856836   T   T   T
  9.9594637097999463  7.1139026498571045 15.6911221198856836   T   T   T
  1.4227805299714209  9.9594637097999463 15.6911221198856836   T   T   T
  4.2683415899142627  9.9594637097999463 15.6911221198856836   T   T   T
  7.1139026498571045  9.9594637097999463 15.6911221198856836   T   T   T
  9.9594637097999463  9.9594637097999463 15.6911221198856836   T   T   T
  0.0000000000000000  0.0000000000000000 17.1139026498571027   T   T   T
  2.8455610599428418  0.0000000000000000 17.1139026498571027   T   T   T
  5.6911221198856836  0.0000000000000000 17.1139026498571027   T   T   T
  8.5366831798285254  0.0000000000000000 17.1139026498571027   T   T   T
  0.0000000000000000  2.8455610599428418 17.1139026498571027   T   T   T
  2.8455610599428418  2.8455610599428418 17.1139026498571027   T   T   T
  5.6911221198856836  2.8455610599428418 17.1139026498571027   T   T   T
  8.5366831798285254  2.8455610599428418 17.1139026498571027   T   T   T
  0.0000000000000000  5.6911221198856836 17.1139026498571027   T   T   T
  2.8455610599428418  5.6911221198856836 17.1139026498571027   T   T   T
  5.6911221198856836  5.6911221198856836 17.1139026498571027   T   T   T
  8.5366831798285254  5.6911221198856836 17.1139026498571027   T   T   T
  0.0000000000000000  8.5366831798285254 17.1139026498571027   T   T   T
  2.8455610599428418  8.5366831798285254 17.1139026498571027   T   T   T
  5.6911221198856836  8.5366831798285254 17.1139026498571027   T   T   T
  8.5366831798285254  8.5366831798285254 17.1139026498571027   T   T   T
  1.4227805299714209  1.4227805299714209 18.5366831798285254   T   T   T
  4.2683415899142627  1.4227805299714209 18.5366831798285254   T   T   T
  7.1139026498571045  1.4227805299714209 18.5366831798285254   T   T   T
  9.9594637097999463  1.4227805299714209 18.5366831798285254   T   T   T
  1.4227805299714209  4.2683415899142627 18.5366831798285254   T   T   T
  4.2683415899142627  4.2683415899142627 18.5366831798285254   T   T   T
  7.1139026498571045  4.2683415899142627 18.5366831798285254   T   T   T
  9.9594637097999463  4.2683415899142627 18.5366831798285254   T   T   T
  1.4227805299714209  7.1139026498571045 18.5366831798285254   T   T   T
  4.2683415899142627  7.1139026498571045 18.5366831798285254   T   T   T
  7.1139026498571045  7.1139026498571045 18.5366831798285254   T   T   T
  9.9594637097999463  7.1139026498571045 18.5366831798285254   T   T   T
  1.4227805299714209  9.9594637097999463 18.5366831798285254   T   T   T
  4.2683415899142627  9.9594637097999463 18.5366831798285254   T   T   T
  7.1139026498571045  9.9594637097999463 18.5366831798285254   T   T   T
  9.9594637097999463  9.9594637097999463 18.5366831798285254   T   T   T
  0.0000000000000000  0.0000000000000000 19.9594637097999481   T   T   T
  2.8455610599428418  0.0000000000000000 19.9594637097999481   T   T   T
  5.6911221198856836  0.0000000000000000 19.9594637097999481   T   T   T
  8.5366831798285254  0.0000000000000000 19.9594637097999481   T   T   T
  0.0000000000000000  2.8455610599428418 19.9594637097999481   T   T   T
  2.8455610599428418  2.8455610599428418 19.9594637097999481   T   T   T
  5.6911221198856836  2.8455610599428418 19.9594637097999481   T   T   T
  8.5366831798285254  2.8455610599428418 19.9594637097999481   T   T   T
  0.0000000000000000  5.6911221198856836 19.9594637097999481   T   T   T
  2.8455610599428418  5.6911221198856836 19.9594637097999481   T   T   T
  5.6911221198856836  5.6911221198856836 19.9594637097999481   T   T   T
  8.5366831798285254  5.6911221198856836 19.9594637097999481   T   T   T
  0.0000000000000000  8.5366831798285254 19.9594637097999481   T   T   T
  2.8455610599428418  8.5366831798285254 19.9594637097999481   T   T   T
  5.6911221198856836  8.5366831798285254 19.9594637097999481   T   T   T
  8.5366831798285254  8.5366831798285254 19.9594637097999481   T   T   T
  1.4227805299714209  1.4227805299714209 21.3822442397713672   F   F   F
  4.2683415899142627  1.4227805299714209 21.3822442397713672   F   F   F
  7.1139026498571045  1.4227805299714209 21.3822442397713672   F   F   F
  9.9594637097999463  1.4227805299714209 21.3822442397713672   F   F   F
  1.4227805299714209  4.2683415899142627 21.3822442397713672   F   F   F
  4.2683415899142627  4.2683415899142627 21.3822442397713672   F   F   F
  7.1139026498571045  4.2683415899142627 21.3822442397713672   F   F   F
  9.9594637097999463  4.2683415899142627 21.3822442397713672   F   F   F
  1.4227805299714209  7.1139026498571045 21.3822442397713672   F   F   F
  4.2683415899142627  7.1139026498571045 21.3822442397713672   F   F   F
  7.1139026498571045  7.1139026498571045 21.3822442397713672   F   F   F
  9.9594637097999463  7.1139026498571045 21.3822442397713672   F   F   F
  1.4227805299714209  9.9594637097999463 21.3822442397713672   F   F   F
  4.2683415899142627  9.9594637097999463 21.3822442397713672   F   F   F
  7.1139026498571045  9.9594637097999463 21.3822442397713672   F   F   F
  9.9594637097999463  9.9594637097999463 21.3822442397713672   F   F   F
  0.0000000000000000  0.0000000000000000 22.8050247697427864   F   F   F
  2.8455610599428418  0.0000000000000000 22.8050247697427864   F   F   F
  5.6911221198856836  0.0000000000000000 22.8050247697427864   F   F   F
  8.5366831798285254  0.0000000000000000 22.8050247697427864   F   F   F
  0.0000000000000000  2.8455610599428418 22.8050247697427864   F   F   F
  2.8455610599428418  2.8455610599428418 22.8050247697427864   F   F   F
  5.6911221198856836  2.8455610599428418 22.8050247697427864   F   F   F
  8.5366831798285254  2.8455610599428418 22.8050247697427864   F   F   F
  0.0000000000000000  5.6911221198856836 22.8050247697427864   F   F   F
  2.8455610599428418  5.6911221198856836 22.8050247697427864   F   F   F
  5.6911221198856836  5.6911221198856836 22.8050247697427864   F   F   F
  8.5366831798285254  5.6911221198856836 22.8050247697427864   F   F   F
  0.0000000000000000  8.5366831798285254 22.8050247697427864   F   F   F
  2.8455610599428418  8.5366831798285254 22.8050247697427864   F   F   F
  5.6911221198856836  8.5366831798285254 22.8050247697427864   F   F   F
  8.5366831798285254  8.5366831798285254 22.8050247697427864   F   F   F
  1.4227805299714209  1.4227805299714209 24.2278052997142090   F   F   F
  4.2683415899142627  1.4227805299714209 24.2278052997142090   F   F   F
  7.1139026498571045  1.4227805299714209 24.2278052997142090   F   F   F
  9.9594637097999463  1.4227805299714209 24.2278052997142090   F   F   F
  1.4227805299714209  4.2683415899142627 24.2278052997142090   F   F   F
  4.2683415899142627  4.2683415899142627 24.2278052997142090   F   F   F
  7.1139026498571045  4.2683415899142627 24.2278052997142090   F   F   F
  9.9594637097999463  4.2683415899142627 24.2278052997142090   F   F   F
  1.4227805299714209  7.1139026498571045 24.2278052997142090   F   F   F
  4.2683415899142627  7.1139026498571045 24.2278052997142090   F   F   F
  7.1139026498571045  7.1139026498571045 24.2278052997142090   F   F   F
  9.9594637097999463  7.1139026498571045 24.2278052997142090   F   F   F
  1.4227805299714209  9.9594637097999463 24.2278052997142090   F   F   F
  4.2683415899142627  9.9594637097999463 24.2278052997142090   F   F   F
  7.1139026498571045  9.9594637097999463 24.2278052997142090   F   F   F
  9.9594637097999463  9.9594637097999463 24.2278052997142090   F   F   F
  0.0000000000000000  0.0000000000000000 25.6505858296856317   F   F   F
  2.8455610599428418  0.0000000000000000 25.6505858296856317   F   F   F
  5.6911221198856836  0.0000000000000000 25.6505858296856317   F   F   F
  8.5366831798285254  0.0000000000000000 25.6505858296856317   F   F   F
  0.0000000000000000  2.8455610599428418 25.6505858296856317   F   F   F
  2.8455610599428418  2.8455610599428418 25.6505858296856317   F   F   F
  5.6911221198856836  2.8455610599428418 25.6505858296856317   F   F   F
  8.5366831798285254  2.8455610599428418 25.6505858296856317   F   F   F
  0.0000000000000000  5.6911221198856836 25.6505858296856317   F   F   F
  2.8455610599428418  5.6911221198856836 25.6505858296856317   F   F   F
  5.6911221198856836  5.6911221198856836 25.6505858296856317   F   F   F
  8.5366831798285254  5.6911221198856836 25.6505858296856317   F   F   F
  0.0000000000000000  8.5366831798285254 25.6505858296856317   F   F   F
  2.8455610599428418  8.5366831798285254 25.6505858296856317   F   F   F
  5.6911221198856836  8.5366831798285254 25.6505858296856317   F   F   F
  8.5366831798285254  8.5366831798285254 25.6505858296856317   F   F   F
  1.4227805299714209  1.4227805299714209 27.0733663596570509   T   T   T
  4.2683415899142627  1.4227805299714209 27.0733663596570509   T   T   T
  7.1139026498571045  1.4227805299714209 27.0733663596570509   T   T   T
  9.9594637097999463  1.4227805299714209 27.0733663596570509   T   T   T
  1.4227805299714209  4.2683415899142627 27.0733663596570509   T   T   T
  4.2683415899142627  4.2683415899142627 27.0733663596570509   T   T   T
  7.1139026498571045  4.2683415899142627 27.0733663596570509   T   T   T
  9.9594637097999463  4.2683415899142627 27.0733663596570509   T   T   T
  1.4227805299714209  7.1139026498571045 27.0733663596570509   T   T   T
  4.2683415899142627  7.1139026498571045 27.0733663596570509   T   T   T
  7.1139026498571045  7.1139026498571045 27.0733663596570509   T   T   T
  9.9594637097999463  7.1139026498571045 27.0733663596570509   T   T   T
  1.4227805299714209  9.9594637097999463 27.0733663596570509   T   T   T
  4.2683415899142627  9.9594637097999463 27.0733663596570509   T   T   T
  7.1139026498571045  9.9594637097999463 27.0733663596570509   T   T   T
  9.9594637097999463  9.9594637097999463 27.0733663596570509   T   T   T
  0.0000000000000000  0.0000000000000000 28.4961468896284700   T   T   T
  2.8455610599428418  0.0000000000000000 28.4961468896284700   T   T   T
  5.6911221198856836  0.0000000000000000 28.4961468896284700   T   T   T
  8.5366831798285254  0.0000000000000000 28.4961468896284700   T   T   T
  0.0000000000000000  2.8455610599428418 28.4961468896284700   T   T   T
  2.8455610599428418  2.8455610599428418 28.4961468896284700   T   T   T
  5.6911221198856836  2.8455610599428418 28.4961468896284700   T   T   T
  8.5366831798285254  2.8455610599428418 28.4961468896284700   T   T   T
  0.0000000000000000  5.6911221198856836 28.4961468896284700   T   T   T
  2.8455610599428418  5.6911221198856836 28.4961468896284700   T   T   T
  5.6911221198856836  5.6911221198856836 28.4961468896284700   T   T   T
  8.5366831798285254  5.6911221198856836 28.4961468896284700   T   T   T
  0.0000000000000000  8.5366831798285254 28.4961468896284700   T   T   T
  2.8455610599428418  8.5366831798285254 28.4961468896284700   T   T   T
  5.6911221198856836  8.5366831798285254 28.4961468896284700   T   T   T
  8.5366831798285254  8.5366831798285254 28.4961468896284700   T   T   T
  1.4227805299714209  1.4227805299714209 29.9189274195998927   T   T   T
  4.2683415899142627  1.4227805299714209 29.9189274195998927   T   T   T
  7.1139026498571045  1.4227805299714209 29.9189274195998927   T   T   T
  9.9594637097999463  1.4227805299714209 29.9189274195998927   T   T   T
  1.4227805299714209  4.2683415899142627 29.9189274195998927   T   T   T
  4.2683415899142627  4.2683415899142627 29.9189274195998927   T   T   T
  7.1139026498571045  4.2683415899142627 29.9189274195998927   T   T   T
  9.9594637097999463  4.2683415899142627 29.9189274195998927   T   T   T
  1.4227805299714209  7.1139026498571045 29.9189274195998927   T   T   T
  4.2683415899142627  7.1139026498571045 29.9189274195998927   T   T   T
  7.1139026498571045  7.1139026498571045 29.9189274195998927   T   T   T
  9.9594637097999463  7.1139026498571045 29.9189274195998927   T   T   T
  1.4227805299714209  9.9594637097999463 29.9189274195998927   T   T   T
  4.2683415899142627  9.9594637097999463 29.9189274195998927   T   T   T
  7.1139026498571045  9.9594637097999463 29.9189274195998927   T   T   T
  9.9594637097999463  9.9594637097999463 29.9189274195998927   T   T   T
  0.0000000000000000  0.0000000000000000 31.3417079495713153   T   T   T
  2.8455610599428418  0.0000000000000000 31.3417079495713153   T   T   T
  5.6911221198856836  0.0000000000000000 31.3417079495713153   T   T   T
  8.5366831798285254  0.0000000000000000 31.3417079495713153   T   T   T
  0.0000000000000000  2.8455610599428418 31.3417079495713153   T   T   T
  2.8455610599428418  2.8455610599428418 31.3417079495713153   T   T   T
  5.6911221198856836  2.8455610599428418 31.3417079495713153   T   T   T
  8.5366831798285254  2.8455610599428418 31.3417079495713153   T   T   T
  0.0000000000000000  5.6911221198856836 31.3417079495713153   T   T   T
  2.8455610599428418  5.6911221198856836 31.3417079495713153   T   T   T
  5.6911221198856836  5.6911221198856836 31.3417079495713153   T   T   T
  8.5366831798285254  5.6911221198856836 31.3417079495713153   T   T   T
  0.0000000000000000  8.5366831798285254 31.3417079495713153   T   T   T
  2.8455610599428418  8.5366831798285254 31.3417079495713153   T   T   T
  5.6911221198856836  8.5366831798285254 31.3417079495713153   T   T   T
  8.5366831798285254  8.5366831798285254 31.3417079495713153   T   T   T
  1.4227805299714209  1.4227805299714209 32.7644884795427345   T   T   T
  4.2683415899142627  1.4227805299714209 32.7644884795427345   T   T   T
  7.1139026498571045  1.4227805299714209 32.7644884795427345   T   T   T
  9.9594637097999463  1.4227805299714209 32.7644884795427345   T   T   T
  1.4227805299714209  4.2683415899142627 32.7644884795427345   T   T   T
  4.2683415899142627  4.2683415899142627 32.7644884795427345   T   T   T
  7.1139026498571045  4.2683415899142627 32.7644884795427345   T   T   T
  9.9594637097999463  4.2683415899142627 32.7644884795427345   T   T   T
  1.4227805299714209  7.1139026498571045 32.7644884795427345   T   T   T
  4.2683415899142627  7.1139026498571045 32.7644884795427345   T   T   T
  7.1139026498571045  7.1139026498571045 32.7644884795427345   T   T   T
  9.9594637097999463  7.1139026498571045 32.7644884795427345   T   T   T
  1.4227805299714209  9.9594637097999463 32.7644884795427345   T   T   T
  4.2683415899142627  9.9594637097999463 32.7644884795427345   T   T   T
  7.1139026498571045  9.9594637097999463 32.7644884795427345   T   T   T
  9.9594637097999463  9.9594637097999463 32.7644884795427345   T   T   T
  0.0000000000000000  0.0000000000000000 34.1872690095141536   T   T   T
  2.8455610599428418  0.0000000000000000 34.1872690095141536   T   T   T
  5.6911221198856836  0.0000000000000000 34.1872690095141536   T   T   T
  8.5366831798285254  0.0000000000000000 34.1872690095141536   T   T   T
  0.0000000000000000  2.8455610599428418 34.1872690095141536   T   T   T
  2.8455610599428418  2.8455610599428418 34.1872690095141536   T   T   T
  5.6911221198856836  2.8455610599428418 34.1872690095141536   T   T   T
  8.5366831798285254  2.8455610599428418 34.1872690095141536   T   T   T
  0.0000000000000000  5.6911221198856836 34.1872690095141536   T   T   T
  2.8455610599428418  5.6911221198856836 34.1872690095141536   T   T   T
  5.6911221198856836  5.6911221198856836 34.1872690095141536   T   T   T
  8.5366831798285254  5.6911221198856836 34.1872690095141536   T   T   T
  0.0000000000000000  8.5366831798285254 34.1872690095141536   T   T   T
  2.8455610599428418  8.5366831798285254 34.1872690095141536   T   T   T
  5.6911221198856836  8.5366831798285254 34.1872690095141536   T   T   T
  8.5366831798285254  8.5366831798285254 34.1872690095141536   T   T   T
  1.4227805299714209  1.4227805299714209 35.6100495394855727   T   T   T
  4.2683415899142627  1.4227805299714209 35.6100495394855727   T   T   T
  7.1139026498571045  1.4227805299714209 35.6100495394855727   T   T   T
  9.9594637097999463  1.4227805299714209 35.6100495394855727   T   T   T
  1.4227805299714209  4.2683415899142627 35.6100495394855727   T   T   T
  4.2683415899142627  4.2683415899142627 35.6100495394855727   T   T   T
  7.1139026498571045  4.2683415899142627 35.6100495394855727   T   T   T
  9.9594637097999463  4.2683415899142627 35.6100495394855727   T   T   T
  1.4227805299714209  7.1139026498571045 35.6100495394855727   T   T   T
  4.2683415899142627  7.1139026498571045 35.6100495394855727   T   T   T
  7.1139026498571045  7.1139026498571045 35.6100495394855727   T   T   T
  9.9594637097999463  7.1139026498571045 35.6100495394855727   T   T   T
  1.4227805299714209  9.9594637097999463 35.6100495394855727   T   T   T
  4.2683415899142627  9.9594637097999463 35.6100495394855727   T   T   T
  7.1139026498571045  9.9594637097999463 35.6100495394855727   T   T   T
  9.9594637097999463  9.9594637097999463 35.6100495394855727   T   T   T
  0.0000000000000000  0.0000000000000000 37.0328300694569990   T   T   T
  2.8455610599428418  0.0000000000000000 37.0328300694569990   T   T   T
  5.6911221198856836  0.0000000000000000 37.0328300694569990   T   T   T
  8.5366831798285254  0.0000000000000000 37.0328300694569990   T   T   T
  0.0000000000000000  2.8455610599428418 37.0328300694569990   T   T   T
  2.8455610599428418  2.8455610599428418 37.0328300694569990   T   T   T
  5.6911221198856836  2.8455610599428418 37.0328300694569990   T   T   T
  8.5366831798285254  2.8455610599428418 37.0328300694569990   T   T   T
  0.0000000000000000  5.6911221198856836 37.0328300694569990   T   T   T
  2.8455610599428418  5.6911221198856836 37.0328300694569990   T   T   T
  5.6911221198856836  5.6911221198856836 37.0328300694569990   T   T   T
  8.5366831798285254  5.6911221198856836 37.0328300694569990   T   T   T
  0.0000000000000000  8.5366831798285254 37.0328300694569990   T   T   T
  2.8455610599428418  8.5366831798285254 37.0328300694569990   T   T   T
  5.6911221198856836  8.5366831798285254 37.0328300694569990   T   T   T
  8.5366831798285254  8.5366831798285254 37.0328300694569990   T   T   T
