Fe
 1.0000000000000000
    11.3822442397713672    0.0000000000000000    0.0000000000000000
     0.0000000000000000    8.0484620870638537    0.0000000000000000
     0.0000000000000000    0.0000000000000000   58.2301949135533050
 Fe 
 320
Selective dynamics
Cartesian
  0.0000000000000000  2.0121155217659634 10.0000000000000000   T   T   T
  2.8455610599428418  2.0121155217659634 10.0000000000000000   T   T   T
  5.6911221198856836  2.0121155217659634 10.0000000000000000   T   T   T
  8.5366831798285254  2.0121155217659634 10.0000000000000000   T   T   T
  1.4227805299714209  4.0242310435319268 10.0000000000000000   T   T   T
  4.2683415899142627  4.0242310435319268 10.0000000000000000   T   T   T
  7.1139026498571045  4.0242310435319268 10.0000000000000000   T   T   T
  9.9594637097999463  4.0242310435319268 10.0000000000000000   T   T   T
  0.0000000000000000  6.0363465652978903 10.0000000000000000   T   T   T
  2.8455610599428418  6.0363465652978903 10.0000000000000000   T   T   T
  5.6911221198856836  6.0363465652978903 10.0000000000000000   T   T   T
  8.5366831798285254  6.0363465652978903 10.0000000000000000   T   T   T
  1.4227805299714209  8.0484620870638537 10.0000000000000000   T   T   T
  4.2683415899142627  8.0484620870638537 10.0000000000000000   T   T   T
  7.1139026498571045  8.0484620870638537 10.0000000000000000   T   T   T
  9.9594637097999463  8.0484620870638537 10.0000000000000000   T   T   T
  0.0000000000000000  0.0000000000000000 12.0121155217659634   T   T   T
  2.8455610599428418  0.0000000000000000 12.0121155217659634   T   T   T
  5.6911221198856836  0.0000000000000000 12.0121155217659634   T   T   T
  8.5366831798285254  0.0000000000000000 12.0121155217659634   T   T   T
  1.4227805299714209  2.0121155217659634 12.0121155217659634   T   T   T
  4.2683415899142627  2.0121155217659634 12.0121155217659634   T   T   T
  7.1139026498571045  2.0121155217659634 12.0121155217659634   T   T   T
  9.9594637097999463  2.0121155217659634 12.0121155217659634   T   T   T
  0.0000000000000000  4.0242310435319268 12.0121155217659634   T   T   T
  2.8455610599428418  4.0242310435319268 12.0121155217659634   T   T   T
  5.6911221198856836  4.0242310435319268 12.0121155217659634   T   T   T
  8.5366831798285254  4.0242310435319268 12.0121155217659634   T   T   T
  1.4227805299714209  6.0363465652978903 12.0121155217659634   T   T   T
  4.2683415899142627  6.0363465652978903 12.0121155217659634   T   T   T
  7.1139026498571045  6.0363465652978903 12.0121155217659634   T   T   T
  9.9594637097999463  6.0363465652978903 12.0121155217659634   T   T   T
  0.0000000000000000  2.0121155217659634 14.0242310435319268   T   T   T
  2.8455610599428418  2.0121155217659634 14.0242310435319268   T   T   T
  5.6911221198856836  2.0121155217659634 14.0242310435319268   T   T   T
  8.5366831798285254  2.0121155217659634 14.0242310435319268   T   T   T
  1.4227805299714209  4.0242310435319268 14.0242310435319268   T   T   T
  4.2683415899142627  4.0242310435319268 14.0242310435319268   T   T   T
  7.1139026498571045  4.0242310435319268 14.0242310435319268   T   T   T
  9.9594637097999463  4.0242310435319268 14.0242310435319268   T   T   T
  0.0000000000000000  6.0363465652978903 14.0242310435319268   T   T   T
  2.8455610599428418  6.0363465652978903 14.0242310435319268   T   T   T
  5.6911221198856836  6.0363465652978903 14.0242310435319268   T   T   T
  8.5366831798285254  6.0363465652978903 14.0242310435319268   T   T   T
  1.4227805299714209  8.0484620870638537 14.0242310435319268   T   T   T
  4.2683415899142627  8.0484620870638537 14.0242310435319268   T   T   T
  7.1139026498571045  8.0484620870638537 14.0242310435319268   T   T   T
  9.9594637097999463  8.0484620870638537 14.0242310435319268   T   T   T
  0.0000000000000000  0.0000000000000000 16.0363465652978903   T   T   T
  2.8455610599428418  0.0000000000000000 16.0363465652978903   T   T   T
  5.6911221198856836  0.0000000000000000 16.0363465652978903   T   T   T
  8.5366831798285254  0.0000000000000000 16.0363465652978903   T   T   T
  1.4227805299714209  2.0121155217659634 16.0363465652978903   T   T   T
  4.2683415899142627  2.0121155217659634 16.0363465652978903   T   T   T
  7.1139026498571045  2.0121155217659634 16.0363465652978903   T   T   T
  9.9594637097999463  2.0121155217659634 16.0363465652978903   T   T   T
  0.0000000000000000  4.0242310435319268 16.0363465652978903   T   T   T
  2.8455610599428418  4.0242310435319268 16.0363465652978903   T   T   T
  5.6911221198856836  4.0242310435319268 16.0363465652978903   T   T   T
  8.5366831798285254  4.0242310435319268 16.0363465652978903   T   T   T
  1.4227805299714209  6.0363465652978903 16.0363465652978903   T   T   T
  4.2683415899142627  6.0363465652978903 16.0363465652978903   T   T   T
  7.1139026498571045  6.0363465652978903 16.0363465652978903   T   T   T
  9.9594637097999463  6.0363465652978903 16.0363465652978903   T   T   T
  0.0000000000000000  2.0121155217659634 18.0484620870638537   T   T   T
  2.8455610599428418  2.0121155217659634 18.0484620870638537   T   T   T
  5.6911221198856836  2.0121155217659634 18.0484620870638537   T   T   T
  8.5366831798285254  2.0121155217659634 18.0484620870638537   T   T   T
  1.4227805299714209  4.0242310435319268 18.0484620870638537   T   T   T
  4.2683415899142627  4.0242310435319268 18.0484620870638537   T   T   T
  7.1139026498571045  4.0242310435319268 18.0484620870638537   T   T   T
  9.9594637097999463  4.0242310435319268 18.0484620870638537   T   T   T
  0.0000000000000000  6.0363465652978903 18.0484620870638537   T   T   T
  2.8455610599428418  6.0363465652978903 18.0484620870638537   T   T   T
  5.6911221198856836  6.0363465652978903 18.0484620870638537   T   T   T
  8.5366831798285254  6.0363465652978903 18.0484620870638537   T   T   T
  1.4227805299714209  8.0484620870638537 18.0484620870638537   T   T   T
  4.2683415899142627  8.0484620870638537 18.0484620870638537   T   T   T
  7.1139026498571045  8.0484620870638537 18.0484620870638537   T   T   T
  9.9594637097999463  8.0484620870638537 18.0484620870638537   T   T   T
  0.0000000000000000  0.0000000000000000 20.0605776088298171   T   T   T
  2.8455610599428418  0.0000000000000000 20.0605776088298171   T   T   T
  5.6911221198856836  0.0000000000000000 20.0605776088298171   T   T   T
  8.5366831798285254  0.0000000000000000 20.0605776088298171   T   T   T
  1.4227805299714209  2.0121155217659634 20.0605776088298171   T   T   T
  4.2683415899142627  2.0121155217659634 20.0605776088298171   T   T   T
  7.1139026498571045  2.0121155217659634 20.0605776088298171   T   T   T
  9.9594637097999463  2.0121155217659634 20.0605776088298171   T   T   T
  0.0000000000000000  4.0242310435319268 20.0605776088298171   T   T   T
  2.8455610599428418  4.0242310435319268 20.0605776088298171   T   T   T
  5.6911221198856836  4.0242310435319268 20.0605776088298171   T   T   T
  8.5366831798285254  4.0242310435319268 20.0605776088298171   T   T   T
  1.4227805299714209  6.0363465652978903 20.0605776088298171   T   T   T
  4.2683415899142627  6.0363465652978903 20.0605776088298171   T   T   T
  7.1139026498571045  6.0363465652978903 20.0605776088298171   T   T   T
  9.9594637097999463  6.0363465652978903 20.0605776088298171   T   T   T
  0.0000000000000000  2.0121155217659634 22.0726931305957805   T   T   T
  2.8455610599428418  2.0121155217659634 22.0726931305957805   T   T   T
  5.6911221198856836  2.0121155217659634 22.0726931305957805   T   T   T
  8.5366831798285254  2.0121155217659634 22.0726931305957805   T   T   T
  1.4227805299714209  4.0242310435319268 22.0726931305957805   T   T   T
  4.2683415899142627  4.0242310435319268 22.0726931305957805   T   T   T
  7.1139026498571045  4.0242310435319268 22.0726931305957805   T   T   T
  9.9594637097999463  4.0242310435319268 22.0726931305957805   T   T   T
  0.0000000000000000  6.0363465652978903 22.0726931305957805   T   T   T
  2.8455610599428418  6.0363465652978903 22.0726931305957805   T   T   T
  5.6911221198856836  6.0363465652978903 22.0726931305957805   T   T   T
  8.5366831798285254  6.0363465652978903 22.0726931305957805   T   T   T
  1.4227805299714209  8.0484620870638537 22.0726931305957805   T   T   T
  4.2683415899142627  8.0484620870638537 22.0726931305957805   T   T   T
  7.1139026498571045  8.0484620870638537 22.0726931305957805   T   T   T
  9.9594637097999463  8.0484620870638537 22.0726931305957805   T   T   T
  0.0000000000000000  0.0000000000000000 24.0848086523617440   T   T   T
  2.8455610599428418  0.0000000000000000 24.0848086523617440   T   T   T
  5.6911221198856836  0.0000000000000000 24.0848086523617440   T   T   T
  8.5366831798285254  0.0000000000000000 24.0848086523617440   T   T   T
  1.4227805299714209  2.0121155217659634 24.0848086523617440   T   T   T
  4.2683415899142627  2.0121155217659634 24.0848086523617440   T   T   T
  7.1139026498571045  2.0121155217659634 24.0848086523617440   T   T   T
  9.9594637097999463  2.0121155217659634 24.0848086523617440   T   T   T
  0.0000000000000000  4.0242310435319268 24.0848086523617440   T   T   T
  2.8455610599428418  4.0242310435319268 24.0848086523617440   T   T   T
  5.6911221198856836  4.0242310435319268 24.0848086523617440   T   T   T
  8.5366831798285254  4.0242310435319268 24.0848086523617440   T   T   T
  1.4227805299714209  6.0363465652978903 24.0848086523617440   T   T   T
  4.2683415899142627  6.0363465652978903 24.0848086523617440   T   T   T
  7.1139026498571045  6.0363465652978903 24.0848086523617440   T   T   T
  9.9594637097999463  6.0363465652978903 24.0848086523617440   T   T   T
  0.0000000000000000  2.0121155217659634 26.0969241741277074   F   F   F
  2.8455610599428418  2.0121155217659634 26.0969241741277074   F   F   F
  5.6911221198856836  2.0121155217659634 26.0969241741277074   F   F   F
  8.5366831798285254  2.0121155217659634 26.0969241741277074   F   F   F
  1.4227805299714209  4.0242310435319268 26.0969241741277074   F   F   F
  4.2683415899142627  4.0242310435319268 26.0969241741277074   F   F   F
  7.1139026498571045  4.0242310435319268 26.0969241741277074   F   F   F
  9.9594637097999463  4.0242310435319268 26.0969241741277074   F   F   F
  0.0000000000000000  6.0363465652978903 26.0969241741277074   F   F   F
  2.8455610599428418  6.0363465652978903 26.0969241741277074   F   F   F
  5.6911221198856836  6.0363465652978903 26.0969241741277074   F   F   F
  8.5366831798285254  6.0363465652978903 26.0969241741277074   F   F   F
  1.4227805299714209  8.0484620870638537 26.0969241741277074   F   F   F
  4.2683415899142627  8.0484620870638537 26.0969241741277074   F   F   F
  7.1139026498571045  8.0484620870638537 26.0969241741277074   F   F   F
  9.9594637097999463  8.0484620870638537 26.0969241741277074   F   F   F
  0.0000000000000000  0.0000000000000000 28.1090396958936708   F   F   F
  2.8455610599428418  0.0000000000000000 28.1090396958936708   F   F   F
  5.6911221198856836  0.0000000000000000 28.1090396958936708   F   F   F
  8.5366831798285254  0.0000000000000000 28.1090396958936708   F   F   F
  1.4227805299714209  2.0121155217659634 28.1090396958936708   F   F   F
  4.2683415899142627  2.0121155217659634 28.1090396958936708   F   F   F
  7.1139026498571045  2.0121155217659634 28.1090396958936708   F   F   F
  9.9594637097999463  2.0121155217659634 28.1090396958936708   F   F   F
  0.0000000000000000  4.0242310435319268 28.1090396958936708   F   F   F
  2.8455610599428418  4.0242310435319268 28.1090396958936708   F   F   F
  5.6911221198856836  4.0242310435319268 28.1090396958936708   F   F   F
  8.5366831798285254  4.0242310435319268 28.1090396958936708   F   F   F
  1.4227805299714209  6.0363465652978903 28.1090396958936708   F   F   F
  4.2683415899142627  6.0363465652978903 28.1090396958936708   F   F   F
  7.1139026498571045  6.0363465652978903 28.1090396958936708   F   F   F
  9.9594637097999463  6.0363465652978903 28.1090396958936708   F   F   F
  0.0000000000000000  2.0121155217659634 30.1211552176596342   F   F   F
  2.8455610599428418  2.0121155217659634 30.1211552176596342   F   F   F
  5.6911221198856836  2.0121155217659634 30.1211552176596342   F   F   F
  8.5366831798285254  2.0121155217659634 30.1211552176596342   F   F   F
  1.4227805299714209  4.0242310435319268 30.1211552176596342   F   F   F
  4.2683415899142627  4.0242310435319268 30.1211552176596342   F   F   F
  7.1139026498571045  4.0242310435319268 30.1211552176596342   F   F   F
  9.9594637097999463  4.0242310435319268 30.1211552176596342   F   F   F
  0.0000000000000000  6.0363465652978903 30.1211552176596342   F   F   F
  2.8455610599428418  6.0363465652978903 30.1211552176596342   F   F   F
  5.6911221198856836  6.0363465652978903 30.1211552176596342   F   F   F
  8.5366831798285254  6.0363465652978903 30.1211552176596342   F   F   F
  1.4227805299714209  8.0484620870638537 30.1211552176596342   F   F   F
  4.2683415899142627  8.0484620870638537 30.1211552176596342   F   F   F
  7.1139026498571045  8.0484620870638537 30.1211552176596342   F   F   F
  9.9594637097999463  8.0484620870638537 30.1211552176596342   F   F   F
  0.0000000000000000  0.0000000000000000 32.1332707394255976   F   F   F
  2.8455610599428418  0.0000000000000000 32.1332707394255976   F   F   F
  5.6911221198856836  0.0000000000000000 32.1332707394255976   F   F   F
  8.5366831798285254  0.0000000000000000 32.1332707394255976   F   F   F
  1.4227805299714209  2.0121155217659634 32.1332707394255976   F   F   F
  4.2683415899142627  2.0121155217659634 32.1332707394255976   F   F   F
  7.1139026498571045  2.0121155217659634 32.1332707394255976   F   F   F
  9.9594637097999463  2.0121155217659634 32.1332707394255976   F   F   F
  0.0000000000000000  4.0242310435319268 32.1332707394255976   F   F   F
  2.8455610599428418  4.0242310435319268 32.1332707394255976   F   F   F
  5.6911221198856836  4.0242310435319268 32.1332707394255976   F   F   F
  8.5366831798285254  4.0242310435319268 32.1332707394255976   F   F   F
  1.4227805299714209  6.0363465652978903 32.1332707394255976   F   F   F
  4.2683415899142627  6.0363465652978903 32.1332707394255976   F   F   F
  7.1139026498571045  6.0363465652978903 32.1332707394255976   F   F   F
  9.9594637097999463  6.0363465652978903 32.1332707394255976   F   F   F
  0.0000000000000000  2.0121155217659634 34.1453862611915611   T   T   T
  2.8455610599428418  2.0121155217659634 34.1453862611915611   T   T   T
  5.6911221198856836  2.0121155217659634 34.1453862611915611   T   T   T
  8.5366831798285254  2.0121155217659634 34.1453862611915611   T   T   T
  1.4227805299714209  4.0242310435319268 34.1453862611915611   T   T   T
  4.2683415899142627  4.0242310435319268 34.1453862611915611   T   T   T
  7.1139026498571045  4.0242310435319268 34.1453862611915611   T   T   T
  9.9594637097999463  4.0242310435319268 34.1453862611915611   T   T   T
  0.0000000000000000  6.0363465652978903 34.1453862611915611   T   T   T
  2.8455610599428418  6.0363465652978903 34.1453862611915611   T   T   T
  5.6911221198856836  6.0363465652978903 34.1453862611915611   T   T   T
  8.5366831798285254  6.0363465652978903 34.1453862611915611   T   T   T
  1.4227805299714209  8.0484620870638537 34.1453862611915611   T   T   T
  4.2683415899142627  8.0484620870638537 34.1453862611915611   T   T   T
  7.1139026498571045  8.0484620870638537 34.1453862611915611   T   T   T
  9.9594637097999463  8.0484620870638537 34.1453862611915611   T   T   T
  0.0000000000000000  0.0000000000000000 36.1575017829575245   T   T   T
  2.8455610599428418  0.0000000000000000 36.1575017829575245   T   T   T
  5.6911221198856836  0.0000000000000000 36.1575017829575245   T   T   T
  8.5366831798285254  0.0000000000000000 36.1575017829575245   T   T   T
  1.4227805299714209  2.0121155217659634 36.1575017829575245   T   T   T
  4.2683415899142627  2.0121155217659634 36.1575017829575245   T   T   T
  7.1139026498571045  2.0121155217659634 36.1575017829575245   T   T   T
  9.9594637097999463  2.0121155217659634 36.1575017829575245   T   T   T
  0.0000000000000000  4.0242310435319268 36.1575017829575245   T   T   T
  2.8455610599428418  4.0242310435319268 36.1575017829575245   T   T   T
  5.6911221198856836  4.0242310435319268 36.1575017829575245   T   T   T
  8.5366831798285254  4.0242310435319268 36.1575017829575245   T   T   T
  1.4227805299714209  6.0363465652978903 36.1575017829575245   T   T   T
  4.2683415899142627  6.0363465652978903 36.1575017829575245   T   T   T
  7.1139026498571045  6.0363465652978903 36.1575017829575245   T   T   T
  9.9594637097999463  6.0363465652978903 36.1575017829575245   T   T   T
  0.0000000000000000  2.0121155217659634 38.1696173047234879   T   T   T
  2.8455610599428418  2.0121155217659634 38.1696173047234879   T   T   T
  5.6911221198856836  2.0121155217659634 38.1696173047234879   T   T   T
  8.5366831798285254  2.0121155217659634 38.1696173047234879   T   T   T
  1.4227805299714209  4.0242310435319268 38.1696173047234879   T   T   T
  4.2683415899142627  4.0242310435319268 38.1696173047234879   T   T   T
  7.1139026498571045  4.0242310435319268 38.1696173047234879   T   T   T
  9.9594637097999463  4.0242310435319268 38.1696173047234879   T   T   T
  0.0000000000000000  6.0363465652978903 38.1696173047234879   T   T   T
  2.8455610599428418  6.0363465652978903 38.1696173047234879   T   T   T
  5.6911221198856836  6.0363465652978903 38.1696173047234879   T   T   T
  8.5366831798285254  6.0363465652978903 38.1696173047234879   T   T   T
  1.4227805299714209  8.0484620870638537 38.1696173047234879   T   T   T
  4.2683415899142627  8.0484620870638537 38.1696173047234879   T   T   T
  7.1139026498571045  8.0484620870638537 38.1696173047234879   T   T   T
  9.9594637097999463  8.0484620870638537 38.1696173047234879   T   T   T
  0.0000000000000000  0.0000000000000000 40.1817328264894513   T   T   T
  2.8455610599428418  0.0000000000000000 40.1817328264894513   T   T   T
  5.6911221198856836  0.0000000000000000 40.1817328264894513   T   T   T
  8.5366831798285254  0.0000000000000000 40.1817328264894513   T   T   T
  1.4227805299714209  2.0121155217659634 40.1817328264894513   T   T   T
  4.2683415899142627  2.0121155217659634 40.1817328264894513   T   T   T
  7.1139026498571045  2.0121155217659634 40.1817328264894513   T   T   T
  9.9594637097999463  2.0121155217659634 40.1817328264894513   T   T   T
  0.0000000000000000  4.0242310435319268 40.1817328264894513   T   T   T
  2.8455610599428418  4.0242310435319268 40.1817328264894513   T   T   T
  5.6911221198856836  4.0242310435319268 40.1817328264894513   T   T   T
  8.5366831798285254  4.0242310435319268 40.1817328264894513   T   T   T
  1.4227805299714209  6.0363465652978903 40.1817328264894513   T   T   T
  4.2683415899142627  6.0363465652978903 40.1817328264894513   T   T   T
  7.1139026498571045  6.0363465652978903 40.1817328264894513   T   T   T
  9.9594637097999463  6.0363465652978903 40.1817328264894513   T   T   T
  0.0000000000000000  2.0121155217659634 42.1938483482554147   T   T   T
  2.8455610599428418  2.0121155217659634 42.1938483482554147   T   T   T
  5.6911221198856836  2.0121155217659634 42.1938483482554147   T   T   T
  8.5366831798285254  2.0121155217659634 42.1938483482554147   T   T   T
  1.4227805299714209  4.0242310435319268 42.1938483482554147   T   T   T
  4.2683415899142627  4.0242310435319268 42.1938483482554147   T   T   T
  7.1139026498571045  4.0242310435319268 42.1938483482554147   T   T   T
  9.9594637097999463  4.0242310435319268 42.1938483482554147   T   T   T
  0.0000000000000000  6.0363465652978903 42.1938483482554147   T   T   T
  2.8455610599428418  6.0363465652978903 42.1938483482554147   T   T   T
  5.6911221198856836  6.0363465652978903 42.1938483482554147   T   T   T
  8.5366831798285254  6.0363465652978903 42.1938483482554147   T   T   T
  1.4227805299714209  8.0484620870638537 42.1938483482554147   T   T   T
  4.2683415899142627  8.0484620870638537 42.1938483482554147   T   T   T
  7.1139026498571045  8.0484620870638537 42.1938483482554147   T   T   T
  9.9594637097999463  8.0484620870638537 42.1938483482554147   T   T   T
  0.0000000000000000  0.0000000000000000 44.2059638700213782   T   T   T
  2.8455610599428418  0.0000000000000000 44.2059638700213782   T   T   T
  5.6911221198856836  0.0000000000000000 44.2059638700213782   T   T   T
  8.5366831798285254  0.0000000000000000 44.2059638700213782   T   T   T
  1.4227805299714209  2.0121155217659634 44.2059638700213782   T   T   T
  4.2683415899142627  2.0121155217659634 44.2059638700213782   T   T   T
  7.1139026498571045  2.0121155217659634 44.2059638700213782   T   T   T
  9.9594637097999463  2.0121155217659634 44.2059638700213782   T   T   T
  0.0000000000000000  4.0242310435319268 44.2059638700213782   T   T   T
  2.8455610599428418  4.0242310435319268 44.2059638700213782   T   T   T
  5.6911221198856836  4.0242310435319268 44.2059638700213782   T   T   T
  8.5366831798285254  4.0242310435319268 44.2059638700213782   T   T   T
  1.4227805299714209  6.0363465652978903 44.2059638700213782   T   T   T
  4.2683415899142627  6.0363465652978903 44.2059638700213782   T   T   T
  7.1139026498571045  6.0363465652978903 44.2059638700213782   T   T   T
  9.9594637097999463  6.0363465652978903 44.2059638700213782   T   T   T
  0.0000000000000000  2.0121155217659634 46.2180793917873416   T   T   T
  2.8455610599428418  2.0121155217659634 46.2180793917873416   T   T   T
  5.6911221198856836  2.0121155217659634 46.2180793917873416   T   T   T
  8.5366831798285254  2.0121155217659634 46.2180793917873416   T   T   T
  1.4227805299714209  4.0242310435319268 46.2180793917873416   T   T   T
  4.2683415899142627  4.0242310435319268 46.2180793917873416   T   T   T
  7.1139026498571045  4.0242310435319268 46.2180793917873416   T   T   T
  9.9594637097999463  4.0242310435319268 46.2180793917873416   T   T   T
  0.0000000000000000  6.0363465652978903 46.2180793917873416   T   T   T
  2.8455610599428418  6.0363465652978903 46.2180793917873416   T   T   T
  5.6911221198856836  6.0363465652978903 46.2180793917873416   T   T   T
  8.5366831798285254  6.0363465652978903 46.2180793917873416   T   T   T
  1.4227805299714209  8.0484620870638537 46.2180793917873416   T   T   T
  4.2683415899142627  8.0484620870638537 46.2180793917873416   T   T   T
  7.1139026498571045  8.0484620870638537 46.2180793917873416   T   T   T
  9.9594637097999463  8.0484620870638537 46.2180793917873416   T   T   T
  0.0000000000000000  0.0000000000000000 48.2301949135533050   T   T   T
  2.8455610599428418  0.0000000000000000 48.2301949135533050   T   T   T
  5.6911221198856836  0.0000000000000000 48.2301949135533050   T   T   T
  8.5366831798285254  0.0000000000000000 48.2301949135533050   T   T   T
  1.4227805299714209  2.0121155217659634 48.2301949135533050   T   T   T
  4.2683415899142627  2.0121155217659634 48.2301949135533050   T   T   T
  7.1139026498571045  2.0121155217659634 48.2301949135533050   T   T   T
  9.9594637097999463  2.0121155217659634 48.2301949135533050   T   T   T
  0.0000000000000000  4.0242310435319268 48.2301949135533050   T   T   T
  2.8455610599428418  4.0242310435319268 48.2301949135533050   T   T   T
  5.6911221198856836  4.0242310435319268 48.2301949135533050   T   T   T
  8.5366831798285254  4.0242310435319268 48.2301949135533050   T   T   T
  1.4227805299714209  6.0363465652978903 48.2301949135533050   T   T   T
  4.2683415899142627  6.0363465652978903 48.2301949135533050   T   T   T
  7.1139026498571045  6.0363465652978903 48.2301949135533050   T   T   T
  9.9594637097999463  6.0363465652978903 48.2301949135533050   T   T   T
