Fe Hf
 1.0000000000000000
    11.3485092930384557    0.0000000000000000    0.0000000000000000
     0.0000000000000000   11.3485092930384557    0.0000000000000000
     0.0000000000000000    0.0000000000000000   11.3485092930384557
 Fe  Hf 
 127   1
Cartesian
  0.0000000000000000  0.0000000000000000  0.0000000000000000
  1.4185636616298070  1.4185636616298070  1.4185636616298070
  0.0000000000000000  0.0000000000000000  2.8371273232596139
  1.4185636616298070  1.4185636616298070  4.2556909848894211
  0.0000000000000000  0.0000000000000000  5.6742546465192270
  1.4185636616298070  1.4185636616298070  7.0928183081490346
  0.0000000000000000  0.0000000000000000  8.5113819697788422
  1.4185636616298070  1.4185636616298070  9.9299456314086498
  0.0000000000000000  2.8371273232596139  0.0000000000000000
  1.4185636616298070  4.2556909848894211  1.4185636616298070
  0.0000000000000000  2.8371273232596139  2.8371273232596139
  1.4185636616298070  4.2556909848894211  4.2556909848894211
  0.0000000000000000  2.8371273232596139  5.6742546465192270
  1.4185636616298070  4.2556909848894211  7.0928183081490346
  0.0000000000000000  2.8371273232596139  8.5113819697788422
  1.4185636616298070  4.2556909848894211  9.9299456314086498
  0.0000000000000000  5.6742546465192270  0.0000000000000000
  1.4185636616298070  7.0928183081490346  1.4185636616298070
  0.0000000000000000  5.6742546465192270  2.8371273232596139
  1.4185636616298070  7.0928183081490346  4.2556909848894211
  0.0000000000000000  5.6742546465192270  5.6742546465192270
  1.4185636616298070  7.0928183081490346  7.0928183081490346
  0.0000000000000000  5.6742546465192270  8.5113819697788422
  1.4185636616298070  7.0928183081490346  9.9299456314086498
  0.0000000000000000  8.5113819697788422  0.0000000000000000
  1.4185636616298070  9.9299456314086498  1.4185636616298070
  0.0000000000000000  8.5113819697788422  2.8371273232596139
  1.4185636616298070  9.9299456314086498  4.2556909848894211
  0.0000000000000000  8.5113819697788422  5.6742546465192270
  1.4185636616298070  9.9299456314086498  7.0928183081490346
  0.0000000000000000  8.5113819697788422  8.5113819697788422
  1.4185636616298070  9.9299456314086498  9.9299456314086498
  4.2556909848894211  1.4185636616298070  1.4185636616298070
  2.8371273232596139  0.0000000000000000  2.8371273232596139
  4.2556909848894211  1.4185636616298070  4.2556909848894211
  2.8371273232596139  0.0000000000000000  5.6742546465192270
  4.2556909848894211  1.4185636616298070  7.0928183081490346
  2.8371273232596139  0.0000000000000000  8.5113819697788422
  4.2556909848894211  1.4185636616298070  9.9299456314086498
  2.8371273232596139  2.8371273232596139  0.0000000000000000
  4.2556909848894211  4.2556909848894211  1.4185636616298070
  2.8371273232596139  2.8371273232596139  2.8371273232596139
  4.2556909848894211  4.2556909848894211  4.2556909848894211
  2.8371273232596139  2.8371273232596139  5.6742546465192270
  4.2556909848894211  4.2556909848894211  7.0928183081490346
  2.8371273232596139  2.8371273232596139  8.5113819697788422
  4.2556909848894211  4.2556909848894211  9.9299456314086498
  2.8371273232596139  5.6742546465192270  0.0000000000000000
  4.2556909848894211  7.0928183081490346  1.4185636616298070
  2.8371273232596139  5.6742546465192270  2.8371273232596139
  4.2556909848894211  7.0928183081490346  4.2556909848894211
  2.8371273232596139  5.6742546465192270  5.6742546465192270
  4.2556909848894211  7.0928183081490346  7.0928183081490346
  2.8371273232596139  5.6742546465192270  8.5113819697788422
  4.2556909848894211  7.0928183081490346  9.9299456314086498
  2.8371273232596139  8.5113819697788422  0.0000000000000000
  4.2556909848894211  9.9299456314086498  1.4185636616298070
  2.8371273232596139  8.5113819697788422  2.8371273232596139
  4.2556909848894211  9.9299456314086498  4.2556909848894211
  2.8371273232596139  8.5113819697788422  5.6742546465192270
  4.2556909848894211  9.9299456314086498  7.0928183081490346
  2.8371273232596139  8.5113819697788422  8.5113819697788422
  4.2556909848894211  9.9299456314086498  9.9299456314086498
  5.6742546465192270  0.0000000000000000  0.0000000000000000
  7.0928183081490346  1.4185636616298070  1.4185636616298070
  5.6742546465192270  0.0000000000000000  2.8371273232596139
  7.0928183081490346  1.4185636616298070  4.2556909848894211
  5.6742546465192270  0.0000000000000000  5.6742546465192270
  7.0928183081490346  1.4185636616298070  7.0928183081490346
  5.6742546465192270  0.0000000000000000  8.5113819697788422
  7.0928183081490346  1.4185636616298070  9.9299456314086498
  5.6742546465192270  2.8371273232596139  0.0000000000000000
  7.0928183081490346  4.2556909848894211  1.4185636616298070
  5.6742546465192270  2.8371273232596139  2.8371273232596139
  7.0928183081490346  4.2556909848894211  4.2556909848894211
  5.6742546465192270  2.8371273232596139  5.6742546465192270
  7.0928183081490346  4.2556909848894211  7.0928183081490346
  5.6742546465192270  2.8371273232596139  8.5113819697788422
  7.0928183081490346  4.2556909848894211  9.9299456314086498
  5.6742546465192270  5.6742546465192270  0.0000000000000000
  7.0928183081490346  7.0928183081490346  1.4185636616298070
  5.6742546465192270  5.6742546465192270  2.8371273232596139
  7.0928183081490346  7.0928183081490346  4.2556909848894211
  5.6742546465192270  5.6742546465192270  5.6742546465192270
  7.0928183081490346  7.0928183081490346  7.0928183081490346
  5.6742546465192270  5.6742546465192270  8.5113819697788422
  7.0928183081490346  7.0928183081490346  9.9299456314086498
  5.6742546465192270  8.5113819697788422  0.0000000000000000
  7.0928183081490346  9.9299456314086498  1.4185636616298070
  5.6742546465192270  8.5113819697788422  2.8371273232596139
  7.0928183081490346  9.9299456314086498  4.2556909848894211
  5.6742546465192270  8.5113819697788422  5.6742546465192270
  7.0928183081490346  9.9299456314086498  7.0928183081490346
  5.6742546465192270  8.5113819697788422  8.5113819697788422
  7.0928183081490346  9.9299456314086498  9.9299456314086498
  8.5113819697788422  0.0000000000000000  0.0000000000000000
  9.9299456314086498  1.4185636616298070  1.4185636616298070
  8.5113819697788422  0.0000000000000000  2.8371273232596139
  9.9299456314086498  1.4185636616298070  4.2556909848894211
  8.5113819697788422  0.0000000000000000  5.6742546465192270
  9.9299456314086498  1.4185636616298070  7.0928183081490346
  8.5113819697788422  0.0000000000000000  8.5113819697788422
  9.9299456314086498  1.4185636616298070  9.9299456314086498
  8.5113819697788422  2.8371273232596139  0.0000000000000000
  9.9299456314086498  4.2556909848894211  1.4185636616298070
  8.5113819697788422  2.8371273232596139  2.8371273232596139
  9.9299456314086498  4.2556909848894211  4.2556909848894211
  8.5113819697788422  2.8371273232596139  5.6742546465192270
  9.9299456314086498  4.2556909848894211  7.0928183081490346
  8.5113819697788422  2.8371273232596139  8.5113819697788422
  9.9299456314086498  4.2556909848894211  9.9299456314086498
  8.5113819697788422  5.6742546465192270  0.0000000000000000
  9.9299456314086498  7.0928183081490346  1.4185636616298070
  8.5113819697788422  5.6742546465192270  2.8371273232596139
  9.9299456314086498  7.0928183081490346  4.2556909848894211
  8.5113819697788422  5.6742546465192270  5.6742546465192270
  9.9299456314086498  7.0928183081490346  7.0928183081490346
  8.5113819697788422  5.6742546465192270  8.5113819697788422
  9.9299456314086498  7.0928183081490346  9.9299456314086498
  8.5113819697788422  8.5113819697788422  0.0000000000000000
  9.9299456314086498  9.9299456314086498  1.4185636616298070
  8.5113819697788422  8.5113819697788422  2.8371273232596139
  9.9299456314086498  9.9299456314086498  4.2556909848894211
  8.5113819697788422  8.5113819697788422  5.6742546465192270
  9.9299456314086498  9.9299456314086498  7.0928183081490346
  8.5113819697788422  8.5113819697788422  8.5113819697788422
  9.9299456314086498  9.9299456314086498  9.9299456314086498
  2.8371273232596139  0.0000000000000000  0.0000000000000000
