Fe C 
 1.0000000000000000
    11.4493062872212263    0.0000000000000000    0.0000000000000000
     0.0000000000000000   11.3384155953123109    0.0000000000000000
     0.0000000000000000    0.0000000000000000   11.4433376131621323
 Fe  C  
 127   2
Cartesian
  0.0066664121452470  0.0788998368866247  0.0070146489283391
  0.0070061444127347  0.0788984059199342  2.8541605676906814
  1.4311633317832047  1.4173020317568947  4.4757037914677822
 -0.0268271572296534 -0.0116607422106949  5.7342295895963282
  1.4311632950057447  1.4173019404882943  7.1520859820129301
 -0.0266505978589100 -0.0114119744808592  8.5700933834854975
  1.4311633208981116  1.4173019028791050  9.8284684069691082
  0.0070060539837394  2.7557055764249108  0.0066739363400363
  1.4311632466715525  4.2256490483776927  1.4304172243429067
  0.0066666659266392  2.7557041263532662  2.8538197473430578
  1.4312349155462885  4.2349809730646850  4.2813904741036390
 -0.0266506747933422  2.8460157572009908  5.7340787436049041
  1.4311632184613725  4.2513092232367899  7.1520860167513103
 -0.0268271092603440  2.8462647403675523  8.5699423960935679
  1.4310915571307750  4.2349808761980707 10.0227816634698144
  0.0044984108384948  5.6469745178624802  0.0045768992865485
  1.4311632673516783  7.0865097415432965  1.4304172557666215
  0.0046485318695938  5.6469746267967329  2.8564085174797818
  1.4311633443518952  7.0865096998549184  4.2858446268628692
 -0.0009919896487975  5.6667931475816520  5.7211195400526318
  1.4311632599787907  7.0865098446668853  7.1520859123311888
 -0.0008971700359249  5.6667867341329243  8.5827996940374440
  1.4311631942833205  7.0865097072424312 10.0183274527074371
  0.0046485681576310  8.5260448534472655  0.0044259473160268
  1.4311633988621348  9.9473705610416623  1.4304172055383961
  0.0044983969429787  8.5260451256742371  2.8562575269195882
  1.4310915223678298  9.9380386486902186  4.2813904237983191
 -0.0008971531380687  8.5062327434410090  5.7213722770102349
  1.4311633646868303  9.9217102813510678  7.1520859544821320
 -0.0009920494144276  8.5062264560593555  8.5830523773356457
  1.4312350963883425  9.9380384606475332 10.0227816164150596
  2.8553205810601852  0.0788984194316141  0.0066739919159262
  4.4777855820382957  1.4173019836253802  1.4304172898899197
  2.8556600865950559  0.0788998383355138  2.8538196814985648
  4.3076305930250358  1.4173015780871843  4.3052548828763335
  2.8889771384486109 -0.0114118859839675  5.7340786668382000
  4.3142489222206679  1.4173019218745011  7.1520859181959375
  2.8891536759243386 -0.0116607778148023  8.5699423826284598
  4.3076306332700129  1.4173023328532699  9.9989172360295786
  2.8556602036629419  2.7557040782511142  0.0070146607511458
  4.2835398668410622  4.2350144130041345  1.4303467033666954
  2.8553204786327453  2.7557055615846138  2.8541604939316230
  4.2787098992542107  4.2402184944509598  4.2765336323950853
  2.8891536949706871  2.8462646708935200  5.7342297074067092
  4.3016831573937999  4.2710484983729584  7.1520098586239165
  2.8889771410173428  2.8460158030239531  8.5700934189671152
  4.2787823835578829  4.2402186635559627 10.0277118161588330
  2.8576779166903008  5.6469746139317660  0.0044260512714214
  4.2879491835982941  7.0865097191071964  1.4304172553971064
  2.8578281947052169  5.6469745352190097  2.8562575173336935
  4.2828177577316318  7.0865091524557595  4.2806724614478187
  2.8632237320407841  5.6667866803073217  5.7213722781455587
  4.2813998656070646  7.0865097955105067  7.1520860231713561
  2.8633186300985112  5.6667930773902926  8.5830523355082651
  4.2828177678319639  7.0865102308942562 10.0234996857279040
  2.8578281484377084  8.5260450656456133  0.0045768638045658
  4.2835398726913416  9.9380050058662732  1.4304877398566109
  2.8576779987987044  8.5260448496868531  2.8564083499899042
  4.2787825077848014  9.9328008460122348  4.2764602522713497
  2.8633186113784741  8.5062263977418375  5.7211195850296184
  4.3016832005494505  9.9019708889031328  7.1521621933311419
  2.8632237485650252  8.5062327676060079  8.5827997795983979
  4.2787098986145606  9.9328010297229170 10.0276384762639417
  5.7371434767204645 -0.0115091018291211 -0.0265652882988850
  7.1558164432228066  1.4173019604902881  1.4304172256837293
  5.7372944594017676 -0.0117578354088547  2.8875733970459008
  7.1558164892356677  1.4173019591642435  4.3118747218261788
  5.7313680680386092 -0.0158058336897912  5.7285896068150146
  7.1558163374416113  1.4173019405619645  7.1520860254107941
  5.7316560996875801 -0.0158061799767264  8.5758707160769294
  7.1558163837996265  1.4173020028588958  9.9922973049712116
  5.7372944524931420  2.8463617285892684 -0.0267388498891374
  7.1558164011156311  4.2515099890094383  1.4304172434030611
  5.7371434941477419  2.8461130599403490  2.8873996536111748
  7.1558942391020208  4.2711065359682960  4.2993813411322979
  5.7316561756928897  2.8504101570408196  5.7283013233493749
  7.1558163302973323  4.2713119594252200  7.1520859448667116
  5.7313679880124102  2.8504098389243948  8.5755824328530235
  7.1557386351555046  4.2711065289136378 10.0047907891913983
  5.7242684405057380  5.6668549687495275 -0.0009111915314146
  7.1558164800054671  7.0865097320747337  1.4304171529743346
  5.7240162643731871  5.6668609124429805  2.8618416605296639
  7.1558164381860099  7.0865096938344738  4.2791985684891394
  5.7131217775578405  5.6769639216233463  5.7099435069192932
  7.1558164488016018  7.0865097898841860  7.1520860259012462
  5.7129076159069960  5.6769645537462869  8.5940146305654839
  7.1558164580110546  7.0865098227795533 10.0249734357217051
  5.7240163131516155  8.5061587654634039 -0.0010073886947535
  7.1558164886188989  9.9215097032543191  1.4304172090319496
  5.7242685111727702  8.5061646240920190  2.8617456368893737
  7.1557387279914542  9.9019130300562672  4.2993813362949691
  5.7129076003607988  8.4960550045996612  5.7101574162479931
  7.1558164158519793  9.9017075376430430  7.1520860265859936
  5.7131217201245201  8.4960556171985733  8.5942284492354037
  7.1558941784817716  9.9019130020451644 10.0047907585221303
  8.5743383883835751 -0.0117578201245350 -0.0267388687752286
  9.8338472666461101  1.4173019530320345  1.4304171964894568
  8.5744893863090095 -0.0115091609748694  2.8873997252190584
 10.0040022286211467  1.4173023548667572  4.3052548533764767
  8.5799766519603118 -0.0158062844669622  5.7283013486013630
  9.9973839894209906  1.4173019503210511  7.1520859620227499
  8.5802647486491850 -0.0158059484776062  8.5755824726368264
 10.0040022230580643  1.4173015323891527  9.9989173130730080
  8.5744893083434128  2.8461131509177870 -0.0265652603025897
 10.0280930732175069  4.2350145122554403  1.4304877206611908
  8.5743383373094169  2.8463617065590507  2.8875733062409368
 10.0328504454408343  4.2402186773350508  4.2764602263138682
  8.5802648307950893  2.8504098564947857  5.7285894897354197
 10.0099496433676425  4.2710485920700521  7.1521622142499446
  8.5799766908443758  2.8504101693218922  8.5758706245304328
 10.0329229132273579  4.2402185214723325 10.0276385088449320
  8.5876165037440888  5.6668608523794690 -0.0010072915958896
 10.0236835943343543  7.0865097070218352  1.4304170715613633
  8.5873643573850611  5.6668549370766126  2.8617456641868411
 10.0288150165683625  7.0865104298013115  4.2806723657432757
  8.5987252047507301  5.6769644852498446  5.7101573405534252
 10.0302330276430194  7.0865098164618310  7.1520860620310165
  8.5985111247064392  5.6769639065107560  8.5942284591263167
 10.0288150594788270  7.0865090668875723 10.0234995980383239
  8.5873644672289906  8.5061645860729982 -0.0009111474799850
 10.0280930021024552  9.9380050674558884  1.4303466513920704
  8.5876165156545756  8.5061586782823984  2.8618417452342104
 10.0329229490036003  9.9328010432130842  4.2765335098456578
  8.5985111679712176  8.4960556574205857  5.7099435340907210
 10.0099495862997703  9.9019710205825646  7.1520099395911503
  8.5987252330215664  8.4960549777021903  8.5940145800059735
 10.0328504512077803  9.9328008804557371 10.0277117922283594
  1.4311632944755825  2.1062977614427325  1.4304173354258529
  1.4311633906673920  0.7283060933216307  1.4304172744299337
