Fe C 
 1.0000000000000000
    11.3412115280992971    0.0000000000000000    0.0000000000000000
     0.0000000000000000   11.3412115310549613    0.0000000000000000
     0.0000000000000000    0.0000000000000000   11.4625892334717783
 Fe  C  
 127   1
Cartesian
  0.0841599224603731  0.0418332255220771 -0.0094808799638109
  0.0843767738832272  0.0421280574443226  2.8752002460812793
  1.3941048638460056  1.4414287735813931  4.4190465755778972
 -0.0081142148455231 -0.0043228625638195  5.7496347548024200
  1.3984139299529745  1.4368888761693475  7.1641181731405394
 -0.0081349064384210 -0.0048584952148927  8.5782516823301034
  1.3938737613351300  1.4411982898729461  9.9091894522097039
  0.0649024052156039  2.7707247166620439  0.0451965637417045
  1.4391775170291186  4.2654411074813972  1.4330801508092499
  0.0645780536975768  2.7704003708377822  2.8204507189071140
  1.4109818993916361  4.2446276871896016  4.3002442407799037
 -0.0278566784890533  2.8633289565076416  5.7527231938501382
  1.4086593319149137  4.2663539746504044  7.1641094326408608
 -0.0280264416273620  2.8631596681827434  8.5755131187938449
  1.4111351514615234  4.2445472872078929 10.0279427534808043
  0.0068930927481165  5.6679309441459012  0.0083697652489053
  1.4376518416778477  7.0996006070774911  1.4328051726469277
  0.0067955687142706  5.6681503737150907  2.8573535393488947
  1.4080271792418744  7.0859616922461681  4.2987864393724289
 -0.0204373562164371  5.6713668761774576  5.7231514837035382
  1.4102241318576618  7.0643243483963474  7.1640863044091603
 -0.0204086838147050  5.6711873242391899  8.6050239804196114
  1.4078944976254966  7.0859119819551628 10.0294600558667142
  0.0313696656655062  8.5359831371350676  0.0217369191320818
  1.4882586816213152  9.9859807779934329  1.4329652153567942
  0.0312535142574855  8.5359148391564794  2.8439890092700488
  1.3862048737050210  9.8975863377889812  4.3637201595277011
 -0.0258382657847189  8.4764819178407134  5.7496983642335202
  1.3950184207774250  9.9052572829985817  7.1640283114412249
 -0.0257408999598091  8.4763469672121943  8.5783390868666487
  1.3859556332048484  9.8971983410907463  9.9643101874108311
  2.8087496409199053  0.0268256610923353 -0.3738509715977410
  4.1905334917197612  1.3470440560210448  1.4326816677922822
  2.8084772933396072  0.0265532328894099  3.2395109398017832
  4.2793155810965091  1.4493469441518054  4.3639261605162822
  2.8409156273382368 -0.0057562058487705  5.7807138717069115
  4.2712570780934280  1.4402843654996360  7.1642082183737266
  2.8410592621009920 -0.0056130242000714  8.5475221020518344
  4.2789286795684616  1.4490983773155988  9.9645159998265296
  2.7931748047938751  2.7509260418318031 -0.0095529384148556
  4.2100695482296411  4.2167516622215055  1.4327633177895955
  2.7934695577829012  2.7511427449435311  2.8751281624721847
  4.2502305467982815  4.2378002592703625  4.2889839736559479
  2.8401614114932796  2.8434373827577692  5.7499848946791348
  4.2666410808266111  4.2714720239238702  7.1641990847034629
  2.8396256741060366  2.8434171994471549  8.5786015935944260
  4.2500330661182160  4.2378236782314476 10.0392837602635794
  2.8363873839922120  5.6627321287585284 -0.0185334302043994
  4.2203403581787455  7.1041782770900337  1.4327572360866012
  2.8364791035439301  5.6627070815324032  2.8844192294917201
  4.2600846086087953  7.0858018725109737  4.2993649473029869
  2.8386203077192311  5.6671002098501440  5.7311838499676391
  4.2659500940121537  7.0663831682627603  7.1641046506990742
  2.8385168507653997  5.6673082844716509  8.5971298089664359
  4.2600226310033529  7.0859114847989968 10.0288655676837664
  2.8269054038382415  8.5419776876851081 -0.0416031056562942
  4.1595480348108671 10.0169665981306224  1.4328234814128331
  2.8272357567916919  8.5419617409614137  2.9073021238811081
  4.2728236883174739  9.9034726038245484  4.3457547632070321
  2.8333280028302679  8.4983574588535209  5.7468560363039405
  4.2760253258374465  9.9004890986392891  7.1641182252455868
  2.8340745058974663  8.4984077694365627  8.5812324032986602
  4.2730423422996369  9.9036902554346185  9.9824813311246245
  5.6345531413420398  0.0080671581885632 -0.0416550920758362
  7.0769139253004516  1.3976510748654989  1.4328420502935575
  5.6345364099776925  0.0083974736599416  2.9072503167619552
  7.0906023507214666  1.4274084591168315  4.2987764980442540
  5.6781063797002034  0.0012284280663456  5.7470043766890262
  7.1121902156112347  1.4250786789232965  7.1641501616951233
  5.6781569829402905  0.0019749416239436  8.5813805344384146
  7.0905527723347967  1.4272756388553329 10.0294501293465164
  5.6405997228337972  2.8040493840309302  0.0216582195873743
  7.0795894795498535  4.2343656031498833  1.4328928153868365
  5.6405314205932298  2.8039331349403458  2.8439102968919387
  7.0812470564148224  4.2434935495463648  4.2627211828670548
  5.7001672447945495  2.8610436504399535  5.7498975366128802
  7.1183608591446346  4.2830887626327563  7.1641508739306650
  5.7000325493101576  2.8611412095229984  8.5785379199874399
  7.0812112849105722  4.2435915462565292 10.0654514153562271
  5.6609497406162719  5.6654954992018078  0.0189632642831157
  7.0848387186576440  7.0916756669573155  1.4328236416294680
  5.6609370333635951  5.6653940629384971  2.8465810881238056
  7.0851132039291631  7.0913156333207956  4.2610633826347248
  5.6885682611970196  5.6662029089390611  5.7131519382461002
  7.1169415763058428  7.0595729358750905  7.1641181535955383
  5.6885291721225046  5.6663256085729570  8.6151371166832167
  7.0851989317498241  7.0914012016974883 10.0671731195339245
  5.6523622343068025  8.5242180936097878  0.0185507405860231
  7.0723360117391012  9.9561740125653966  1.4328900625083212
  5.6522961780824943  8.5241520513012965  2.8470964242988233
  7.0906030955966370  9.9164919816467236  4.2993710761324513
  5.6960845254834780  8.4802880387839323  5.7418146736743045
  7.1101313650863913  9.9105643093434708  7.1641319056470536
  5.6962266309088321  8.4804297148894907  8.5864217324561345
  7.0907124108650947  9.9164299734006018 10.0288716692087156
  8.5138071618831699 -0.0011761474667516 -0.0187718437793599
  9.9110733276266050  1.3961253746565223  1.4325672998846082
  8.5137824631902514 -0.0010844329235295  2.8841805181348747
  9.9319669784525857  1.4241676670927756  4.3002937872413822
  8.5092062829923272 -0.0032139690161732  5.7311066112257070
  9.9101605676180800  1.4266432990984523  7.1641272310773836
  8.5094142404446611 -0.0033174264696965  8.5970525901485502
  9.9318865488318799  1.4243209597120752 10.0279922548141993
  8.5083642332521681  2.8285072186035829  0.0082939654415584
  9.9433292169858802  4.2331853159022064  1.4328236642129129
  8.5085836575536042  2.8284098911646898  2.8572773718121147
  9.9361422363559662  4.2403840388681342  4.2615097765402101
  8.5053269745375069  2.8557115735927514  5.7232124184328654
  9.8963106722385579  4.2802036762365363  7.1641183051559727
  8.5051476403221198  2.8557400721205055  8.6050850933496026
  9.9361303144332727  4.2403719893896410 10.0667266709557630
  8.5078128075998425  5.6687795452640257  0.0164886173032458
  9.9421488301129770  7.0969249043857969  1.4327546449653632
  8.5077347797952747  5.6687014730292873  2.8491587847518076
  9.9329227882511599  7.0953031278417269  4.2627852695466757
  8.5096783072303488  5.6668081776107107  5.6788789239616788
  9.8934257572712454  7.0581536542609964  7.1640858943177035
  8.5097062031193857  5.6668360358775542  8.6493576710626385
  9.9330209551987174  7.0952674143342636 10.0655153853035912
  8.5111203193449505  8.5155774808681013  0.0190660443808028
  9.9597627169924383  9.9664448856850303  1.4328839310935786
  8.5110187827832764  8.5155644788331077  2.8466840291512430
  9.9386907221292198  9.9264812447711854  4.2889529720412503
  8.5101888166817279  8.4879854603818181  5.7130993169177557
  9.9050422665071842  9.9098733022921497  7.1640374324359790
  8.5103113089353979  8.4879462189187525  8.6150845272002332
  9.9387140624143715  9.9262838980746189 10.0392526610852695
  2.7570032241519646  0.0782995547766609  1.4328133368472840
