Fe
 1.0000000000000000
    11.3709228377966731    0.0000000000000000    0.0000000000000000
     0.0000000000000000   11.3709228410724883    0.0000000000000000
     0.0000000000000000    0.0000000000000000   11.3709228367501094
 Fe 
 127
Cartesian
  0.0531201187912032  0.0531200576546670  0.0531198724699711
  0.0531200542773650  0.0531200076669166  2.7896107099265302
  1.4213655130125091  1.4213652783866371  4.3045978474432172
 -0.0019946819014369 -0.0019100842134377  5.6870202688302003
  1.4213652668551586  1.4213652627010724  7.1068268394448886
 -0.0019099380031519 -0.0019947455402130  8.5266333715720677
  1.4213654228788468  1.4213652620462613  9.9090556395605063
  0.0531200820284164  2.7896108855060184  0.0531201880631196
  1.4213651646955401  4.3045980142410549  1.4213651743866766
  0.0531199675296160  2.7896107033324635  2.7896106255634243
  1.4213652375662698  4.2524514559314577  4.2524515421791413
 -0.0019102091543200  2.8447253670721575  5.6870202511668522
  1.4213654229901818  4.2553417870681161  7.1068269434511517
 -0.0019946407963074  2.8446408806181238  8.5266333259575937
  1.4213653002898461  4.2524515508197220  9.9612021589690514
 -0.0019101102366284  5.6870202286653599 -0.0019947974243879
  1.4213653635396828  7.1068267796511879  1.4213652351709289
 -0.0019946447652617  5.6870202191774073  2.8446407437440060
  1.4213654126493365  7.1068268699472492  4.2553420009519520
  0.0007988935202764  5.6852026529606094  5.6851604121213191
  1.4213655514282375  7.1068267410920214  7.1068267898351927
  0.0007990567909497  5.6851604244820315  8.5284509981813255
  1.4213653928601964  7.1068265991921065  9.9583117469734290
 -0.0019948818180813  8.5266331365550112 -0.0019101135599511
  1.4213653646981830  9.9090556208732981  1.4213654174383594
 -0.0019102699285874  8.5266332914088920  2.8447254099696813
  1.4213653313848960  9.9612020903518346  4.2524514138006184
  0.0007989707158405  8.5284930571922875  5.6852025583177976
  1.4213653400327499  9.9583117030886790  7.1068268096927945
  0.0007988100170404  8.5284510051218589  8.5284931429362700
  1.4213653449738510  9.9612022647539558  9.9612021460914519
  2.7896105548463588  0.0531199827465413  0.0531198863235742
  4.3045979965181296  1.4213654302105407  1.4213655889212855
  2.7896106821498527  0.0531200267784375  2.7896108069758911
  4.2524514704184160  1.4213653539878430  4.2524513455856239
  2.8446408043010143 -0.0019947708446662  5.6870201796325954
  4.2553420425367383  1.4213652562302754  7.1068268017072000
  2.8447253159724517 -0.0019101321922282  8.5266333601042472
  4.2524515794154043  1.4213653081086903  9.9612020655589291
  2.7896107631212987  2.7896107853847498  0.0531201537722891
  4.2524515616227276  4.2524514407129068  1.4213655183037932
  2.7896107982500786  2.7896105158243496  2.7896108026204414
  4.2462336578669797  4.2462337262379428  4.2462337152820373
  2.8447253409189033  2.8446409542858300  5.6870201185676139
  4.2593576654368759  4.2593578855407062  7.1068267027717305
  2.8446408013057352  2.8447254676757341  8.5266331872605541
  4.2462338206772197  4.2462337436196300  9.9674198294588674
  2.8447251616925748  5.6870202512419281 -0.0019102605335730
  4.2553419342688885  7.1068267261453544  1.4213654362210086
  2.8446408648247972  5.6870202564075489  2.8447254684167564
  4.2593576060953362  7.1068266549989110  4.2593576762830923
  2.8419315951307516  5.6851604167811978  5.6852028084694819
  4.2621379364822278  7.1068265648500892  7.1068268246779862
  2.8419316929459018  5.6852027945354333  8.5284930368805671
  4.2593577535139193  7.1068267854001705  9.9542958551182874
  2.8446408061260118  8.5266331709630077 -0.0019946448733869
  4.2524515757208148  9.9612019512187047  1.4213655044303355
  2.8447253741417664  8.5266333347630532  2.8446408524841655
  4.2462336753245333  9.9674199628492595  4.2462337354546076
  2.8419315944776531  8.5284507843623061  5.6851603889071054
  4.2593577137155609  9.9542959764698793  7.1068267299466195
  2.8419317483317523  8.5284931711984289  8.5284508335418856
  4.2462336702581638  9.9674199315730814  9.9674198391792093
  5.6870202305719708 -0.0019946718053429 -0.0019101358427332
  7.1068269667175468  1.4213654390096224  1.4213653551437884
  5.6870201365099620 -0.0019102194290398  2.8447254702150850
  7.1068268668777179  1.4213654845330512  4.2553418466038178
  5.6851603834682320  0.0007989330468357  5.6852027824244962
  7.1068268489787005  1.4213651920042321  7.1068268364134708
  5.6852027582440874  0.0007990787955182  8.5284930709101037
  7.1068267121430386  1.4213653166478177  9.9583116206007336
  5.6870201814162868  2.8446409641104404 -0.0019945328621998
  7.1068267828580902  4.2553419121603380  1.4213653013207057
  5.6870201404288485  2.8447254186190905  2.8446407999692700
  7.1068267842828252  4.2593578171088238  4.2593577298239520
  5.6852026510622782  2.8419317657250107  5.6851603607593599
  7.1068269360577219  4.2621380355479710  7.1068267749397691
  5.6851604925672108  2.8419316475368137  8.5284509106555326
  7.1068267723805265  4.2593577602883972  9.9542958779876489
  5.6852027885035055  5.6851604888826373  0.0007990276594463
  7.1068265138440951  7.1068267365770970  1.4213652267355716
  5.6851604827999482  5.6852026562236606  2.8419316692596399
  7.1068267720734193  7.1068269639039077  4.2621379736245899
  5.6775692108775431  5.6775692050102897  5.6775692837711098
  7.1068269081088120  7.1068268830542705  7.1068266707920174
  5.6775692380143097  5.6775692517376246  8.5360843805027766
  7.1068266227663281  7.1068267430055840  9.9515156758048633
  5.6851605410997159  8.5284506580173662  0.0007991652797544
  7.1068268104502410  9.9583116460863259  1.4213653513975475
  5.6852027798265041  8.5284931866224820  2.8419316803148202
  7.1068267310545998  9.9542955618169291  4.2593577369046942
  5.6775694969924242  8.5360842953234375  5.6775692252261889
  7.1068267453320910  9.9515155325676012  7.1068268550437317
  5.6775693803871983  8.5360843333252490  8.5360843218572722
  7.1068267601504740  9.9542958186393857  9.9542957020609535
  8.5266333655355346 -0.0019100890754359 -0.0019946582197148
  9.9090554196800742  1.4213653650089801  1.4213654053769784
  8.5266334172799016 -0.0019946222405482  2.8446407635716113
  9.9612019613165117  1.4213654209091453  4.2524514384133889
  8.5284510076627704  0.0007991121001832  5.6851605266490468
  9.9583115813428957  1.4213653446721277  7.1068266826046669
  8.5284930198686038  0.0007989877546784  8.5284507749275189
  9.9612019472401414  1.4213653524634617  9.9612020845106688
  8.5266334079563340  2.8447253897677078 -0.0019100092105801
  9.9612020482772436  4.2524513884054729  1.4213653270354383
  8.5266333104424721  2.8446408026108276  2.8447253460986572
  9.9674197810217038  4.2462337141391249  4.2462337777365633
  8.5284932367968782  2.8419317788672349  5.6852026361140435
  9.9542957184352847  4.2593576421915884  7.1068266873502752
  8.5284507327216499  2.8419317274752989  8.5284930202758531
  9.9674198968460157  4.2462338349414406  9.9674199178049268
  8.5284932423315407  5.6852026633887522  0.0007989011137180
  9.9583117838198696  7.1068268730120794  1.4213651929629110
  8.5284508674070327  5.6851603980435819  2.8419317864584706
  9.9542958051677051  7.1068267927744522  4.2593578603528073
  8.5360844687776964  5.6775691368771675  5.6775692558068860
  9.9515155418121921  7.1068267889948977  7.1068266956748412
  8.5360843070491015  5.6775690969681536  8.5360841830528607
  9.9542959247227980  7.1068267675193617  9.9542958543892457
  8.5284509076127932  8.5284932298716321  0.0007989349934300
  9.9612019764852207  9.9612020791422538  1.4213654353914535
  8.5284931861013717  8.5284508784223156  2.8419317486721116
  9.9674200018524832  9.9674196104214783  4.2462334694447428
  8.5360844150231827  8.5360841474975846  5.6775691871326446
  9.9542958415165153  9.9542958157560406  7.1068268263376666
  8.5360842939804638  8.5360844227153869  8.5360842217228363
  9.9674198143843409  9.9674196767988423  9.9674198579328550
