Fe C 
 1.0000000000000000
    11.3648629168296900    0.0000000000000000    0.0000000000000000
     0.0000000000000000   11.3652519620178811    0.0000000000000000
     0.0000000000000000    0.0000000000000000   11.3833922631502737
 Fe  C  
 126   1
Cartesian
  0.0743907028827825  0.0953131920893122  0.0932583213141632
  0.0477930792016286  0.0304143540835070  2.7913548852544534
  1.4192568638665337  1.4223961804010876  4.3087069796069395
 -0.0032744770023131 -0.0086269918798639  5.6865161514711779
  1.4196164380116338  1.4217341936519061  7.0828958136759415
  0.0069233638910398  0.0015189473922483  8.5308506646284954
  1.4614156701089520  1.3796803527421484  9.8253559850239061
  0.0967613078078821  2.7449712392621795  0.0686630698080054
  1.4200180538320608  4.3261993799785765  1.4253560538832868
  0.0397621992350739  2.8020708942763068  2.7916370966959905
  1.4270363244242494  4.2511441981095688  4.2527342398359256
 -0.0082073710239464  2.8498437706404069  5.6826672129572060
  1.4215391761519325  4.2456448480670952  7.1050048708362068
  0.0090557673196585  2.8321490003489171  8.5482870508327728
  1.4276267900641031  4.2108682871692649  9.9783561013781092
  0.0074937614724559  5.6916518898472042 -0.0062098954261826
  1.4190382636821763  7.1120621117488918  1.4375592181680068
 -0.0053096716155303  5.6846363445411461  2.8395014714843123
  1.4174263007236438  7.1065240853483216  4.2633248751811577
 -0.0040985022020766  5.6892647704584878  5.6852429996275022
  1.4162486741550047  7.1040111767270426  7.1051138661540270
  0.0073330549155841  5.6726159655150834  8.5461061291535554
  1.4178887092310370  7.1094935675685900  9.9504800982313579
  0.0203325667467825  8.5337880385637614 -0.0010554447036396
  1.4613246541185025  9.9367978977360973  1.4037514071302699
  0.0036249033782931  8.5388597698506903  2.8308879945801735
  1.4167763385606096  9.9453761772798330  4.2684372448286414
 -0.0051103382467814  8.5177482572156098  5.6885882906397720
  1.4165724394232260  9.9624230995800875  7.1045869055852489
  0.0176615462009317  8.5515289908605556  8.5562913415744362
  1.4499714387141125 10.0435034462840367 10.0075251675688204
  4.2689432495068171  1.3796680031118054  1.4035233100220690
  2.8163954513376135  0.0242455336710416  2.8560250837871735
  4.2609680500668317  1.4240868986248867  4.2683401717601770
  2.8503573316446573 -0.0093606154357204  5.6887739293932817
  4.2438109156447306  1.4245604756159602  7.1045416950961089
  2.8403635478584968  0.0002790324882405  8.4843842543535644
  4.1624828279907993  1.3906190294053133 10.0075312308249060
  2.7463692911072144  2.7673171021255611  0.0925967316668659
  4.2254485941436943  4.2313355725550803  1.3950200082891462
  2.8110660949380346  2.7933844123523217  2.7913923910113336
  4.2490799259175329  4.2515567910808967  4.2495558683635499
  2.8501851649819980  2.8445162835245297  5.6867348873910695
  4.2582175886486242  4.2628301566488371  7.1089993143822747
  2.8399222614011994  2.8347256119138411  8.5307224133307802
  4.2122263806947791  4.2128148838126256 10.0028536209089136
  2.8390364734002791  5.6920698358964623 -0.0035227443504920
  4.2610156914040820  7.1077704326108471  1.4207733005395418
  2.8486118945270738  5.6845315850741303  2.8369891409366472
  4.2680259515067078  7.1027955353526000  4.2693420605232379
  2.8413136425633603  5.6932532746106927  5.6882061171114167
  4.2599542368918986  7.1020990094745979  7.1177414023047136
  2.8343394574019194  5.6719813574366764  8.5484229467255428
  4.2620490652478216  7.1078404488829827  9.9519433674060451
  2.8361984243043974  8.4890390215782467 -0.0056782975690526
  4.1969512950152463 10.0092083399733962  1.3725933724475425
  2.8468829335772137  8.5246288442804889  2.8460046664070973
  4.2588225824869683  9.9475963579329747  4.2579933078764673
  2.8420283668934987  8.5216872295822146  5.6881051715239668
  4.2651452229210358  9.9414380272019418  7.1065304092587214
  2.8285569012135339  8.5470978819412231  8.5474449906308791
  4.2062911950608566  9.9998602157274927 10.0062285138027534
  5.7170255566069708  0.0046362318594287 -0.0060721669097846
  7.0941504618395346  1.4222524152590312  1.4371892280512601
  5.6816600422931787 -0.0058049931559057  2.8459776681790609
  7.0999816013662098  1.4237186786944653  4.2632472473047107
  5.6847143870593966 -0.0008065323596577  5.6882192821694639
  7.1022144244125434  1.4250445401538883  7.1052168598180927
  5.6592957347212760  0.0123122296096015  8.5473823730043925
  7.0967185864845046  1.4233414476368385  9.9503261819228399
  5.6721055984719717  2.8205591925164715 -0.0011420320478867
  7.0991245413745876  4.2599395176841428  1.4131706953319412
  5.6675283610059175  2.8369354202529635  2.8308203114547976
  7.0939733368843827  4.2637941940388169  4.2588799470700822
  5.6885440444563784  2.8463664370312762  5.6886764381549346
  7.1000466622044023  4.2595597485428209  7.1248013716106415
  5.6546280111179463  2.8234403067833367  8.5562977864124239
  7.0963927427136690  4.2600418696803297  9.9605371159457015
  5.6655409176818639  5.6741951652771920 -0.0029592545777468
  7.1030920211414443  7.1033057797950141  1.4157247511168440
  5.6710331984835483  5.6744487289371692  2.8273551157940284
  7.1017042545069557  7.1046194373389664  4.2479244681661195
  5.6819351945098102  5.6818855507927628  5.6870406875008612
  7.1053702298317578  7.1010378392167715  7.1367465975004363
  5.6619732508618439  5.6635368453442627  8.5570091850572201
  7.1032323460270348  7.1030407408263727  9.9583668756759884
  5.6681297646248545  8.5381044424244035 -0.0008741992263676
  7.0984341624370062  9.9455248894160686  1.4205752226160389
  5.6678965658489320  8.5385703462865159  2.8271558361687710
  7.1035993841071940  9.9384983584924473  4.2693510721086412
  5.6843700462592004  8.5220970210338187  5.6869180969003956
  7.1045342469099211  9.9464464963373480  7.1177654021787049
  5.6659899305146180  8.5403762405535737  8.5522406982405386
  7.0986086368855146  9.9442888457508758  9.9519744998237538
  8.5143277602151652  0.0024350598521270 -0.0032593577681100
  9.8801707304426376  1.4217366573421255  1.4253450457916508
  8.5215980244703466 -0.0071277141933882  2.8368388569329110
  9.9552785484745652  1.4150294319151708  4.2526253985274227
  8.5131388911105716 -0.0000095236143543  5.6881406815531248
  9.9606448409535950  1.4194715914512630  7.1052914074814488
  8.5345333707405882  0.0069620850114876  8.5485365418064987
  9.9957818588509078  1.4142305671928985  9.9785516456324324
  8.5147778029757450  2.8340208173907655 -0.0063007100398553
  9.9745227229845295  4.2317607314582544  1.3928421741399615
  8.5216276649193254  2.8467974793343442  2.8396344473944208
  9.9586648876352388  4.2475364435235798  4.2393709484177426
  8.5170284712256148  2.8453224725699764  5.6853596246948088
  9.9483936114424978  4.2577335528569815  7.1176759194765493
  8.5335940774512054  2.8340584708988574  8.5462660055390121
  9.9796568900196334  4.2267104437039018  9.9974132719991076
  8.5284190442242238  5.6778377598833751 -0.0043964030116610
  9.9460844587169994  7.1070763799103736  1.4131637905706680
  8.5315264141402505  5.6745366253120562  2.8261046555746141
  9.9422319121889728  7.1121075549581967  4.2588316271785462
  8.5267075816291342  5.6794610715726659  5.6850236215531513
  9.9466049355384722  7.1062930224116112  7.1247716004029513
  8.5401024241446741  5.6661921004725020  8.5597960436813345
  9.9461206605858887  7.1098934444507096  9.9604881686784896
  8.5319313795935976  8.5409279597321621 -0.0028873900300763
  9.9748789615649631  9.9811502068804447  1.3951889034030374
  8.5318947764913524  8.5353199007121674  2.8273523967105483
  9.9544661795327514  9.9575441400331659  4.2496130319972245
  8.5244334989445054  8.5244719207269455  5.6869475960383795
  9.9436274784556282  9.9481988403549373  7.1090665290931483
  8.5428098260467920  8.5444474503073415  8.5570817500004850
  9.9934644918736186  9.9942830355263244 10.0031178062880350
  1.4205685566269006  1.4213094864248255  0.2657131270359048
