Fe C 
 1.0000000000000000
    11.4454628169240369    0.0000000000000000    0.0000000000000000
     0.0000000000000000   11.4454628193915404    0.0000000000000000
     0.0000000000000000    0.0000000000000000   11.3402105184931425
 Fe  C  
 127   2
Cartesian
  0.0069656791471387  0.0066256407479025  0.0789309537211585
  0.0066257307784052  0.0069656535322252  2.7561215168032618
  1.4306827553549626  1.4306828336032942  4.2261272783364188
  0.0046317783961006  0.0044805274370466  5.6479025483954395
  1.4306828613545111  1.4306828434529284  7.0876314839825438
  0.0044804312653846  0.0046315503000473  8.5273606580129275
  1.4306828210977531  1.4306829139955981  9.9491358649614590
  0.0066257266117810  2.8544000417722715  0.0789309481537237
  1.4306829300511179  4.4764440365615590  1.4175263608641644
  0.0069657916140359  2.8547400445915874  2.7561215378145283
  1.4306117698169578  4.2821164832449119  4.2356569156688746
  0.0044805501625738  2.8567341224095548  5.6479025024209326
  1.4306828532182239  4.2865718471273375  7.0876316303388842
  0.0046315336130739  2.8568851035984868  8.5273605701335278
  1.4307539918621928  4.2821165507021979  9.9396060923944916
 -0.0266104133171749  5.7351730979412139 -0.0114774641555478
  1.4306827446104275  7.1534142296356533  1.4175262365905279
 -0.0267857222160645  5.7353239793114090  2.8467787561335869
  1.4306828526070900  7.1534142804742933  4.2521024973261845
 -0.0008918380737279  5.7223699631652032  5.6677236636734998
  1.4306827413066925  7.1534142527964688  7.0876315817135991
 -0.0009872085840213  5.7221174802002626  8.5075333369382982
  1.4306827847967423  7.1534142974210848  9.9231606598550872
 -0.0267856934068806  8.5715045480033609 -0.0117261082122786
  1.4306829474068010  9.8303843496868879  1.4175262926714580
 -0.0266103800112067  8.5716556140913482  2.8465300597797065
  1.4307539635118258 10.0247120172258466  4.2356570140540306
 -0.0009871971896503  8.5847109810540463  5.6677296985570820
  1.4306828142116448 10.0202566216354167  7.0876316881524728
 -0.0008916799450388  8.5844585717881046  8.5075394437206189
  1.4306117706523591 10.0247119957018853  9.9396061660098596
  2.8547399824201958  0.0069657599856417  0.0789310547407057
  4.4764441310915046  1.4306828911630718  1.4175264121197915
  2.8543998987053314  0.0066256865478037  2.7561216036044676
  4.2821164977902813  1.4307538547880376  4.2356570054520803
  2.8568851762907386  0.0046315829026088  5.6479026164687065
  4.2865719469199091  1.4306829078319396  7.0876314293935980
  2.8567341328290219  0.0044805768500096  8.5273604610694385
  4.2821166380849949  1.4306119115448499  9.9396061964017690
  2.8544001207366345  2.8547401149952178  0.0789309687041114
  4.3061454706867881  4.3061454683875544  1.4175262829507222
  2.8547399121206984  2.8544000451433922  2.7561216565888178
  4.2773323940078622  4.2772593255606246  4.2409098848541458
  2.8567340583902094  2.8568852644057547  5.6479024979369026
  4.2814144686375153  4.2814143869994901  7.0876316213786366
  2.8568851843820751  2.8567340342592291  8.5273604710298425
  4.2772593206838900  4.2773323396019034  9.9343530482300029
  2.8881513793111941  5.7353240552849929 -0.0117262460070998
  4.3127429801844146  7.1534142825457989  1.4175263294690374
  2.8879760713794465  5.7351729767590145  2.8465300149234056
  4.3002003164870581  7.1534913889037135  4.2717725409453040
  2.8623528050816938  5.7221174744802745  5.6677297849170891
  4.2799534786400217  7.1534144139555087  7.0876314568234751
  2.8622573673994598  5.7223699259863947  8.5075395155900111
  4.3002003142575074  7.1533372463711293  9.9034905436560621
  2.8879760775408481  8.5716554864441843 -0.0114773125629299
  4.3061456430917353 10.0006829345960018  1.4175263015343589
  2.8881513890868082  8.5715045560554390  2.8467788191544101
  4.2772592927639685 10.0294961811459089  4.2409100011488121
  2.8622574896069666  8.5844585160927593  5.6677235732231876
  4.2814145092264955 10.0254141743924929  7.0876314959106272
  2.8623528784703982  8.5847110052936220  8.5075333624809932
  4.2773323310759972 10.0295691559430740  9.9343532422918397
  5.7353239911663287 -0.0267855271055534 -0.0117263100500171
  7.1534141514237328  1.4306827472395760  1.4175263151210975
  5.7351730319086798 -0.0266105591153470  2.8465299890072377
  7.1534142725878889  1.4306829126598153  4.2521024646935581
  5.7221175063473417 -0.0009870312246384  5.6677297999167298
  7.1534144118512462  1.4306827994857001  7.0876315282286901
  5.7223698660539783 -0.0008916627638169  8.5075394243505631
  7.1534143997623652  1.4306828619397500  9.9231605580447031
  5.7351730337921536  2.8879762683561614 -0.0114774344630819
  7.1534143197424056  4.3127431017575120  1.4175262659391015
  5.7353239865574235  2.8881514276668843  2.8467788280565194
  7.1533372048592385  4.3002003721301998  4.2717726261578211
  5.7223699198348932  2.8622574643212060  5.6677236808971312
  7.1534143830135202  4.2799533418200904  7.0876315366315898
  5.7221175848019019  2.8623529496879607  8.5075332280112637
  7.1534913755535516  4.3002003964331381  9.9034904609015548
  5.7296991530569352  5.7294108231514436 -0.0158263382883881
  7.1534143473469447  7.1534143067764600  1.4175263629000541
  5.7294106783917371  5.7296992365534551  2.8508790495404508
  7.1534142578365421  7.1534142296651568  4.2720065361957458
  5.7109916050697063  5.7112057995466481  5.6778700941390490
  7.1534142014231525  7.1534143986889021  7.0876314567204446
  5.7112058072918375  5.7109917361892304  8.4973928521989439
  7.1534141548535173  7.1534142321769592  9.9032565924181135
  5.7294107651662358  8.5771291998596997 -0.0158264873980074
  7.1534143156278995  9.9940855510199373  1.4175262216454527
  5.7296991937080932  8.5774176872236829  2.8508789765795473
  7.1534913020137090 10.0066280924161752  4.2717725479380944
  5.7112057875506590  8.5958368285151394  5.6778701669925500
  7.1534142778732743 10.0268750859930940  7.0876316258817758
  5.7109916458839844  8.5956225888235291  8.4973929376929203
  7.1533372033430966 10.0066281796022789  9.9034906504151881
  8.5716553599860266 -0.0266104706579870 -0.0114774554830949
  9.8303844404776548  1.4306829255937046  1.4175263388705819
  8.5715044853262690 -0.0267856570987210  2.8467788458240144
 10.0247121333317022  1.4306118570537734  4.2356569752735442
  8.5844586088214392 -0.0008916556254254  5.6677235304571001
 10.0202565241083015  1.4306828720378881  7.0876315233488194
  8.5847110426587570 -0.0009872843333194  8.5075332569544866
 10.0247119158187150  1.4307540036420994  9.9396061236560165
  8.5715044583365341  2.8881512970826524 -0.0117262940198083
 10.0006831228096775  4.3061455703059890  1.4175261598112856
  8.5716554383673138  2.8879761390878382  2.8465299703480684
 10.0295692606137834  4.2773322999170498  4.2409099947133582
  8.5847110735055949  2.8623529051636236  5.6677297426248252
 10.0254141963829291  4.2814144321835732  7.0876316347187887
  8.5844586560505132  2.8622572582515518  8.5075393693221368
 10.0294961638272095  4.2772593752307495  9.9343531363046402
  8.5774178220283410  5.7296992171141712 -0.0158264268307168
  9.9940855399345381  7.1534141636201243  1.4175263355921053
  8.5771293693040906  5.7294106009884196  2.8508789139919957
 10.0066281668646084  7.1533371575755345  4.2717725172280767
  8.5956227134423102  5.7109916901993385  5.6778702731759862
 10.0268750521430423  7.1534141932060855  7.0876315030784749
  8.5958367541069070  5.7112058971328477  8.4973928903600182
 10.0066281697406065  7.1534913702112144  9.9034906141509005
  8.5771293466161556  8.5774177164261296 -0.0158265226124616
 10.0006828615561254 10.0006829175249798  1.4175262739521719
  8.5774177429978362  8.5771292744113996  2.8508788828032876
 10.0294961530702196 10.0295691893929853  4.2409098083878991
  8.5958367225948304  8.5956226954609729  5.6778702414081845
 10.0254141388737104 10.0254141047820262  7.0876314281707309
  8.5956226713257244  8.5958367896424921  8.4973930732313754
 10.0295691263121629 10.0294961903011739  9.9343531317671037
  1.4306827482206299  1.4306828886855423  0.7285502326274148
  1.4306828271251129  1.4306827452915334  2.1065019486525154
