Fe
 1.0000000000000000
    11.3676936167842477    0.0000000000000000    0.0000000000000000
     0.0000000000000000   11.3676936182436155    0.0000000000000000
     0.0000000000000000    0.0000000000000000   11.3676936211615924
 Fe 
 126
Cartesian
  0.0106106449692671  0.0396422557527440  0.0396922154655172
  0.0618634655608234  0.0455183386133185  2.7801088157839424
  1.4204422708051050  1.4215330367183467  4.3034852994399868
  0.0043819652952938 -0.0034210845522400  5.6847789880926678
  1.4186666818954377  1.4232115933211937  7.1048278225385975
  0.0064484052438782 -0.0007077266103238  8.5313518025783015
  1.4606538659499140  1.3813194386440351  9.9573426593854055
  0.0618146246873981  2.7800599643481969  0.0455184374788507
  1.4203903470096584  4.3034852674248798  1.4214811039536810
  0.0565152396132128  2.7854082993507454  2.7854081960225034
  1.4261930158800542  4.2477750424263307  4.2477361971011041
  0.0009144451913406  2.8410875733821603  5.6830163838516086
  1.4213250683679277  4.2568494488041733  7.1057834549689591
  0.0112636411060017  2.8307489965391941  8.5390872867665699
  1.4201557034308174  4.2573912209189375  9.9530883414058540
  0.0043987241091458  5.6849049512630465 -0.0033897959261259
  1.4187116081368394  7.1048277389043992  1.4232568715136764
  0.0008358322108293  5.6830164493491484  2.8410090019845624
  1.4212757620037779  7.1058907450556070  4.2568435624138985
  0.0032439708856976  5.6835382197458255  5.6834527333280400
  1.4204013117414638  7.1036154647598533  7.1036046719424402
  0.0028680293648326  5.6825771776613285  8.5270863915035306
  1.4175719437319487  7.1037504235683295  9.9511307513324709
  0.0063564694532447  8.5312640781283413 -0.0008058900760846
  1.4606037782514940  9.9573427707861644  1.3812696967069567
  0.0111745017328812  8.5390871918953710  2.8306596345320765
  1.4202540265559376  9.9531803470400728  4.2573035651264126
  0.0028818838197866  8.5271942506815179  5.6825824080530820
  1.4175407361500003  9.9511138380155764  7.1038761010576650
  0.0149268163407783  8.5416755372535178  8.5417528960184637
  1.4664799998682805 10.0085953903729639 10.0085465460289331
  4.2522745482800444  1.3812695784893192  1.3813191813194636
  2.8022809583339341  0.0396920980606065  2.8313127810295851
  4.2565285760877920  1.4217677299009868  4.2573914139711535
  2.8441734065482205 -0.0022951443216751  5.6838276108236219
  4.2584862623646735  1.4243515630703016  7.1037503021432986
  2.8424947786166834 -0.0005194407330232  8.4851700049995031
  4.2010705771351056  1.3754434374593076 10.0085955538283198
  2.8022313405716113  2.8313128435893478  0.0396423776792280
  4.2564366663225943  4.2573035707561377  1.4216693154016766
  2.7964049641638300  2.7801088184746696  2.7800597876277022
  4.2479582311688047  4.2469024990421129  4.2469797940161627
  2.8453132921829205  2.8375246257699405  5.6849051034392346
  4.2600169492628179  4.2615689072112835  7.1060779531020648
  2.8427293493225654  2.8355669145091733  8.5312639965132728
  4.2516214627177584  4.2495680269856289  9.9579065046229118
  2.8442186582708806  5.6838275594166419 -0.0022500025561403
  4.2585032415786150  7.1038760770524734  1.4243826339481616
  2.8453444016275151  5.6847793273677949  2.8375415349645894
  4.2600033214793243  7.1060728364025465  4.2614608350356491
  2.8424839788711678  5.6850506012630477  5.6850398972533611
  4.2596411027373087  7.1052024416776467  7.1051171955982069
  2.8415600767025344  5.6828718884007152  8.5318058194113995
  4.2619707826901019  7.1056388206777905  9.9475679794273173
  2.8424427997358390  8.4851699473129489 -0.0005713911338188
  4.2010216909845175 10.0085466586272780  1.3754433434691091
  2.8426310900193950  8.5313516381118433  2.8354750194460743
  4.2517106410602841  9.9579955696421667  4.2495681354953332
  2.8416091862688648  8.5318118312867828  5.6827646704131753
  4.2620491720481741  9.9476464624748857  7.1056388493167866
  2.8366919512885236  8.5409192566894596  8.5408803829345068
  4.2063698289645508 10.0032471421422517 10.0032471014783173
  5.7244469799558262 -0.0005711878915312 -0.0005193001067919
  7.1047892430300639  1.4232567779880569  1.4232116582986147
  5.6783530307341712 -0.0008061074058025  2.8355669408239668
  7.1038335601444338  1.4205982980903560  4.2568493298833623
  5.6778110743202523  0.0003632948883776  5.6828719013658260
  7.1060123588422197  1.4215220769833659  7.1036153930253025
  5.6687367316035573  0.0052311359407106  8.5409190504175747
  7.1057410495196534  1.4243826918313836  9.9511140379817604
  5.6782651979140075  2.8354749094334202 -0.0007075615704489
  7.1037263266738311  4.2568434936775263  1.4206476702479574
  5.6705296839649755  2.8306598112260160  2.8307487883943723
  7.0972287245908641  4.2541758708432633  4.2542038138717562
  5.6825306459337330  2.8390553252738306  5.6825772219510844
  7.0995928572137093  4.2551419451215491  7.1100473642538438
  5.6678641874602933  2.8269965571494033  8.5416755123430423
  7.1035440119594222  4.2614610029091864  9.9496137062082770
  5.6778052351794175  5.6827647110231378  0.0003140348002181
  7.1060014572311241  7.1036046830380615  1.4215221336276629
  5.6824226642690077  5.6825825015112983  2.8390416257229041
  7.0995696690678889  7.1100242549675281  4.2551419151489434
  5.6761036001652387  5.6786310330773180  5.6786078837072962
  7.0995756481041505  7.1100413981159374  7.1100414210216272
  5.6751375840249123  5.6762671340516722  8.5344514852081552
  7.1044143653043186  7.1051172442036039  9.9499760073909975
  5.6686978926069056  8.5408801724678067  0.0052313323330333
  7.1058666007584996  9.9511308191858596  1.4243516381813366
  5.6679415268812470  8.5417528938982876  2.8269965447861907
  7.1035388945796383  9.9495998941553747  4.2615689258669081
  5.6751656417788201  8.5344794019495733  5.6762670517954463
  7.1044998404181108  9.9499759145147362  7.1052026217787443
  5.6636486562819703  8.5459685094430018  8.5459685068944502
  7.1039782191778933  9.9475678299308861  9.9476462069300737
  8.5257894322385734 -0.0022499281902227 -0.0022950717764117
  9.9061316696898807  1.4214810703633554  1.4215330385994531
  8.5247119843496169 -0.0033898171143286  2.8375246484050280
  9.9618807763437172  1.4157302507664236  4.2477751456849671
  8.5245772080771580 -0.0005603491338138  5.6850506600011101
  9.9527733904226192  1.4206476226883358  7.1058906809325748
  8.5268524214112684  0.0003140800634293  8.5318117838073437
  9.9523133132244688  1.4216693978508017  9.9531802489806793
  8.5248377169573217  2.8375413671737735 -0.0034211082909091
  9.9618419701873453  4.2477361492915771  1.4157303707468119
  8.5266005391676636  2.8410089874679940  2.8410873647106887
  9.9669300676251886  4.2426868616107578  4.2426868720356028
  8.5261642783502687  2.8386793606533938  5.6835382346567371
  9.9554411689015563  4.2542038043007162  7.1123883079535783
  8.5270347921175738  2.8390415396439748  8.5271943994319610
  9.9627145877965351  4.2469797808409426  9.9616587721176550
  8.5245663906612190  5.6850397850720862 -0.0005603688462202
  9.9527677460392550  7.1057831927846875  1.4205983920293213
  8.5260789322218020  5.6834528558797279  2.8386792685882383
  9.9554131686918446  7.1123881745324509  4.2541757656498467
  8.5310030979354519  5.6786139175485539  5.6786139232428576
  9.9544750457037292  7.1100473719372745  7.1100242477979263
  8.5309858813099577  5.6786078321114131  8.5335133590246386
  9.9480480193050926  7.1060780336219791  9.9496000457202776
  8.5267450257516337  8.5318059029351652  0.0003632581037574
  9.9522258563437589  9.9530884581345784  1.4217676946379181
  8.5270395695539101  8.5270862682591435  2.8390552765755319
  9.9626372552323712  9.9616587565560604  4.2469024943747238
  8.5310090886675791  8.5335133525382396  5.6786311814118635
  9.9481560302021261  9.9496137695811449  7.1060730562755472
  8.5333499265552692  8.5344515533174103  8.5344795713577781
  9.9600489301001236  9.9579062973376224  9.9579954592625946
