Fe C 
 1.0000000000000000
    11.3664217070345295    0.0000000000000000    0.0000000000000000
     0.0000000000000000   11.3672040276959834    0.0000000000000000
     0.0000000000000000    0.0000000000000000   11.3664217092244897
 Fe  C  
 126   1
Cartesian
  0.0701770658016145  0.1122694949000119  0.0697966303831876
  0.0697966616386692  0.1122694155937408  2.7714282464012157
  1.4207057065097870  1.4437112345208045  4.3304697022784486
  0.0013581132395873 -0.0022235787934179  5.6887684291938019
  1.4208027177072180  1.4411979586423485  7.1040135292667062
  0.0015535097170357 -0.0022183820669554  8.5191161819302614
  1.4208996520278276  1.4437112780048802  9.8775574852538846
  0.0828039045007485  2.8423910708367686  0.0827732775429005
  0.0827732691509592  2.8423910370572747  2.7588015281751037
  1.4206630733974730  4.2501816384355351  4.3122280731947793
 -0.0175228202822980  2.8408783566208289  5.6950041171750048
  1.4208026738669894  4.2549364038051687  7.1040135307352248
 -0.0170615737526188  2.8406875817752697  8.5130053629484266
  1.4209422432857282  4.2501815837090948  9.8957990594902991
  0.0538717379525861  5.5998678750980124  0.0537463653521659
  1.4208026985249316  7.1137547151807414  1.4208026885249034
  0.0537463535037482  5.5998678261176984  2.7877337131922109
  1.4210039528048042  7.0719320087674422  4.2307312186616146
 -0.0042970017193546  5.6828447520737875  5.6908527791047261
  1.4208027411552799  7.0880609458849815  7.1040135802369422
 -0.0043730649680140  5.6827023986125873  8.5172691059534369
  1.4206014570549066  7.0719320458794224  9.9772958994320859
 -0.0137097255253168  8.5103331985544379 -0.0137509518174472
  1.4208027223367519  9.7597785453961148  1.4208027160229577
 -0.0137508463321346  8.5103332094092856  2.8553151086426882
  1.4204328179594166  9.9644502673282478  4.2130887382659292
  0.0043983787249142  8.5249816470346893  5.6755820092812472
  1.4208026856462392  9.9428037500558339  7.1040135908987505
  0.0045166679488363  8.5248659939739220  8.5325738387573722
  1.4211726168097385  9.9644502318370805  9.9949383612078737
  2.7718087913791578  0.1122694241439954  0.0701771430771932
  4.3304696489884797  1.4437112167378447  1.4208997283126197
  2.7714283996208176  0.1122694066515306  2.7718088310694484
  4.2277809471098218  1.4220387483533703  4.2278129001147455
  2.8400519381471279 -0.0022183768324629  5.6889109532279454
  4.2603765867476593  1.4180647196408422  7.1039911413682528
  2.8402472098332163 -0.0022236424704033  8.5192586228650846
  4.2278128918156330  1.4220387668261609  9.9802461261563860
  2.7588321588707112  2.8423909763956385  0.0828039100427698
  4.3122280625629736  4.2501816352098478  1.4209422500297810
  2.7588015549043616  2.8423910540506632  2.7588321832197575
  4.2426731091412018  4.2511252708852085  4.2427659975249270
  2.8586669926402855  2.8406876487207002  5.6950218015212597
  4.2620641264237680  4.2632720904447599  7.1039920505514846
  2.8591281555429897  2.8408782513539275  8.5130230480462448
  4.2427660692092335  4.2511252543040126  9.9653539732950325
  2.7878591461963667  5.5998678846299175  0.0538717060216191
  4.2307312224000659  7.0719320566982882  1.4206014102379687
  2.7877336722500523  5.5998678722145430  2.7878590641539498
  4.2396077413016675  7.0691979089659345  4.2395502720314031
  2.8459784049326431  5.6827023289693752  5.6907579254233980
  4.2595186428282963  7.1050483876604735  7.1039891278136764
  2.8459023942326160  5.6828447043559756  8.5171742830581287
  4.2395502644867866  7.0691978950588181  9.9684194189716635
  2.8553563086011442  8.5103332453938449 -0.0137097364667305
  4.2130887645807373  9.9644502454268160  1.4211726012431933
  2.8553150816260238  8.5103332772399813  2.8553562637588215
  4.2205597905410626  9.9847029936422889  4.2205019154024459
  2.8370887172296455  8.5248659768906130  5.6754532589915136
  4.2568496899721637  9.9414699399120678  7.1040293836037325
  2.8372071199102451  8.5249816807886685  8.5324451380164668
  4.2205018613730418  9.9847029574159105  9.9874674072718310
  5.6889109289782169 -0.0022183688625965  0.0015535863227344
  7.1040135283186814  1.4411979177691014  1.4208027537189500
  5.6887684754010595 -0.0022236153770351  2.8402472944044259
  7.1040360184677862  1.4180646787616551  4.2603765254282644
  5.6737517452638366 -0.0004775652269750  5.6738798278886078
  7.1040135308385812  1.4157161688950626  7.1040136111746586
  5.6738797658006286 -0.0004775468006698  8.5342752928333727
  7.1039911541269856  1.4180646807520285  9.9476506254661246
  5.6950217558850706  2.8406876710107412 -0.0170615716712136
  7.1040135851573396  4.2549363811457512  1.4208027419987719
  5.6950041351411507  2.8408782833216653  2.8591281030351432
  7.1040351444233458  4.2632720877987946  4.2620641163055168
  5.6805110334041080  2.8334728286135054  5.6804321374456821
  7.1040135563038760  4.2525125439833964  7.1040136065193797
  5.6804321080642977  2.8334729477883260  8.5275160643961030
  7.1039920225943813  4.2632721292629476  9.9459629558082341
  5.6907579243228472  5.6827023120974829 -0.0043731062844886
  7.1040135544666958  7.0880609126300946  1.4208027860247370
  5.6908529377094617  5.6828447123503514  2.8459024321889141
  7.1040378466069853  7.1050483626835463  4.2595185625393563
  5.6836332039537600  5.6818607233846627  5.6835723002530836
  7.1040136034372878  7.1272122140156089  7.1040135207379027
  5.6835723349173035  5.6818607285713467  8.5243939398538107
  7.1039891810837155  7.1050483626262615  9.9485085230594468
  5.6754532955252222  8.5248660472844033  0.0045167200564233
  7.1040135475172681  9.9428037887989067  1.4208027125581357
  5.6755820260747036  8.5249816787629573  2.8372070688565825
  7.1039978192772812  9.9414698659432457  4.2568496535294038
  5.6565025305076269  8.5328321925611981  5.6566267671551955
  7.1040135593491396  9.9345051831386968  7.1040135544822274
  5.6566268178824721  8.5328321904620843  8.5515246413605279
  7.1040293662053040  9.9414699749871200  9.9511774297209481
  8.5192586935921994 -0.0022235820423839  0.0013582684487680
  9.8775573867920059  1.4437111735149848  1.4207056838353975
  8.5191161993531939 -0.0022183307952771  2.8400518954543585
  9.9802141874463253  1.4220387887998678  4.2277809840391685
  8.5341472793508650 -0.0004776219277280  5.6737517655367542
  9.9476505428108037  1.4180647070934362  7.1040360115421235
  8.5342753378724812 -0.0004775826350086  8.5341473324012469
  9.9802461089248080  1.4220388360130507  9.9802142188967942
  8.5130229895895813  2.8408783202709595 -0.0175227536605500
  9.8957989757768896  4.2501816191245894  1.4206630865144221
  8.5130053923628903  2.8406875849612168  2.8586669173680614
  9.9652611036972392  4.2511253263928968  4.2426731544499408
  8.5275950450878355  2.8334728690468980  5.6805110210125704
  9.9459630085719333  4.2632721032277336  7.1040350617146624
  8.5275161323159967  2.8334729328615951  8.5275950099491507
  9.9653538781386679  4.2511253268372871  9.9652609872713995
  8.5171742883995254  5.6828446482856476 -0.0042970311928565
  9.9772959190903627  7.0719319905441447  1.4210039651662463
  8.5172691134670497  5.6827023205858529  2.8459784568853421
  9.9684768258101766  7.0691978137284934  4.2396076827132774
  8.5244549231430948  5.6818607257549658  5.6836331821724739
  9.9485085514927079  7.1050483879076722  7.1040379434496241
  8.5243939718092996  5.6818607093178866  8.5244547933649635
  9.9684194218566979  7.0691979069066200  9.9684768501801031
  8.5324451075012355  8.5249816979126809  0.0043983232628476
  9.9949383995900032  9.9644502074649015  1.4204328416426115
  8.5325737579333207  8.5248660198127748  2.8370887070119961
  9.9875252415074307  9.9847030302700475  4.2205597950134059
  8.5514002869521892  8.5328322586920340  5.6565024730079720
  9.9511774261645751  9.9414699457434867  7.1039977460086297
  8.5515246945943755  8.5328322408767487  8.5514003357087898
  9.9874673240220471  9.9847030353765049  9.9875252226792508
  1.4208027459817862  0.2612904199229505  1.4208027134920480
