Fe
 1.0000000000000000
    11.3557867901547951    0.0000000000000000    0.0000000000000000
     0.0000000000000000   11.3488085294867105    0.0000000000000000
     0.0000000000000000    0.0000000000000000   11.3557868057799674
 Fe 
 126
Cartesian
  0.0660999856557480  0.0790078253740352  0.0660749885771974
  0.0660753041623431  0.0790080014116415  2.7728468856736681
  1.4192996497341226  1.4353986567814010  4.3042932949947073
  0.0005951633355439 -0.0011398027937830  5.6773581231709329
  1.4194734687021999  1.4285298867572971  7.0973667386326129
  0.0005905482940630 -0.0012562727350430  8.5173717504937887
  1.4196473599973147  1.4353986693984031  9.8904401192249285
  0.1141682698838088  2.8372020484994698  0.1141680713767223
  0.1141682323596148  2.8372021787480852  2.7247786487885377
  1.4196472246001319  4.2390057757913198  4.3042937297764263
 -0.0112147064516930  2.8372403281644738  5.6883174883911556
  1.4194731623621186  4.2458742623071704  7.0973667745678952
 -0.0112146402231452  2.8371639686690049  8.5064155657470373
  1.4192993133094116  4.2390056537218515  9.8904397119121672
  0.0660750631915782  5.5953961032916020  0.0661001324130947
  1.4194735341827998  7.1356508918606654  1.4194730807579417
  0.0660998363270020  5.5953963935642630  2.7728715159894355
  1.4195217190189289  7.0752475905218910  4.2324850444465891
  0.0005905558230442  5.6756603807482939  5.6773618413745659
  1.4194735365938229  7.0838883941525275  7.0973666250312313
  0.0005952025541939  5.6755442112866161  8.5173753251887785
  1.4194250374321649  7.0752475317417938  9.9622485036245063
 -0.0037592924942793  8.5116064362519008 -0.0037591985667911
  1.4194733160829207  9.8875617387371122  1.4194733253521830
 -0.0037591401057284  8.5116064722117404  2.8427058495193145
  1.4194249131067675  9.9479651541755540  4.2324850690672440
  0.0026734393710485  8.5116624727103574  5.6750174940570872
  1.4194734033289886  9.9393242441929601  7.0973668007533250
  0.0026735342842066  8.5115502998916917  8.5197160944836750
  1.4195216331405207  9.9479651298305303  9.9622483104153812
  2.7728714638327907  0.0790079850074204  0.0660997265367548
  4.3042932764660309  1.4353985638397591  1.4196473197247808
  2.7728470125986897  0.0790077836549705  2.7728716715747721
  4.2255073611528218  1.4368907093434857  4.2254969321497216
  2.8383562065313490 -0.0012559767872335  5.6773618548917586
  4.2475060657600796  1.4202708386780047  7.0973222426240179
  2.8383514454085432 -0.0011397061637443  8.5173754256047545
  4.2254968834399236  1.4368909343257530  9.9692257013196031
  2.7247786516769854  2.8372021397716640  0.1141681569666529
  4.3042933638617074  4.2390055250526251  1.4192996390163706
  2.7247786561593750  2.8372020008768484  2.7247782128160343
  4.2254966318625709  4.2375132964182596  4.2255076499007203
  2.8501615553238349  2.8371643554628201  5.6883175830235126
  4.2475060505320208  4.2541334794087629  7.0974112740003523
  2.8501615316556554  2.8372399964779418  8.5064158094162803
  4.2255074335833802  4.2375133748108986  9.9692365876527944
  2.7728466437896988  5.5953963736944763  0.0660754739109722
  4.2324849363467667  7.0752477424173303  1.4194252866303687
  2.7728714985458645  5.5953961522323885  2.7728468907633359
  4.2272028567016804  7.0662547049380295  4.2271876873011793
  2.8383515498698557  5.6755438660497122  5.6773579132200584
  4.2494587810367381  7.0902020948864095  7.0973599676746426
  2.8383560402877226  5.6756604510808923  8.5173718575404038
  4.2271875254183460  7.0662546737738667  9.9675307757806753
  2.8427057428184122  8.5116063123879222 -0.0037591893873494
  4.2324848196925942  9.9479651811844114  1.4195216359858105
  2.8427060004651521  8.5116065507156655  2.8427058550955877
  4.2271875492062163  9.9569581817828148  4.2272029448962973
  2.8362729957332893  8.5115502299526273  5.6750174361864252
  4.2494586550250784  9.9330105192168947  7.0973740409831292
  2.8362729898055243  8.5116627547911019  8.5197163698986298
  4.2272027353539547  9.9569579509563440  9.9675458019693028
  5.6773618186446955 -0.0012560217068342  0.0005902407261409
  7.0973665469809104  1.4285300747888343  1.4194735425236851
  5.6773580298850987 -0.0011399871897408  2.8383517985364093
  7.0974110309627259  1.4202708446957777  4.2475062357381317
  5.6697086420465688  0.0036589073534678  5.6697703639569950
  7.0973666154663455  1.4191501952551711  7.0973669346300632
  5.6697705912249150  0.0036590964980526  8.5250247916697663
  7.0973221634288315  1.4202708069069787  9.9472276373421717
  5.6883174702678785  2.8371643099697357 -0.0112148070219633
  7.0973667146846537  4.2458742497483133  1.4194731538853054
  5.6883176326700466  2.8372401146645672  2.8501613504233974
  7.0973221602876544  4.2541334273579565  4.2475062339267176
  5.6777326624351323  2.8372022000547856  5.6777330407601072
  7.0973668661937106  4.2552541203394325  7.0973664847112348
  5.6777330726059976  2.8372020973027010  8.5170007093172515
  7.0974112183160427  4.2541334893256790  9.9472274321374634
  5.6773580181596399  5.6755438025959384  0.0005949451962963
  7.0973666507826554  7.0838885404843737  1.4194734257283430
  5.6773617499554572  5.6756604226813572  2.8383562203374382
  7.0973737480338404  7.0902025228368508  4.2494587341476402
  5.6697704956822319  5.6707452410351395  5.6697086582363792
  7.0973666674019125  7.0986082775264370  7.0973664478014982
  5.6697085461400798  5.6707451811888738  8.5249633130333269
  7.0973593204426955  7.0902024957314485  9.9452747703207613
  5.6750173578659142  8.5115502781300041  0.0026733602747969
  7.0973668628794178  9.9393242507102375  1.4194736638982732
  5.6750170102903663  8.5116627640720584  2.8362733131490652
  7.0973599698583349  9.9330103261348910  4.2494587690462282
  5.6555319113688611  8.5116066451261894  5.6555319501565764
  7.0973669298609279  9.9246041535304332  7.0973669443096137
  5.6555317667311202  8.5116064825994489  8.5392011489902853
  7.0973734404519666  9.9330107542305726  9.9452746465372996
  8.5173757241996846 -0.0011398378515861  0.0005949368639277
  9.8904402417494328  1.4353987125315668  1.4192993043772182
  8.5173716122815257 -0.0012560455921086  2.8383565703242617
  9.9692366398717844  1.4368911729139000  4.2255078635883274
  8.5249632434758489  0.0036590676621327  5.6697087785725477
  9.9472273836085439  1.4202706638850244  7.0974112481304665
  8.5250248375216842  0.0036588437303094  8.5249634131893028
  9.9692257506168556  1.4368910928924927  9.9692367192923879
  8.5064156877915291  2.8372402030027795 -0.0112145099199349
  9.8904402004529981  4.2390057867167741  1.4196471710479042
  8.5064157177360258  2.8371640958213740  2.8501616856849092
  9.9692259198788378  4.2375129499913680  4.2254967727014643
  8.5170005463015865  2.8372021753387373  5.6777327524644994
  9.9472273689283632  4.2541333851238807  7.0973224270514201
  8.5170005526090602  2.8372021309243154  8.5170004981259702
  9.9692367809904159  4.2375131838531388  9.9692256923229348
  8.5173713863384179  5.6756603214731820  0.0005904994684875
  9.9622488023860090  7.0752474281344444  1.4195216172905454
  8.5173755119543397  5.6755439979037030  2.8383512852003148
  9.9675457563442489  7.0662546059994522  4.2272028433615905
  8.5250249882673952  5.6707453575218780  5.6697700842113781
  9.9452743960732093  7.0902022473222681  7.0973740453667995
  8.5249633078428459  5.6707453650395321  8.5250249607684516
  9.9675308778362623  7.0662549774330063  9.9675459597665004
  8.5197164111870816  8.5116626868905190  0.0026733764932433
  9.9622484979449073  9.9479651235455577  1.4194249055554344
  8.5197160083562942  8.5115503483848958  2.8362730657331237
  9.9675307026318727  9.9569579147448835  4.2271873510352806
  8.5392015109433999  8.5116064368963613  5.6555319871073637
  9.9452746891574879  9.9330104799185683  7.0973595875559896
  8.5392015558140102  8.5116062084326085  8.5392016319567645
  9.9675456010091814  9.9569581341455944  9.9675305958102687
