Fe C 
 1.0000000000000000
    11.3577180690458821    0.0000000000000000    0.0000000000000000
     0.0000000000000000   11.3577180598406819    0.0000000000000000
     0.0000000000000000    0.0000000000000000   11.4787284574185815
 Fe  C  
 127   2
Cartesian
  0.0600076113435557  0.0599511196007574  0.0370020796565691
  0.0599513506762917  0.0600073786288339  2.8326800970770822
  1.4197146168457071  1.4197146820382720  4.6343654680368553
 -0.0354775744616973 -0.0351541523024556  5.7719577182873820
  1.4197147059040431  1.4197147383206570  7.1742052616572600
 -0.0351542366899221 -0.0354776444664855  8.5764529124338686
  1.4197146978616411  1.4197145982875485  9.7140445726815887
  0.0599511588394925  2.7794222427312953  0.0370020326735205
  1.4197147140660642  4.3084176681586168  1.4348408992450243
  0.0600074464459356  2.7794781314520023  2.8326800546557966
  1.4199387683895695  4.2293619616247984  4.3249156503305084
 -0.0351541316266683  2.8749069385572845  5.7719575964104735
  1.4197147508805343  4.2408643292154853  7.1742052305349810
 -0.0354774277239854  2.8745837857702279  8.5764529551486834
  1.4194906356532131  4.2293618494384830 10.0234951676510615
  0.0006793916003180  5.6779087348915800 -0.0049795512207720
  1.4197147323260582  7.0985738106717315  1.4348409412126717
  0.0009970734514100  5.6776771908272456  2.8747398806531592
  1.4197148946622506  7.0985736868274696  4.3090579172768084
 -0.0071401454709599  5.6926092999474296  5.7421967260237849
  1.4197148197815666  7.0985737862877381  7.1742053619719020
 -0.0069180283200707  5.6925185224780215  8.6061482796805144
  1.4197148355459013  7.0985739223283764 10.0393528325367409
  0.0009969826018311  8.5194703944537711 -0.0050578632212662
  1.4197147091870308  9.8887298880686849  1.4348411503386753
  0.0006792139068167  8.5192389039738909  2.8746614795613050
  1.4194909359870147  9.9677857282122986  4.3249155137907245
 -0.0069179118834309  8.5046289672036881  5.7422625198716526
  1.4197147910831212  9.9562830836533465  7.1742053213654868
 -0.0071401233992622  8.5045385263636017  8.6062137998102557
  1.4199386018391911  9.9677857730869075 10.0234950464493284
  2.7794781728740476  0.0600074642242328  0.0370020576646435
  4.3084177563359871  1.4197146705641686  1.4348409607764661
  2.7794223178928879  0.0599514083211696  2.8326799839247436
  4.2293618888269826  1.4194907598594253  4.3249155977036011
  2.8745837690744969 -0.0354775764342959  5.7719575173936812
  4.2408642693905847  1.4197147947111184  7.1742051898961137
  2.8749069964160530 -0.0351542378311137  8.5764529029232577
  4.2293619139420757  1.4199387330349857 10.0234949696260927
  2.7794222851150785  2.7794786285681194  0.0370020260665016
  4.2151813164796090  4.2151813269474472  1.4348412248085900
  2.7794780718679033  2.7794220137205063  2.8326800248255841
  4.2443993233422548  4.2443238258976894  4.2911949939797935
  2.8749070416101548  2.8745836367733086  5.7719577345366675
  4.2861287089013329  4.2861287058102926  7.1742050949555720
  2.8745838119447265  2.8749070112084203  8.5764528284231325
  4.2443237138118635  4.2443995543936195 10.0572154773478175
  2.8384325767249790  5.6776771732375897 -0.0050577545038082
  4.2513690643755782  7.0985738628328470  1.4348410980997044
  2.8387500687730829  5.6779086161470582  2.8746614600224683
  4.2679757243186378  7.0985911394031520  4.2990362144482432
  2.8463473160059771  5.6925185125260009  5.7422622771486038
  4.2820690540222088  7.0985737030706986  7.1742052551749316
  2.8465693696839205  5.6926090916318630  8.6062137367445999
  4.2679756588506095  7.0985562087224521 10.0493743708283052
  2.8387500651237341  8.5192388434316690 -0.0049794703878340
  4.2151813459475758  9.9819662320699436  1.4348411051210206
  2.8384325434580351  8.5194702767596322  2.8747399124766515
  4.2443237372960647  9.9527482250677526  4.2911949253295258
  2.8465694721282655  8.5045384732837270  5.7421969670908757
  4.2861287623477171  9.9110187597179227  7.1742051306484571
  2.8463475021974780  8.5046289978046783  8.6061482015277129
  4.2443994423577465  9.9528239448195048 10.0572153800211535
  5.6776774458681691  0.0009968870829331 -0.0050578244641536
  7.0985737932653636  1.4197147891487267  1.4348410286274871
  5.6779085893388030  0.0006794707250138  2.8746615009628309
  7.0985738829873615  1.4197147940024628  4.3090578478945725
  5.6925184673570985 -0.0069179550175268  5.7422622235166108
  7.0985738432489960  1.4197148291540067  7.1742051637249773
  5.6926090025301228 -0.0071399362633641  8.6062137416475206
  7.0985738641667417  1.4197147576121880 10.0393526020986084
  5.6779086908365448  2.8387503125953786 -0.0049793259309386
  7.0985738221563697  4.2513688306962463  1.4348411054687635
  5.6776772812554785  2.8384325273976230  2.8747398773580568
  7.0985564455297530  4.2679757898448525  4.2990363461696965
  5.6926091126411356  2.8465693819058391  5.7421967647486865
  7.0985738475712479  4.2820688698914138  7.1742052468425523
  5.6925184993860247  2.8463474573580059  8.6061483775801264
  7.0985911045889374  4.2679758556042140 10.0493743542028184
  5.6692249934870480  5.6690753351520122  0.0194091498419890
  7.0985736284292953  7.0985737889342841  1.4348410925570227
  5.6690751957859007  5.6692250418418002  2.8502730869949127
  7.0985737853046356  7.0985738577291766  4.2738061803909426
  5.6840144453355057  5.6841106755933337  5.7157272415646068
  7.0985736731008622  7.0985737591573201  7.1742049672795822
  5.6841105868217978  5.6840147042878675  8.6326833516003969
  7.0985737243982054  7.0985737073565538 10.0746044203596234
  5.6690751416900573  8.5279224354155510  0.0194090898727988
  7.0985737685144423  9.9457787192716474  1.4348410958795814
  5.6692250680202303  8.5280724455428594  2.8502729213717592
  7.0985912165340679  9.9291719423127009  4.2990362414577348
  5.6841106707937659  8.5131331354543036  5.7157272743616625
  7.0985737173561896  9.9150786092192611  7.1742051889858134
  5.6840145683552903  8.5130371555620812  8.6326832156291538
  7.0985563363589703  9.9291718196249015 10.0493743251131136
  8.5192389404502151  0.0006794124933663 -0.0049794530786613
  9.8887297272161554  1.4197148449419001  1.4348410586237577
  8.5194703962963274  0.0009971396591507  2.8747398500841732
  9.9677857281001128  1.4199388622975846  4.3249154613354008
  8.5045385556202451 -0.0071399485105853  5.7421968572380848
  9.9562832045369678  1.4197148626179994  7.1742051979584174
  8.5046289471726055 -0.0069179230787857  8.6061484147909137
  9.9677856391782367  1.4194907588286578 10.0234949841757821
  8.5194703027424836  2.8384326121755548 -0.0050576643198501
  9.9819661762532164  4.2151813995770624  1.4348412126359873
  8.5192390126424122  2.8387501430696322  2.8746612220471035
  9.9528238661679165  4.2443993230644175  4.2911950674974149
  8.5046291555462208  2.8463474468125627  5.7422622333055591
  9.9110188390518772  4.2861288966049100  7.1742053657943172
  8.5045385849842585  2.8465696217576677  8.6062137731134705
  9.9527480934927386  4.2443237069996416 10.0572153551336942
  8.5280724106776820  5.6692248825815881  0.0194091534075650
  9.9457787356366332  7.0985739926562905  1.4348411528529117
  8.5279226283695433  5.6690751271174227  2.8502726666230394
  9.9291720667932992  7.0985563058782892  4.2990361930987673
  8.5130369197022357  5.6840145299698426  5.7157271534781078
  9.9150785774299610  7.0985738372521237  7.1742051891735565
  8.5131332409831941  5.6841105769260718  8.6326831348591089
  9.9291718374206255  7.0985913367486129 10.0493743109591627
  8.5279225565788970  8.5280724690420975  0.0194090278024742
  9.9819662272485576  9.9819663454081553  1.4348411753837855
  8.5280725891799580  8.5279225794720279  2.8502729180781925
  9.9527482313239641  9.9528239240354122  4.2911950599353128
  8.5131329658491630  8.5130371456239526  5.7157272552649871
  9.9110188873476606  9.9110188764871481  7.1742052744446267
  8.5130370751991045  8.5131331029134110  8.6326833177005184
  9.9528239341264353  9.9527482137359904 10.0572156056399002
  1.4197147874873317  1.4197145249665630  0.0722830987811978
  1.4197147357057791  1.4197150057748265  2.7973991598061896
