Fe C 
 1.0000000000000000
    11.3397965123912421    0.0000000000000000    0.0000000000000000
     0.0000000000000000   11.4588155498744797    0.0000000000000000
     0.0000000000000000    0.0000000000000000   11.4588155494433312
 Fe  C  
 128   2
Cartesian
 -0.0919895951902973 -0.1083266353575344 -0.1086021790435979
  1.4174743584767777  1.1088212577084076  1.1088124839432898
 -0.0239481681244763 -0.0390348531003142  2.9000275198800800
  1.4175994029746859  1.4678306013490188  4.7154734856217049
 -0.0475377205740556 -0.0413671661171016  5.8002417817727947
  1.4175280577246860  1.4204492756455755  7.2222471357619273
 -0.0341184379525632 -0.0318136711153723  8.5907586002085701
  1.4178491547954832  1.3792782669279753  9.9857037112430937
 -0.0241469658388967  2.8999768070092484 -0.0396282365236714
  1.4173495609865516  4.7154872368544876  1.4678322559102848
  0.1684056439112306  2.7457063571952962  2.7460719639773412
  1.4174746292426559  4.2857365693989724  4.2857366193782420
 -0.0220346862817367  2.9219600372818224  5.8080422105955378
  1.4176546274324562  4.3238118030566888  7.1905255241643768
 -0.0081926732167302  2.8924940796022600  8.6127388546480113
  1.4171571068921316  4.3756299230414193 10.0254063079036282
 -0.0476924577350666  5.8001151406602762 -0.0415822907912062
  1.4174209095445447  7.2222467915650244  1.4204493058119969
 -0.0218244024820540  5.8078719388628439  2.9225183023774508
  1.4172944417957654  7.1905256925847523  4.3238115333365785
 -0.0185248966238180  5.7404360019577467  5.7401606281743458
  1.4174746095685233  7.1639409248553072  7.1639407162248165
 -0.0259608661074469  5.7638010333991749  8.5876521923387497
  1.4177289529554129  7.1815444013627614 10.0190038516606119
 -0.0342702126685462  8.5904869263272605 -0.0319087257135135
  1.4170998706627216  9.9857034483837239  1.3792785900516902
 -0.0082648742064773  8.6129462976260935  2.8927825745158136
  1.4177920397763177 10.0254060113689025  4.3756300451868935
 -0.0259603929641696  8.5877809469778352  5.7639042645329583
  1.4172200643306028 10.0190040026512346  7.1815444821140062
 -0.0239415822009751  8.5742171787570598  8.5742130881683014
  1.4174746431511323 10.0008001060861478 10.0007999625164761
  2.9269387732568504 -0.1086019202229043 -0.1083268574963667
  4.2303354554999197  1.3755351789691899  1.3761110715236302
  2.8590972554705756 -0.0396291772248193  2.8999781643796836
  4.2098636545027768  1.4597107119407866  4.3417573404172183
  2.8826417565826619 -0.0415825474397654  5.8001152052781135
  4.2524368568248727  1.4453705965213410  7.1793350283986710
  2.8692192894016562 -0.0319090455372685  8.5904866715707993
  4.2530514186946888  1.4389980587756961 10.0167571053906528
  2.8588961243758670  2.9000260329859358 -0.0390337971368175
  4.2102259080724629  4.3417741504851488  1.4594025993768123
  2.6665435107764535  2.7460703038478629  2.7457077838076471
  4.2100402002783488  4.2612313399091777  4.2610876560436521
  2.8567739174307869  2.9225184848430121  5.8078721506025257
  4.2792680428565788  4.3242092183189227  7.1867271673964952
  2.8432140543684206  2.8927826451266205  8.6129459355965405
  4.2585531119684266  4.3243796861285606 10.0264813113677018
  2.8824862268591676  5.8002418657990829 -0.0413670270244843
  4.2527302512900027  7.1795652646412584  1.4456677249602858
  2.8569836989050632  5.8080424422088255  2.9219597089591693
  4.2790768000138009  7.1867784550910176  4.3241272762074932
  2.8534742686288315  5.7401607202361147  5.7404358529328610
  4.2977437860709991  7.1508759861813491  7.1509538754224238
  2.8609096779307883  5.7639042868355119  8.5877808848036157
  4.3024159665384589  7.1824675770985369 10.0044466972740587
  2.8690672850623251  8.5907587833113972 -0.0318136350332887
  4.2539268463896560 10.0167018876783729  1.4383265751575220
  2.8431418559875237  8.6127391044119275  2.8924941586719179
  4.2585370522795021 10.0263564714114164  4.3239430165794639
  2.8609098794922891  8.5876521918594175  5.7638009241736556
  4.3023767509389366 10.0041514626198822  7.1822837831115720
  2.8588907792538611  8.5742133199407728  8.5742173707201736
  4.3109645198416437  9.9684593512529958  9.9685981189545299
  5.6915188126058691 -0.0331590047255125 -0.0331325386443007
  7.0873726691447549  1.4139116204933133  1.4139114494766476
  5.6574049793789367  0.0070959953549306  2.8826334657325936
  7.0873469289408222  1.4489036174976777  4.3078128226360564
  5.6771436435408393  0.0123510497424736  5.7415172733212714
  7.0872453146315753  1.4492347711396971  7.1689397938828447
  5.6901329118424906  0.0116403917719660  8.5949547446197823
  7.0872809469738201  1.4478192655428945 10.0276645701657330
  5.6570617838885795  2.8828217478873048  0.0071594795066312
  7.0873986872906594  4.3078129836816101  1.4489035489767959
  5.6445074642000321  2.8404833194177934  2.8405813571291678
  7.0873727759158678  4.2733486304241843  4.2733486122807856
  5.6699668570104960  2.8808374895722721  5.7397706753154321
  7.0872625580482316  4.3128104608369542  7.1601865440410419
  5.6825998477975999  2.8813488427004215  8.6020817691299971
  7.0873573575999895  4.3104600954322994 10.0384454727603938
  5.6772161885735546  5.7415374348001551  0.0123431373737838
  7.0875004388268783  7.1689398754472062  1.4492347603861921
  5.6698445268803095  5.7400181985755019  2.8810369740961521
  7.0874832142550348  7.1601865162686824  4.3128105723979102
  5.6647639262428848  5.6991208685916046  5.6990405956196897
  7.0873727984465429  7.1182598485501236  7.1182600597623855
  5.6986031315141688  5.7349715578940126  8.6000959013505032
  7.0875253213057992  7.1583323528828986 10.0400191812238546
  5.6903729670657164  8.5947793058235913  0.0115533085854834
  7.0874645436586237 10.0276645189748663  1.4478191991048612
  5.6826582435060784  8.6018529033952902  2.8814825487808022
  7.0873882286173604 10.0384456238537147  4.3104600402626820
  5.6985605443415661  8.6000600553106992  5.7348716694670827
  7.0872204237291179 10.0400190828092324  7.1583323558467251
  5.7240312068401229  8.5578136699074303  8.5578719898114706
  7.0873729013438895  9.9987988340552256  9.9987987099500284
  8.4832268664055057 -0.0331325333074177 -0.0331590467046773
  9.9444103559737389  1.3761109059820245  1.3755354613777446
  8.5176839709938612  0.0071596602055167  2.8828215364930485
  9.9645195283856172  1.4594026589193054  4.3417738824052199
  8.4975294678360225  0.0123429479629297  5.7415375837394791
  9.9220156686918521  1.4456677714692214  7.1795653075421688
  8.4843728132337191  0.0115532490520538  8.5947794933483852
  9.9208188154718204  1.4383267224161100 10.0167016383250527
  8.5173403610661946  2.8826335903913889  0.0070958120799904
  9.9648820133128275  4.3417570764483155  1.4597106912584183
  8.5302381195788826  2.8405813499817243  2.8404832695956777
  9.9647055503134911  4.2610875030660420  4.2612314759670182
  8.5049011392932368  2.8810368471418317  5.7400182031984972
  9.8956688415635998  4.3241273083509970  7.1867784490694788
  8.4920872895370714  2.8814825226747054  8.6018527868901362
  9.9162084741767185  4.3239429897391632 10.0263562991852115
  8.4976019871438755  5.7415173027093500  0.0123512197446836
  9.9223085935811852  7.1793352123445855  1.4453704631930318
  8.5047788219838267  5.7397709039506104  2.8808373624370809
  9.8954778755638504  7.1867271820631791  4.3242090015990522
  8.5099817213542526  5.6990402358375567  5.6991209690472333
  9.8770018585349426  7.1509539105519879  7.1508758921371074
  8.4761852375983526  5.7348715724761012  8.6000599500158454
  9.8723687191488043  7.1822836836313249 10.0041515222097050
  8.4846128665856480  8.5949548240513725  0.0116404885938591
  9.9216943224997785 10.0167574589235109  1.4389983297902573
  8.4921458509489796  8.6020819793572798  2.8813488249277226
  9.9161928486749424 10.0264815411918100  4.3243796545908575
  8.4761424753973849  8.6000959518223166  5.7349715993091195
  9.8723293597897293 10.0044467372971013  7.1824677535602977
  8.4507146684344399  8.5578720086820947  8.5578137351114485
  9.8637813804060048  9.9685983055672089  9.9684593876773029
  1.4181715877332610  1.1929476046335246  2.9419859419055405
  1.4167775507317635  2.9419687685082172  1.1929436284427659
