Fe
 1.0000000000000000
    11.3709228481162867    0.0000000000000000    0.0000000000000000
     0.0000000000000000   11.3709228496287604    0.0000000000000000
     0.0000000000000000    0.0000000000000000   11.3709228463663141
 Fe 
 127
Cartesian
  0.0531201475873190  0.0531199405892896  0.0531199698999784
  0.0531200045930497  0.0531199243811545  2.7896106243783527
  1.4213652884431087  1.4213653779349618  4.3045978881588063
 -0.0019947016251302 -0.0019103032976741  5.6870202229134552
  1.4213652529211536  1.4213653718334225  7.1068269580478942
 -0.0019100340604840 -0.0019948036241150  8.5266334548671185
  1.4213653373249571  1.4213653641432105  9.9090554398493431
  0.0531200086473103  2.7896105703830143  0.0531198577913000
  1.4213655122011808  4.3045980312466794  1.4213654840130752
  0.0531201026126107  2.7896107156221355  2.7896108890643494
  1.4213653290931965  4.2524515040293993  4.2524513980620267
 -0.0019101301684929  2.8447255128128250  5.6870202072361309
  1.4213653613866737  4.2553418623307824  7.1068266345019477
 -0.0019945104181170  2.8446408735737232  8.5266333797010461
  1.4213652808470207  4.2524515555579843  9.9612018853863322
 -0.0019101669972667  5.6870204895678640 -0.0019949019355202
  1.4213653764644250  7.1068267860379661  1.4213652830928065
 -0.0019946855588530  5.6870202214195826  2.8446408605869915
  1.4213653612775630  7.1068267956629061  4.2553419075515357
  0.0007991156617324  5.6852027231118205  5.6851604832009190
  1.4213653410134042  7.1068269088520486  7.1068266671619993
  0.0007989333190265  5.6851604152874655  8.5284509958708057
  1.4213652931328500  7.1068268966922581  9.9583116966272307
 -0.0019945688106441  8.5266331966057560 -0.0019101473480620
  1.4213655123084321  9.9090558569378029  1.4213652315319174
 -0.0019102725338044  8.5266332937667695  2.8447253979551430
  1.4213656056812720  9.9612020481048305  4.2524515563239875
  0.0007991536921696  8.5284931842162397  5.6852027173831852
  1.4213653395679913  9.9583116119196902  7.1068267586456733
  0.0007990990487193  8.5284508907669334  8.5284930904942744
  1.4213653283591909  9.9612020974696662  9.9612020871901681
  2.7896107049731840  0.0531200263172430  0.0531200448737262
  4.3045980321179433  1.4213654622099179  1.4213651577465680
  2.7896106011224986  0.0531197955644480  2.7896106828049301
  4.2524516501156429  1.4213653368686909  4.2524515805177590
  2.8446409064766507 -0.0019948455226416  5.6870201639553351
  4.2553419346965411  1.4213654365836048  7.1068266605150709
  2.8447253931741869 -0.0019101220662061  8.5266332982880755
  4.2524514944826866  1.4213653897687089  9.9612021526525503
  2.7896108217003821  2.7896105945971548  0.0531200278334405
  4.2524514949050882  4.2524515315392017  1.4213654768006421
  2.7896105408012435  2.7896108780421396  2.7896106162972947
  4.2462335679513545  4.2462337174278995  4.2462336379724466
  2.8447253188154313  2.8446409094929934  5.6870203563373432
  4.2593578075749416  4.2593578084307300  7.1068266909296964
  2.8446406837695641  2.8447254208744717  8.5266331288867683
  4.2462337303159003  4.2462337782544468  9.9674197949680909
  2.8447256016197913  5.6870203835663249 -0.0019100216513902
  4.2553419871712768  7.1068267437491563  1.4213653241737900
  2.8446409209722372  5.6870201404355045  2.8447253277876912
  4.2593575564274939  7.1068268214412793  4.2593577420723410
  2.8419316352822714  5.6851605118037858  5.6852026907608639
  4.2621380795757569  7.1068267228574955  7.1068268280623093
  2.8419317507904704  5.6852026802574196  8.5284931184815189
  4.2593577576621415  7.1068267614812175  9.9542958441845606
  2.8446407759106993  8.5266333041633082 -0.0019946871431728
  4.2524515373092813  9.9612021744385153  1.4213653350289537
  2.8447254539284392  8.5266333050760430  2.8446410373146231
  4.2462336962202691  9.9674198733457509  4.2462337486520347
  2.8419316042696185  8.5284509246601736  5.6851603889896616
  4.2593577486043586  9.9542957959084255  7.1068266946611631
  2.8419316623032755  8.5284931944692595  8.5284507776156548
  4.2462337853552272  9.9674198201421298  9.9674199283298464
  5.6870200994494100 -0.0019945919146015 -0.0019100406894979
  7.1068267722897769  1.4213654090252410  1.4213652839539985
  5.6870202305129975 -0.0019102235670246  2.8447253951366385
  7.1068268634382754  1.4213652721493146  4.2553419416544536
  5.6851605609760814  0.0007991401057085  5.6852027145133510
  7.1068268063056044  1.4213652214238890  7.1068268569046467
  5.6852028248502453  0.0007989512799051  8.5284931193250131
  7.1068268409416770  1.4213653838080589  9.9583115931771164
  5.6870201579959181  2.8446408982865901 -0.0019945782244935
  7.1068267292390095  4.2553418301125179  1.4213653638032424
  5.6870201937975153  2.8447254967645712  2.8446408476744138
  7.1068268813846869  4.2593576868199410  4.2593578577813798
  5.6852026635691919  2.8419317150998054  5.6851604938429654
  7.1068266401058757  4.2621379794929544  7.1068267827802352
  5.6851605382250261  2.8419316724563535  8.5284507307928301
  7.1068268404157022  4.2593576416579362  9.9542958190157176
  5.6852025785946010  5.6851604250672940  0.0007990723275865
  7.1068267008795605  7.1068267642044534  1.4213653399066477
  5.6851602594634638  5.6852026021831534  2.8419316065450890
  7.1068270438628076  7.1068269150488295  4.2621381805922516
  5.6775693063800352  5.6775691121001843  5.6775693427706706
  7.1068268077487806  7.1068268449790279  7.1068267774040601
  5.6775692320618552  5.6775692665857846  8.5360843130901767
  7.1068268036786026  7.1068267920502821  9.9515154934907954
  5.6851604546570380  8.5284508827299295  0.0007990085547231
  7.1068266241345084  9.9583115535824867  1.4213653534511090
  5.6852027927230999  8.5284931942455344  2.8419317151626164
  7.1068266952360197  9.9542957995355721  4.2593577576637438
  5.6775693789762407  8.5360843050095720  5.6775693548725652
  7.1068267970496768  9.9515155634434045  7.1068267475047477
  5.6775693312680788  8.5360842906348502  8.5360842373677404
  7.1068267327159163  9.9542957930574616  9.9542957972907935
  8.5266333261883940 -0.0019099760152098 -0.0019946977686086
  9.9090555071834103  1.4213652817490214  1.4213653531615760
  8.5266333467927460 -0.0019946870750322  2.8446408039624962
  9.9612021190830262  1.4213653800245778  4.2524514997893581
  8.5284508251782132  0.0007991628350511  5.6851605143576709
  9.9583116356392782  1.4213652372283583  7.1068267840406136
  8.5284931197889815  0.0007990403658602  8.5284508489009028
  9.9612020740222533  1.4213654127836413  9.9612021489037748
  8.5266332551799238  2.8447254145635990 -0.0019100408857745
  9.9612019130566445  4.2524514960794599  1.4213654548556538
  8.5266334645317343  2.8446409158078172  2.8447254609751629
  9.9674198956655520  4.2462335697215510  4.2462337565672730
  8.5284932755025178  2.8419316975771172  5.6852026386429060
  9.9542957596555350  4.2593577192976939  7.1068266818892809
  8.5284507485335155  2.8419316996224242  8.5284931165361293
  9.9674198283634201  4.2462338774600861  9.9674199537640717
  8.5284931350875208  5.6852026465988539  0.0007989417745289
  9.9583115710330414  7.1068267860561436  1.4213654440830394
  8.5284509372409385  5.6851604175191293  2.8419317162761799
  9.9542957491041886  7.1068268115152646  4.2593575237416292
  8.5360842412871829  5.6775693710403221  5.6775692160152200
  9.9515155186631432  7.1068267845944604  7.1068267759943788
  8.5360843388081378  5.6775693700686372  8.5360844461297205
  9.9542958431114279  7.1068267143697925  9.9542958728000777
  8.5284508801189034  8.5284931085717535  0.0007990635976245
  9.9612020688271716  9.9612020563020423  1.4213654926987864
  8.5284932096075803  8.5284507296618646  2.8419317555775661
  9.9674198343178126  9.9674197856119804  4.2462335681872352
  8.5360841800873999  8.5360840640015674  5.6775692022979563
  9.9542959906773660  9.9542958427828765  7.1068267005826860
  8.5360841726809955  8.5360841877789611  8.5360842693394439
  9.9674199097369094  9.9674198097138316  9.9674198296539895
