Fe
 1.0000000000000000
    11.3557868567757296    0.0000000000000000    0.0000000000000000
     0.0000000000000000   11.3488082937339776    0.0000000000000000
     0.0000000000000000    0.0000000000000000   11.3557868708048932
 Fe 
 126
Cartesian
  0.0660998659391233  0.0790076646747178  0.0660754324396328
  0.0660750516639653  0.0790080331232136  2.7728468688605412
  1.4192995317357942  1.4353987043698699  4.3042935070893771
  0.0005949729703976 -0.0011398709361397  5.6773579743985039
  1.4194734154362638  1.4285300227622635  7.0973669238806023
  0.0005903117182150 -0.0012562603258407  8.5173717629350687
  1.4196472099846009  1.4353984574465801  9.8904402949049821
  0.1141682999913454  2.8372021155176328  0.1141679422537985
  0.1141681050674950  2.8372020661643078  2.7247785963406308
  1.4196472408695353  4.2390054442523910  4.3042935571072647
 -0.0112146189376855  2.8372401775906031  5.6883177603728932
  1.4194733527052001  4.2458743577545199  7.0973668514936721
 -0.0112146659405496  2.8371639008885174  8.5064160016347721
  1.4192998486725126  4.2390059040668211  9.8904401940198774
  0.0660751468818147  5.5953961763943418  0.0660998518145019
  1.4194735488637795  7.1356505786400071  1.4194734174559809
  0.0660996904519866  5.5953962722176103  2.7728714649786292
  1.4195217747591142  7.0752474961172931  4.2324851591352246
  0.0005903275626540  5.6756603632171903  5.6773617302270427
  1.4194732978108526  7.0838883563511184  7.0973670586761868
  0.0005951069401268  5.6755438606163695  8.5173757381795188
  1.4194249882402610  7.0752475578576783  9.9622484949147339
 -0.0037592504980295  8.5116061342798375 -0.0037591756180481
  1.4194733154656005  9.8875618818618705  1.4194734922827517
 -0.0037590802020052  8.5116062942359552  2.8427060003517419
  1.4194248972426218  9.9479650181280945  4.2324850095709206
  0.0026735445310282  8.5116620905242133  5.6750172977944215
  1.4194732509824268  9.9393240115896049  7.0973668964158403
  0.0026734312430699  8.5115502388744808  8.5197163545769570
  1.4195218013443873  9.9479651095052137  9.9622484551969066
  2.7728716964664883  0.0790081657840822  0.0660998880911186
  4.3042934434880094  1.4353985299542029  1.4196471482090958
  2.7728468538758055  0.0790080983589675  2.7728715040374432
  4.2255075748836637  1.4368910719438892  4.2254965178186712
  2.8383565596593416 -0.0012559905472092  5.6773618049221728
  4.2475062005114221  1.4202706783028485  7.0973226171010646
  2.8383515777482606 -0.0011398480269959  8.5173757057789388
  4.2254965960651614  1.4368909414573945  9.9692257665208839
  2.7247788633287109  2.8372020622543257  0.1141680687706363
  4.3042935894876422  4.2390057445434790  1.4192994075065666
  2.7247785412716206  2.8372019715718104  2.7247783197514441
  4.2254964735281231  4.2375130494064601  4.2255076645637999
  2.8501614317171948  2.8371641925941331  5.6883176632429269
  4.2475059489667082  4.2541334956724910  7.0974112607067301
  2.8501615128655162  2.8372400997910838  8.5064160054028850
  4.2255075416314494  4.2375130945887802  9.9692367444923633
  2.7728471096272727  5.5953962226232772  0.0660752619551659
  4.2324849719097690  7.0752474136377073  1.4194249746973397
  2.7728714022857881  5.5953961399963186  2.7728466585198457
  4.2272028798498660  7.0662547104414619  4.2271876090136127
  2.8383516778214055  5.6755440654172533  5.6773579911068675
  4.2494588347615929  7.0902022421149224  7.0973598348006179
  2.8383563919056609  5.6756602035229218  8.5173718581419955
  4.2271875925126370  7.0662546430133872  9.9675305792907611
  2.8427058149003503  8.5116061789207613 -0.0037592941423852
  4.2324849839764731  9.9479649603089246  1.4195215527476284
  2.8427059132121402  8.5116059821011980  2.8427059949195073
  4.2271875289379937  9.9569576605395973  4.2272027501697407
  2.8362730670879865  8.5115500846147629  5.6750174034112932
  4.2494587513230178  9.9330102591494747  7.0973739745770112
  2.8362730511279954  8.5116622658428280  8.5197162202712295
  4.2272027261292742  9.9569578661606357  9.9675461042672602
  5.6773618410335285 -0.0012561998620910  0.0005904552688187
  7.0973668038407070  1.4285298263742099  1.4194733748871209
  5.6773579601757644 -0.0011398608047037  2.8383514029793568
  7.0974111334538517  1.4202706725532019  4.2475060504508537
  5.6697082688774598  0.0036588703165545  5.6697703004300113
  7.0973665770488266  1.4191499815865900  7.0973669354564102
  5.6697702711346691  0.0036588518627129  8.5250249175553101
  7.0973224999665003  1.4202709092508099  9.9472273716063064
  5.6883176400538256  2.8371643500906356 -0.0112147876309077
  7.0973667989541172  4.2458742773968892  1.4194734491582865
  5.6883174682287478  2.8372402653035986  2.8501616472361637
  7.0973221950345620  4.2541334510858206  4.2475060119590484
  5.6777326715864493  2.8372019422422929  5.6777329740215920
  7.0973665546255829  4.2552539661257871  7.0973666260248311
  5.6777329018647960  2.8372019844654388  8.5170005997904319
  7.0974110746012347  4.2541332166200432  9.9472276292338169
  5.6773579752509225  5.6755438824757718  0.0005952347736719
  7.0973666458104434  7.0838883159629464  1.4194733059471076
  5.6773619285144044  5.6756603003379675  2.8383563301348267
  7.0973739103341842  7.0902021872073266  4.2494590971421271
  5.6697701541885692  5.6707452284916711  5.6697085067728441
  7.0973668480945795  7.0986082776593875  7.0973668742214633
  5.6697088672861895  5.6707450877208307  8.5249630593692931
  7.0973597363815326  7.0902024044718868  9.9452746264797938
  5.6750172916340818  8.5115498881772798  0.0026734934807993
  7.0973668327456849  9.9393239055838460  1.4194731444541593
  5.6750173454631438  8.5116624122836857  2.8362731575745119
  7.0973597782864122  9.9330101896302754  4.2494587759969615
  5.6555321059839914  8.5116062712308391  5.6555319044895560
  7.0973669645662900  9.9246039429765442  7.0973667500972475
  5.6555320619301819  8.5116060982818045  8.5392017551044734
  7.0973739174196302  9.9330103113631569  9.9452748663533690
  8.5173757280344411 -0.0011396694502321  0.0005949200280754
  9.8904398152363555  1.4353985139508387  1.4192997995366106
  8.5173716940403317 -0.0012561689276997  2.8383563050717990
  9.9692369318891991  1.4368909386579736  4.2255075963387627
  8.5249631449442909  0.0036589938993923  5.6697085465215658
  9.9472274713457161  1.4202708170770066  7.0974115868161567
  8.5250249334427561  0.0036592408444254  8.5249633406944181
  9.9692258934233351  1.4368909256582962  9.9692368539102088
  8.5064159657602740  2.8372401428931249 -0.0112146846055163
  9.8904400495742060  4.2390054186790538  1.4196474392295291
  8.5064159358275457  2.8371640029813676  2.8501613585519729
  9.9692263066978537  4.2375131834094653  4.2254967346548833
  8.5170006023337592  2.8372021450620495  5.6777327089378762
  9.9472273755042018  4.2541335565180702  7.0973222575895809
  8.5170007634081930  2.8372019673351638  8.5170006350183254
  9.9692368795857895  4.2375131061856610  9.9692258362975927
  8.5173716586077610  5.6756603029388542  0.0005904091280365
  9.9622484092865946  7.0752474740169014  1.4195215781533099
  8.5173757731974611  5.6755440169041478  2.8383513300175141
  9.9675459352443170  7.0662550551097851  4.2272029533146567
  8.5250248840484719  5.6707452474246764  5.6697705117715218
  9.9452750232360536  7.0902021716054717  7.0973737904294261
  8.5249633280522321  5.6707451551836643  8.5250251190753001
  9.9675307705746299  7.0662548229098157  9.9675457559016962
  8.5197161433219701  8.5116621637002652  0.0026733731202589
  9.9622485192027437  9.9479651514614371  1.4194251932916726
  8.5197159875587491  8.5115500702893900  2.8362730379858156
  9.9675307534368720  9.9569580041052035  4.2271876247733990
  8.5392015511034280  8.5116061390537574  5.6555320087014556
  9.9452748596046270  9.9330102068270811  7.0973597089074971
  8.5392015596029260  8.5116064584494460  8.5392015807924100
  9.9675457567008490  9.9569577469167498  9.9675310532321220
