Fe C 
 1.0000000000000000
    11.3917996911898101    0.0000000000000000    0.0000000000000000
     0.0000000000000000   11.3011036034806498    0.0000000000000000
     0.0000000000000000    0.0000000000000000   11.3917997017519994
 Fe  C  
 126   1
Cartesian
  0.0561009774596432  0.0896721448110272  0.0565667125657865
  0.0565668561597211  0.0896718125821714  2.7918489956997719
  1.4237550238744849  1.4617816539819222  4.3233455071417701
  0.0053837756037817  0.0048364470594837  5.6897756868623599
  1.4239748862717216  1.4083064807253187  7.1198747422129571
  0.0050942439258686  0.0046070914363386  8.5501619167770269
  1.4241948694739750  1.4617819493680964  9.9164040805250657
  0.1152065189431973  2.8252757081540865  0.1152064494804482
  0.1152083731058015  2.8252760583327685  2.7327414996650110
  1.4241949226937956  4.1887703257840077  4.3233457087724565
 -0.0228230541024501  2.8251592476049394  5.7359703904011061
  1.4239750422373108  4.2422451922169158  7.1198749037091762
 -0.0228227923074564  2.8253922976352528  8.5037792277627275
  1.4237550894219806  4.1887702778258626  9.9164040412474979
  0.0565668047093426  5.5608800490178014  0.0561012870292368
  1.4239748899928064  7.1034668689863727  1.4239749212738848
  0.0561012016060253  5.5608801947090942  2.7913831519674104
  1.4237571930909831  7.0530726149151661  4.2445554581355651
  0.0050945186203595  5.6459447511091048  5.6895877680878923
  1.4239749653120681  7.0631248272758187  7.1198748064734279
  0.0053837824183072  5.6457155242177635  8.5499741244869742
  1.4241926815697963  7.0530726402324211  9.9951942529992550
 -0.0047640217406457  8.4758276621089017 -0.0047640341269020
  1.4239749078048889  9.8481883808155786  1.4239750128597626
 -0.0047639542143596  8.4758277439162004  2.8527139925544298
  1.4241925786001361  9.8985827772351875  4.2445552394797188
  0.0035030543061556  8.4759106877791606  5.6921855327433946
  1.4239751502041624  9.8885305345791714  7.1198747447838020
  0.0035029691547037  8.4757447041187692  8.5475642644664536
  1.4237573061209867  9.8985827677541920  9.9951942634056170
  2.7913830178815893  0.0896720014537934  0.0561008615156540
  4.3233453392674805  1.4617818746727558  1.4241950124871907
  2.7918486852576652  0.0896718781366972  2.7913833256638547
  4.2274381699658568  1.4473759885321067  4.2274669024891063
  2.8428555586431896  0.0046070473562326  5.6895879446648303
  4.2795655157669126  1.3951881623502718  7.1198675745444193
  2.8425660035664513  0.0048363142809683  8.5499740712566528
  4.2274667199797493  1.4473761419451237 10.0123115004039835
  2.7327450852358468  2.8252760007391213  0.1152052086950483
  4.3233452720078818  4.1887700277773305  1.4237549570826926
  2.7327430495731511  2.8252760569358211  2.7327425441042617
  4.2274667812840017  4.2031756949932051  4.2274382491588591
  2.8707729327851346  2.8253925136832763  5.7359706640454968
  4.2795656727926126  4.2553635824520910  7.1198821530043315
  2.8707729603278724  2.8251595952659891  8.5037792227946287
  4.2274381280715589  4.2031755288474528 10.0122828750460489
  2.7918489758391578  5.5608798064247154  0.0565668552136820
  4.2445553871901360  7.0530726707429707  1.4241927013251243
  2.7913830629284453  5.5608800351717846  2.7918489309096906
  4.2419804345618122  7.0415537623692144  4.2419901832972871
  2.8425660261982983  5.6457156485697952  5.6897756496090182
  4.2620094160774187  7.0674251236732442  7.1198304897395817
  2.8428554669923032  5.6459449863486340  8.5501616794919162
  4.2419901038080710  7.0415538383314189  9.9977692270102221
  2.8527139375450772  8.4758275597212993 -0.0047642126340278
  4.2445555283157983  9.8985826890624029  1.4237572346923921
  2.8527141820011073  8.4758276486100534  2.8527140321453586
  4.2419903428186885  9.9101014796510949  4.2419805536082631
  2.8444467963296294  8.4757447331384554  5.6921854200761572
  4.2620092880661078  9.8842305139104791  7.1199191361869216
  2.8444467736588086  8.4759105341707457  8.5475640259030854
  4.2419803240738219  9.9101016390399543  9.9977594484895551
  5.6895878924915566  0.0046070320343215  0.0050942115735903
  7.1198749869874396  1.4083064469488311  1.4239751288811322
  5.6897756627913045  0.0048363336939180  2.8425660745977392
  7.1198823067132642  1.3951884490839093  4.2795656295975171
  5.6778961097428668 -0.0016819037871082  5.6780652798880489
  7.1198748074035541  1.3988135766319916  7.1198747931725004
  5.6780652027011653 -0.0016818504858962  8.5618534368664658
  7.1198673325169377  1.3951881722688839  9.9601840830089614
  5.7359702420110912  2.8253923442916902 -0.0228230197437590
  7.1198746598404909  4.2422451426136103  1.4239750360383705
  5.7359704794015451  2.8251595473858875  2.8707728744445227
  7.1198673944447792  4.2553633765138779  4.2795656385951562
  5.6950476240565004  2.8252760030080419  5.6950474520647418
  7.1198748373627421  4.2517381465030306  7.1198745802990695
  5.6950476304029642  2.8252760350761892  8.5447021999247124
  7.1198821981939426  4.2553634642249580  9.9601839938100873
  5.6897756309020275  5.6457154819126201  0.0053839859854124
  7.1198746805155801  7.0631249369378164  1.4239749612955719
  5.6895878193548626  5.6459448493538629  2.8428554506911259
  7.1199192388951156  7.0674249955525879  4.2620093793215306
  5.6780651389771126  5.6522334796171032  5.6778962044834493
  7.1198749622427968  7.0644950424784350  7.1198747729990037
  5.6778962406328173  5.6522335566555117  8.5616844726909438
  7.1198304244151425  7.0674250868137873  9.9777403234910143
  5.6921854547727344  8.4757447821102065  0.0035030923332934
  7.1198747774399633  9.8885306256480430  1.4239750307344943
  5.6921854658248581  8.4759107644789502  2.8444468554642652
  7.1198305399268396  9.8842303923629427  4.2620094787583174
  5.6752357833571390  8.4758277229625332  5.6752359695754455
  7.1198747113772765  9.8871604261011363  7.1198749182086143
  5.6752359332263698  8.4758277355967948  8.5645136354502149
  7.1199192090738546  9.8842302518249063  9.9777401527958247
  8.5499741370732245  0.0048366567765715  0.0053841415888507
  9.9164040866861232  1.4617815047074663  1.4237548143182095
  8.5501618678060645  0.0046069657269019  2.8428554775702355
 10.0122827984580294  1.4473759658487531  4.2274385070241189
  8.5616843322790146 -0.0016818274313562  5.6778962018347379
  9.9601840481545576  1.3951882875537620  7.1198820804233618
  8.5618533539178792 -0.0016819317632753  8.5616845660438994
 10.0123113272432942  1.4473757937906688 10.0122831042045526
  8.5037792432666226  2.8251593583241204 -0.0228230074035619
  9.9164040882131523  4.1887705043550199  1.4241948928836674
  8.5037790881790691  2.8253923875400759  2.8707730138428649
 10.0123111610781486  4.2031758765046723  4.2274670411130399
  8.5447019648076044  2.8252759698417735  5.6950475900626936
  9.9601840065449565  4.2553638478149525  7.1198675752061948
  8.5447018470954834  2.8252757420774075  8.5447019996576685
 10.0122827847214122  4.2031756544892440 10.0123114308940178
  8.5501617347818826  5.6459449051451998  0.0050942943212098
  9.9951941796395154  7.0530727330697118  1.4237572885725489
  8.5499741316805071  5.6457153127578854  2.8425658855941176
  9.9977592909435806  7.0415536695559968  4.2419803862998027
  8.5618534109517164  5.6522336024821769  5.6780652820326383
  9.9777402456531519  7.0674247841191269  7.1199191789028928
  8.5616845018949448  5.6522336612849404  8.5618534792086507
  9.9977690805391521  7.0415537689240413  9.9977595203283833
  8.5475640497653398  8.4759105895905513  0.0035029339586391
  9.9951943729726906  9.8985829641899397  1.4241927501569527
  8.5475639243632777  8.4757446331567614  2.8444469637992391
  9.9977690633234513  9.9101018425135532  4.2419902517441823
  8.5645135874645355  8.4758276547284783  5.6752360751653539
  9.9777402197092275  9.8842305189355901  7.1198304915178632
  8.5645135496964677  8.4758275449595519  8.5645136514020024
  9.9977593257139077  9.9101017594732763  9.9977691818883674
  1.4239725235250509  2.8252758995336174  1.4239784326878568
