Fe
 1.0000000000000000
    11.3709228384596575    0.0000000000000000    0.0000000000000000
     0.0000000000000000   11.3709228367399326    0.0000000000000000
     0.0000000000000000    0.0000000000000000   11.3709228319129689
 Fe 
 127
Cartesian
  0.0531200525124812  0.0531200306926198  0.0531199568904555
  0.0531199950473760  0.0531200824907481  2.7896109552491510
  1.4213651527858895  1.4213654297914013  4.3045977581357633
 -0.0019945969017109 -0.0019102213829925  5.6870200804216280
  1.4213652697854722  1.4213652709741023  7.1068268416872522
 -0.0019101587737041 -0.0019944604690164  8.5266333498056799
  1.4213652041307654  1.4213653746186097  9.9090555129580906
  0.0531201126220854  2.7896106724363254  0.0531198803978854
  1.4213654992509559  4.3045980457964079  1.4213654009113048
  0.0531201286619813  2.7896105615941162  2.7896110222350230
  1.4213652615995915  4.2524512787231270  4.2524514781055354
 -0.0019100930981841  2.8447254172311052  5.6870200845429775
  1.4213654762467149  4.2553417993316982  7.1068266799864173
 -0.0019947286904950  2.8446407384598329  8.5266332375748508
  1.4213654231537625  4.2524514246311060  9.9612020762848239
 -0.0019101551846076  5.6870203500588516 -0.0019946769531256
  1.4213653080305111  7.1068267895739048  1.4213655139158430
 -0.0019947047525724  5.6870203252973583  2.8446408703902049
  1.4213652903020768  7.1068267254456714  4.2553420491682088
  0.0007989516695092  5.6852026742936284  5.6851603363217382
  1.4213654128010933  7.1068268702725632  7.1068266355147314
  0.0007989621892323  5.6851604260701443  8.5284508767735279
  1.4213653505524870  7.1068268663281557  9.9583116204944773
 -0.0019945427102316  8.5266331834854174 -0.0019100842974029
  1.4213653628878851  9.9090554739739645  1.4213653809778535
 -0.0019101663901309  8.5266333383978310  2.8447253885302017
  1.4213652281830251  9.9612020373132140  4.2524515288101865
  0.0007990202440760  8.5284931671821109  5.6852026846229906
  1.4213653730269933  9.9583116013605473  7.1068266490451020
  0.0007988903901876  8.5284506861698119  8.5284930552736320
  1.4213653776678050  9.9612020534764216  9.9612021771448518
  2.7896107101041689  0.0531199536134977  0.0531199600045004
  4.3045978209797244  1.4213655049350540  1.4213653141016915
  2.7896106753115606  0.0531200848522449  2.7896106774878544
  4.2524514493716357  1.4213654064566650  4.2524515275691481
  2.8446406303713916 -0.0019947500006984  5.6870204089117768
  4.2553419609969527  1.4213652606139859  7.1068268178788809
  2.8447254080474051 -0.0019101337918042  8.5266333065723536
  4.2524514506752373  1.4213653782005988  9.9612019498828008
  2.7896106947194332  2.7896108523753496  0.0531200814725242
  4.2524514884538238  4.2524515329177843  1.4213654084083340
  2.7896107179586416  2.7896106992842444  2.7896106856497940
  4.2462338233417789  4.2462336035564405  4.2462337073784218
  2.8447253497628213  2.8446409278437312  5.6870203215020600
  4.2593575720668015  4.2593576635600892  7.1068267003896359
  2.8446407813669130  2.8447253874993716  8.5266332061932868
  4.2462336401695495  4.2462338324583584  9.9674199133022920
  2.8447255045526183  5.6870201015167030 -0.0019101775788396
  4.2553419334950418  7.1068266864505603  1.4213652451132974
  2.8446408933515306  5.6870201322941769  2.8447252846394870
  4.2593577633649939  7.1068267011950992  4.2593577180483724
  2.8419316471932126  5.6851604974029959  5.6852028280409383
  4.2621379932890573  7.1068267566022056  7.1068268771172658
  2.8419317919894116  5.6852026164081764  8.5284931646007163
  4.2593576838158214  7.1068266751360669  9.9542958627214890
  2.8446408612369631  8.5266332587676708 -0.0019948187575539
  4.2524515616840368  9.9612020151155267  1.4213653136890307
  2.8447254801825808  8.5266333403403998  2.8446407875246345
  4.2462338508572701  9.9674197807616078  4.2462336208383578
  2.8419315921089368  8.5284507663208018  5.6851604877524613
  4.2593578510472376  9.9542958414085927  7.1068267915984702
  2.8419318138634972  8.5284930904472898  8.5284508286335239
  4.2462336790532760  9.9674197855044380  9.9674200029251114
  5.6870202499467810 -0.0019947985711246 -0.0019101828511834
  7.1068268111737209  1.4213653290351258  1.4213654319500093
  5.6870203253887102 -0.0019103055178640  2.8447254006066274
  7.1068268218079211  1.4213653981074925  4.2553419724839978
  5.6851604823334805  0.0007989851484043  5.6852027039944302
  7.1068269236303978  1.4213654278123566  7.1068266341555733
  5.6852026665834829  0.0007990075005445  8.5284930990387533
  7.1068268193980595  1.4213653310723928  9.9583115936746616
  5.6870202806428107  2.8446408566328234 -0.0019945509749488
  7.1068267906734217  4.2553418606581950  1.4213654369072055
  5.6870203486054605  2.8447255170383916  2.8446407767827608
  7.1068266074169726  4.2593577247582672  4.2593576677699501
  5.6852026914112637  2.8419317054068558  5.6851604240099247
  7.1068268156545207  4.2621379325009174  7.1068265999778673
  5.6851603334383531  2.8419314898433874  8.5284507545807635
  7.1068268940735866  4.2593576294443087  9.9542959612230941
  5.6852026933456399  5.6851603799384272  0.0007990558082324
  7.1068268990484720  7.1068266564967413  1.4213653612502146
  5.6851604668691680  5.6852025905206274  2.8419317720309141
  7.1068266364314869  7.1068267652384556  4.2621379315755306
  5.6775692650572163  5.6775692629762879  5.6775692038183321
  7.1068266821616639  7.1068267798842051  7.1068268312473899
  5.6775692972670599  5.6775694468652924  8.5360842196179654
  7.1068267929732194  7.1068265950505412  9.9515155346845425
  5.6851602616435928  8.5284509054598665  0.0007991735502801
  7.1068267577507065  9.9583117705650217  1.4213654278659207
  5.6852025148265657  8.5284933596846173  2.8419318779421867
  7.1068266919490606  9.9542959784898990  4.2593575630790896
  5.6775691778295219  8.5360843624454734  5.6775691962697046
  7.1068267018616016  9.9515156496824737  7.1068266678238103
  5.6775692211956077  8.5360842109760746  8.5360841152756635
  7.1068267832326075  9.9542959382279523  9.9542959280690742
  8.5266334456799875 -0.0019102057151828 -0.0019948977373671
  9.9090554971539220  1.4213652527480174  1.4213653404439823
  8.5266332867203456 -0.0019947988665153  2.8446406713166303
  9.9612022241905489  1.4213653390913155  4.2524514096456159
  8.5284506941381899  0.0007989774910506  5.6851603716913406
  9.9583115752245845  1.4213654964172502  7.1068269012691418
  8.5284931235885679  0.0007991741488452  8.5284510162526281
  9.9612020941746291  1.4213653473673864  9.9612019086947949
  8.5266334037307576  2.8447254898903127 -0.0019102956009289
  9.9612019445418394  4.2524516589207373  1.4213653254370084
  8.5266332194086374  2.8446409623795792  2.8447252663572180
  9.9674199766577392  4.2462338612945629  4.2462337194215376
  8.5284929745666247  2.8419316799521868  5.6852027883600238
  9.9542957819622675  4.2593576915173372  7.1068266666731912
  8.5284508779683641  2.8419315306402027  8.5284931453990058
  9.9674198498913178  4.2462336540643806  9.9674199101387249
  8.5284931667360233  5.6852026807953617  0.0007989152656104
  9.9583118090595040  7.1068266080101621  1.4213653352784839
  8.5284509162824342  5.6851604537648788  2.8419316689669585
  9.9542958561681480  7.1068267011556996  4.2593578109508110
  8.5360843292393103  5.6775691416253702  5.6775694413476732
  9.9515154448416414  7.1068268818157412  7.1068268115070747
  8.5360842467889242  5.6775692977012433  8.5360842954193572
  9.9542959197744025  7.1068266643298559  9.9542956976943771
  8.5284509162795779  8.5284932465962182  0.0007989523833990
  9.9612019947613337  9.9612019668625784  1.4213653403474000
  8.5284932180567576  8.5284508952635001  2.8419317192837532
  9.9674198541845982  9.9674197759666630  4.2462335828339501
  8.5360843581035191  8.5360842739421923  5.6775694004432555
  9.9542957254478495  9.9542956905243809  7.1068266862099714
  8.5360844158798006  8.5360841840725517  8.5360841171243838
  9.9674198344132314  9.9674199305428992  9.9674198855130012
