Fe
 1.0000000000000000
    11.3676936195759097    0.0000000000000000    0.0000000000000000
     0.0000000000000000   11.3676936180395405    0.0000000000000000
     0.0000000000000000    0.0000000000000000   11.3676936247365532
 Fe 
 126
Cartesian
  0.0106106063777833  0.0396423159093489  0.0396921416788522
  0.0618634595470805  0.0455183336658635  2.7801087645485709
  1.4204422678842989  1.4215328686738191  4.3034854857195128
  0.0043820033091143 -0.0034210448961777  5.6847791518542561
  1.4186665152068341  1.4232116884940489  7.1048275993214860
  0.0064483639575453 -0.0007076716064786  8.5313517643277716
  1.4606537464541820  1.3813193324623219  9.9573424703682747
  0.0618145364303040  2.7800598675693760  0.0455182893571332
  1.4203905945499631  4.3034853891932290  1.4214811455861704
  0.0565150848948179  2.7854082192113956  2.7854081395816062
  1.4261931008373849  4.2477752372017710  4.2477362175359783
  0.0009144508501404  2.8410873972609560  5.6830166881240904
  1.4213250513957392  4.2568494050650694  7.1057833296467567
  0.0112636530641205  2.8307489938863895  8.5390872737862757
  1.4201558722701417  4.2573913786099764  9.9530884194577354
  0.0043989749953861  5.6849051106903099 -0.0033898307420577
  1.4187116914015900  7.1048276735790301  1.4232567017721942
  0.0008359505959081  5.6830165113946824  2.8410090254055045
  1.4212755476340633  7.1058905814245037  4.2568436149100233
  0.0032440612916859  5.6835381570107835  5.6834526928321525
  1.4204012985079089  7.1036154117770103  7.1036046136932587
  0.0028681402560198  5.6825772270743578  8.5270862682205824
  1.4175719641152991  7.1037503174001646  9.9511309148191369
  0.0063565380495019  8.5312640892085092 -0.0008059840488967
  1.4606040307720267  9.9573427031854447  1.3812695391094045
  0.0111744255273931  8.5390872573350318  2.8306596805235289
  1.4202541618656315  9.9531805009426773  4.2573036176684793
  0.0028818089724835  8.5271943395493537  5.6825824322972576
  1.4175407683521781  9.9511138645113544  7.1038759424518263
  0.0149266533968996  8.5416755243969451  8.5417528392087299
  1.4664801509784160 10.0085953584881615 10.0085466199052160
  4.2522742503072957  1.3812696394543036  1.3813193376989883
  2.8022810055045424  0.0396920546290300  2.8313127600088270
  4.2565286714835748  1.4217676046489494  4.2573913809718764
  2.8441732824189083 -0.0022951950560294  5.6838275355841610
  4.2584861989878071  1.4243515536332181  7.1037503571758425
  2.8424948141970456 -0.0005193866196923  8.4851701002812074
  4.2010705047925772  1.3754431641241756 10.0085954316251797
  2.8022313890697976  2.8313127055489740  0.0396426012888698
  4.2564365329045843  4.2573034544983521  1.4216693001190046
  2.7964051326268886  2.7801088283868118  2.7800597470469177
  4.2479583377709904  4.2469025299330534  4.2469798608058147
  2.8453131935974745  2.8375245773076281  5.6849050694747527
  4.2600170561488619  4.2615688650682273  7.1060780195699760
  2.8427294040995497  2.8355669113786615  8.5312640459613398
  4.2516214498590923  4.2495679523255161  9.9579065106358726
  2.8442185706475684  5.6838276263691272 -0.0022499041452046
  4.2585031678617700  7.1038759743885622  1.4243826878671011
  2.8453443953350193  5.6847792362594101  2.8375414587410481
  4.2600033766356882  7.1060730343086256  4.2614609557546705
  2.8424838008187088  5.6850506076871161  5.6850397594192046
  4.2596410756576342  7.1052027053276161  7.1051171461651528
  2.8415601204539604  5.6828719791455722  8.5318060022274516
  4.2619707748082485  7.1056389256421006  9.9475678364670230
  2.8424427957816998  8.4851701011564842 -0.0005713666466666
  4.2010217059894535 10.0085466538537773  1.3754434736855485
  2.8426311493015799  8.5313517172518427  2.8354750023563300
  4.2517106799939395  9.9579956489079979  4.2495679665762882
  2.8416093430174905  8.5318118006742605  5.6827647415110043
  4.2620490657568357  9.9476462671579018  7.1056388296942776
  2.8366921241056318  8.5409191941882003  8.5408802587695387
  4.2063700061040858 10.0032471571229280 10.0032470881476101
  5.7244468910636881 -0.0005712874979319 -0.0005194605777108
  7.1047891887923216  1.4232568980921156  1.4232118128731757
  5.6783530574313286 -0.0008061233372722  2.8355669833060739
  7.1038335712257803  1.4205983698945526  4.2568494686279559
  5.6778110881832973  0.0003634038169609  5.6828718096618154
  7.1060123394708778  1.4215222236530161  7.1036155804639360
  5.6687367947449383  0.0052314773687849  8.5409191808742424
  7.1057408757569087  1.4243826794856369  9.9511137180442670
  5.6782651865362128  2.8354750130388142 -0.0007077437496849
  7.1037263372780632  4.2568434609166976  1.4206476676838045
  5.6705297512279200  2.8306597762716925  2.8307488914371635
  7.0972286469372357  4.2541758418213655  4.2542039300186083
  5.6825309369641195  2.8390553194589767  5.6825773471164132
  7.0995927064023174  4.2551418467170716  7.1100474088650927
  5.6678643042753265  2.8269965155704728  8.5416755674694880
  7.1035440672166095  4.2614607579452084  9.9496136080574527
  5.6778050860735911  5.6827646705189618  0.0003140925626583
  7.1060015583396865  7.1036046033692672  1.4215221350598477
  5.6824226940879825  5.6825823839020071  2.8390416905522615
  7.0995695773403344  7.1100240787384577  4.2551419226111591
  5.6761036642875471  5.6786309862456550  5.6786078950445740
  7.0995756998862225  7.1100413435400629  7.1100413684031789
  5.6751375195156921  5.6762670608705363  8.5344515765565099
  7.1044145069510583  7.1051172363702433  9.9499759013150619
  5.6686979807641702  8.5408802479898895  0.0052312296391254
  7.1058667259467887  9.9511307813879863  1.4243517229613458
  5.6679415548278298  8.5417530219470788  2.8269967545953314
  7.1035389035278937  9.9496001178693501  4.2615688198296393
  5.6751653787747305  8.5344794915419318  5.6762670242257514
  7.1044999380685692  9.9499758491646126  7.1052025871986739
  5.6636486759185356  8.5459684418345052  8.5459685383810235
  7.1039782014184505  9.9475677922590897  9.9476462725645760
  8.5257895453930121 -0.0022500548882966 -0.0022950128995308
  9.9061319077767678  1.4214812581420906  1.4215330366061403
  8.5247120133319925 -0.0033899408932185  2.8375245206962005
  9.9618808287057323  1.4157302938477905  4.2477750390834981
  8.5245772197620635 -0.0005604105991608  5.6850506814978798
  9.9527735575034217  1.4206477731892584  7.1058906522819516
  8.5268523794101210  0.0003139582414479  8.5318117695845412
  9.9523135524877837  1.4216694773802614  9.9531802785028702
  8.5248378202947759  2.8375414513210448 -0.0034210012576486
  9.9618417629566078  4.2477360941799853  1.4157304639231061
  8.5266005489802392  2.8410091033375133  2.8410873216030810
  9.9669300772191001  4.2426868292528157  4.2426866122382219
  8.5261642073085788  2.8386794467426251  5.6835381982994564
  9.9554411985691864  4.2542037247235891  7.1123883216895880
  8.5270345985643861  2.8390416269503880  8.5271943694084502
  9.9627144798349683  4.2469796429440434  9.9616587412805853
  8.5245663358219446  5.6850398797135115 -0.0005602734560062
  9.9527675540380578  7.1057833610842849  1.4205984408796688
  8.5260788789326938  5.6834528233275279  2.8386792552600060
  9.9554132488342084  7.1123882346389173  4.2541757176201189
  8.5310030027308166  5.6786139569208975  5.6786138459222277
  9.9544751223184829  7.1100474513727683  7.1100242540805247
  8.5309859377245392  5.6786080473904574  8.5335133909524981
  9.9480480033788492  7.1060781965065889  9.9496000096025696
  8.5267450496270829  8.5318058146353017  0.0003632565503875
  9.9522256452798672  9.9530885273874663  1.4217676499792746
  8.5270396438216363  8.5270863595158897  2.8390551810705138
  9.9626371924993418  9.9616587847367519  4.2469025272159451
  8.5310090963137526  8.5335133361017608  5.6786312877820846
  9.9481559562817417  9.9496136839177662  7.1060729738006962
  8.5333499283753866  8.5344514081541405  8.5344795054714453
  9.9600489314105616  9.9579063799060510  9.9579955388031500
