Fe C 
 1.0000000000000000
    11.3549976645067758    0.0000000000000000    0.0000000000000000
     0.0000000000000000   11.5444362963763663    0.0000000000000000
     0.0000000000000000    0.0000000000000000   11.3549976703633249
 Fe  C  
 128   2
Cartesian
  0.0052710495171653 -0.0684833365518985 -0.0142505620029434
  1.4872114692859368  1.3721814497049496  1.3518035928563354
  0.0005610382268960 -0.0548034507707819  2.8381825913517771
  1.4748356358626487  1.3771710866090641  4.2819579957796021
  0.0021919827477755 -0.0111734094643794  5.6808377785253361
  1.4478902046865307  1.4271393345463470  7.1235521636552512
  0.0089227428329287 -0.0026202811777828  8.5281272180613961
  1.4751683645267482  1.4306600986641269  9.9592048874208512
  0.0057248389837411  2.8861089476480641  0.0057248730566796
  1.3518035416708669  4.4000367208747155  1.4872115301609659
  0.0152416955852841  2.5013813878037876  2.8228851803635209
  1.3634240158079918  4.3415149867814939  4.2342629241128869
  0.0079932690681535  2.8217570383749715  5.6731005987030239
  1.3908605157888758  4.3451231186538397  7.0701481807125912
  0.0084504889987446  2.8759956545308247  8.5269999239871446
  1.3641304975793067  4.3949414971661751  9.9116979855110827
 -0.0142504236973868  5.8407013591540382  0.0052710640182891
  1.4323366698008089  7.2686168977101255  1.4065178968969005
 -0.0400010224423254  6.1642793521389079  2.8788756153886896
  1.4482692393113978  7.2755217021552339  4.3119665523228088
 -0.0252926818843971  5.8225523762452758  5.6659630501593528
  1.4217057809241782  7.2275107247996662  7.0891294286303337
 -0.0307551261617959  5.8070150173356314  8.4907680324206627
  1.4058257464861734  7.2220044781088042  9.9036096702434548
 -0.0064573154777608  8.6583271633252323 -0.0064572468104717
  1.4065178037110793 10.0480374380570581  1.4323366547898007
 -0.0285208008089832  8.6975721277140376  2.8673836746077335
  1.4328958378900507 10.0947145138911285  4.2902354417841542
 -0.0190838472241470  8.6835560464767596  5.6810074258695220
  1.4170762417306719 10.0890656596146311  7.1047490408554612
 -0.0291952590869320  8.6396848430939350  8.4897923344287225
  1.3903025021296422 10.0412787219859183  9.8819164200614846
  2.8788757339669742 -0.3920612367085450 -0.0400010735305199
  4.2342630873440728  1.4307030391324622  1.3634241640919080
  2.8530793078572305 -0.0686235355908732  2.8330422246245943
  4.2574915687582866  1.4295909822193846  4.2574554879254487
  2.8695523005381518 -0.0348028212284083  5.7029286479523140
  4.2471387858216598  1.4640803774342424  7.1144101799114985
  2.8641746977119480 -0.0502309008319298  8.5276124920365426
  4.2307858253109227  1.4669742599935112  9.9630046204933471
  2.8228853744937994  3.2708369646399644  0.0152416618004842
  4.2819580261533394  4.3950471820038022  1.4748357305701991
  2.8328555003632170  2.8861091824720528  2.8328555421804036
  4.2574555257111406  4.3426272239296448  4.2574916286270659
  2.8302706142451868  2.8962471891703476  5.6666387809438739
  4.2673297824804788  4.3432763726729791  7.0812791603700154
  2.8307070476881955  2.9505069183988453  8.5204239344860433
  4.2913241368474910  4.3875549285839606  9.9025514476193806
  2.8381826623802535  5.8270216331202542  0.0005609976685470
  4.2902353892106539  7.2219399473491324  1.4328957004524723
  2.8330421439209119  5.8408416517873913  2.8530793516443094
  4.2798591356522024  7.2266391804682115  4.2902127753571566
  2.8298784973817108  5.7748458512198395  5.6657308672404341
  4.2697101248718532  7.1949701674316149  7.0793519926280997
  2.8371188968692995  5.7833347352989319  8.5130332731164273
  4.2854654377005419  7.1949555927542930  9.9083096173608478
  2.8673836955882384  8.6190822675399037 -0.0285207187613860
  4.3119665811425012 10.0411327423464112  1.4482694003283572
  2.8457922564068041  8.6583272509989566  2.8457922676291187
  4.2902128484701967 10.0900152778454189  4.2798589925899773
  2.8678594230002283  8.6769673145239992  5.7040813891482989
  4.2973918827176742 10.0860679069192241  7.1153004614481619
  2.8572314735576612  8.6330867802556313  8.5128382379846741
  4.3257107035849582 10.0308494908978947  9.8678359767618105
  5.6659630872089233 -0.0503343354028949 -0.0252926688781370
  7.0701482967673162  1.4270951800387728  1.3908603436884781
  5.6657308805565947 -0.0026277999284694  2.8298784777523864
  7.0812791840353384  1.4289417548779373  4.2673296471930353
  5.6739540565908966  0.0108760317448399  5.7008034148338824
  7.0902469666225727  1.4613583631107923  7.1034646107191577
  5.6665068956042788  0.0321672077120694  8.5271763830040044
  7.0794084650261606  1.4641122960932282  9.9466061754653872
  5.6731005585551317  2.9504609517734592  0.0079933495636803
  7.1235522539888310  4.3450788697993090  1.4478903400717442
  5.6666388566139947  2.8759709289907964  2.8302705163259714
  7.1144102253126560  4.3081376963168445  4.2471387958728224
  5.6742673573684632  2.8861091337554008  5.6742674425932949
  7.1034645872403228  4.3108597091391569  7.0902469194090632
  5.6707310925388672  2.9034814627804333  8.5230451373846687
  7.1125944219639301  4.3431962364241237  9.9264463983065490
  5.6808376184043388  5.7833915878329067  0.0021919895108866
  7.1047489518229403  7.2275887051029466  1.4170761758477390
  5.7029285596652448  5.8070209103026231  2.8695521704620179
  7.1153006105165444  7.2305863534682890  4.2973918670883222
  5.7008034902088438  5.7613421965942919  5.6739542670819016
  7.1228508958278072  7.1942027122038166  7.0709400092598687
  5.7051351820140317  5.7812657941027172  8.4887467750910055
  7.1144203477449031  7.1949584136368809  9.9241073786167657
  5.6810074406198350  8.6330983507154659 -0.0190840194801868
  7.0891294746376765 10.0891437687776619  1.4217058771724687
  5.7040813466168174  8.6396871199862986  2.8678594047171058
  7.0793519221026528 10.1216843407563850  4.2697100999523840
  5.6981911886317071  8.6583272090333736  5.6981912205960041
  7.0709399329803597 10.1224518326683199  7.1228508008722287
  5.7087937481852231  8.6003973675920555  8.4849235130066383
  7.0783713350876063 10.0860792595087911  9.8963905441463940
  8.4907680053376975 -0.0347970990444605 -0.0307550196072693
  9.9116980978510902  1.3772765782401901  1.3641305182948174
  8.5130333186448226 -0.0111164816063063  2.8371188231806457
  9.9025514510904031  1.3846631655112556  4.2913240093998715
  8.4887466825717723 -0.0090476550600929  5.7051351099008354
  9.9264464264153478  1.4290219644324593  7.1125942440156589
  8.4928308222657698  0.0108520255951931  8.5198155884535751
  9.9362125649102033  1.4294063980941607  9.9363954928805338
  8.5270000530325660  2.8962224879127914  0.0084504264004086
  9.9592050103318961  4.3415581741941720  1.4751683551715589
  8.5204238563847614  2.8217111954141076  2.8307070627949744
  9.9630045882648073  4.3052437105963639  4.2307856831529955
  8.5230452138612183  2.8687366936987493  5.6707308935542500
  9.9466062557816581  4.3081059598118356  7.0794082662945446
  8.5195553171537473  2.8861090292719989  8.5195552457858010
  9.9363953818310229  4.3428117872690075  9.9362125676948683
  8.5281271573148487  5.7748383967865493  0.0089227373311824
  9.8819164062549198  7.2753756927389883  1.3903024826435630
  8.5276126484647286  5.8224490721566884  2.8641746155324799
  9.8678359871723824  7.2858049290034170  4.3257105901042037
  8.5271762321357301  5.7400508967476274  5.6665068853639742
  9.8963905223538706  7.2305751681595094  7.0783711570669645
  8.5198156106043914  5.7613660909022091  8.4928307199852284
  9.9035564523433095  7.2265550930080531  9.9138694665326970
  8.4897923640977861  8.6769696190703822 -0.0291953278600129
  9.9036097116972890 10.0946499335554041  1.4058256878722906
  8.5128383362897022  8.6835676804311799  2.8572314930874625
  9.9083097137095333 10.1216987707907133  4.2854654491611228
  8.4849234324279195  8.7162571179209305  5.7087937482510984
  9.9241073756120102 10.1216959780412115  7.1144203153675445
  8.4954942259998631  8.6583271485499100  8.4954941745323538
  9.9138695825361047 10.0900992830636831  9.9035564732874786
  2.8546868935048013  1.4515007994320805 -0.0160986026031659
 -0.0160984418801422  4.3207169824320770  2.8546868705931940
