Fe C 
 1.0000000000000000
    11.3833867889487159    0.0000000000000000    0.0000000000000000
     0.0000000000000000   11.3243646245239962    0.0000000000000000
     0.0000000000000000    0.0000000000000000   11.3832195437278596
 Fe  C  
 126   1
Cartesian
  0.0862885039579188  0.0692926425006885  0.0277586157808067
  0.0799845765133709  0.0654763727105658  2.7658738190509808
  1.4172732408492508  1.4254093465225743  4.3167632296832279
 -0.0022576818451801 -0.0134549853490828  5.6806024839096070
  1.4181115652376191  1.4114821592427509  7.0928956996106365
  0.0501796356006823  0.0332843996534867  8.5789961930890559
  1.5020007389483239  1.5819572708400909 10.0462218234156904
 -0.0839775165611625  2.8521509374054972  0.0057351705067988
  0.2400198296391743  2.8481948048330059  2.6059411684089651
  1.4124196736188026  4.2253754717850969  4.3354818869748142
 -0.0203400555289346  2.8236684406696346  5.7062759647108843
  1.4135877275301629  4.2389400163856319  7.0972557271780161
 -0.0057619410267470  2.8056459724253511  8.5299904325175415
  1.4180875899887104  4.2150072365580851  9.8894596372760759
  0.1113177815041628  5.5103590126678847  0.0909583160884484
  1.4207720327774587  7.1287816521448928  1.4250439091055200
  0.0731529450133080  5.5758078995393854  2.7723837239575668
  1.4306080687620899  7.0439691611067783  4.2378419490367820
 -0.0086316196841275  5.6646549454014785  5.6884844028768260
  1.4249512421639288  7.0698273624630561  7.1041825860263348
  0.0045272178188063  5.6521278894664038  8.5239285333129224
  1.4089943427542215  7.0469139175677169  9.9714657321780127
  0.0053768093810800  8.4790433249514159 -0.0091072222575356
  1.4299752042101270  9.8609656899524953  1.4155559803835869
  0.0036888544864822  8.4842243788242939  2.8421796170473033
  1.4327443325563061  9.9182265338544511  4.2406739818390236
  0.0092729772274537  8.4864555790118494  5.6774422413242052
  1.4277740041165836  9.9081103652031768  7.1143723835058461
  0.0052243167796499  8.4818171537703311  8.5426327583970973
  1.4231976365483066  9.9085374812674178  9.9754840418762374
  2.8128270166631264 -0.1239718863325090  0.0327918429691098
  4.1823573179952751  1.5818160847980853  1.3442700820872935
  2.8178765691232677  0.0694175171413386  2.7593612814891268
  4.2717825109259921  1.4023668803985099  4.2789439334667039
  2.8445445649676793 -0.0198720544260850  5.6859430941781932
  4.2816791063040673  1.3884225517928250  7.0977615996776455
  2.8254539352156645  0.0195459392772585  8.5810892666386813
  4.1944510055965463  1.4612460983269353 10.0348081188537268
  2.1445237704778624  3.3482675668377024  0.7008942419890251
  4.3394034506306856  4.2148753987789753  1.4278167220959417
  2.8396334833784733  2.8516646839623401  2.9297329805988483
  4.2850627145535425  4.2614878720201883  4.2761298129474330
  2.8728041883889786  2.8347605676101129  5.7016596013709027
  4.2861240648920322  4.2497218069255327  7.0968213578088299
  2.8610561245120931  2.8245566125214725  8.4314595180625478
  4.1573802987704074  4.1485595530698767 10.0716966941450021
  2.8035428243878613  5.6363766981737706  0.0423607572630755
  4.2572394044122657  7.0472008021350607  1.4368050420814655
  2.7545284088443625  5.5099724978594935  2.7348016693466777
  4.2350273751128436  7.0271227402724366  4.2293064409079655
  2.8475202592080442  5.6634705234418536  5.6946772014680427
  4.2721105496041467  7.0689986459625658  7.1080796810878750
  2.8551110089791147  5.6474452951573513  8.5310315076323420
  4.2626432955706939  7.0528573326445416  9.9666200335250714
  2.8595525714144432  8.4604594862852274 -0.0136435391640723
  4.2540269279219594  9.9083536611846288  1.4226656871645784
  2.8550977700209632  8.4790706897328292  2.8403273371693842
  4.2498413799130592  9.9251212365191499  4.2390989797298575
  2.8525602479816308  8.4789585715022149  5.6814718056584717
  4.2557551256732129  9.9056198626136620  7.1190062063608206
  2.8404796046444094  8.4772649239325055  8.5445492724505971
  4.2605515344310598  9.9256884547221365  9.9682900561639158
  5.6480762595985414  0.0195933746174850  0.0207356140206830
  7.1362684459543697  1.4113014848239882  1.4279339815476382
  5.6502209105152916  0.0333409915157112  2.7957361110534773
  7.1186100585692165  1.3956919597230781  4.2615076414627620
  5.7039947624136653 -0.0259570915110764  5.6812148489557757
  7.1217675948774755  1.4029862087341984  7.1073340792174449
  5.6756165276015071  0.0043797885694243  8.5535860790630132
  7.1315590608221182  1.3884550733649317  9.9476573024714110
  5.7977083666196734  2.8244503375552799 -0.0151710140070681
  7.1317436030961305  4.2389094556342295  1.4324321567883489
  5.6990945858959083  2.8058711536541683  2.8516121499397316
  7.1175124116586890  4.2387616012444180  4.2656426019633917
  5.7158383063233789  2.8231746869594532  5.6880847765018885
  7.1201664503803501  4.2400302491328699  7.1088955345823690
  5.6712545803191325  2.8185901505307389  8.5579407866441048
  7.1323999987353641  4.2496013581733285  9.9430360252793424
  5.6981894251141787  5.6472463215501101 -0.0090805024322764
  7.1250588717065595  7.0698758135920032  1.4208767194437155
  5.7051843101870299  5.6522619562012650  2.8411505997379809
  7.1210267170390580  7.0767384507267055  4.2596149222278212
  5.7056568830301684  5.6738136065368572  5.6840421815987572
  7.1193052003628816  7.0815967758181548  7.1098011712794769
  5.6722249243968168  5.6327142361520925  8.5569399639835346
  7.1210636258654239  7.0689512689813361  9.9570512048230668
  5.6846746472296017  8.4771138421779924  0.0050916816619866
  7.1148884828420611  9.9082410413020270  1.4181264072679729
  5.6866289170119684  8.4817377595839893  2.8404402737038752
  7.1052567554308217  9.9127280269725038  4.2390167522072471
  5.6739666736853485  8.4866166037289013  5.6660488533959112
  7.1166847097289168  9.8948343881817280  7.1125151781329681
  5.6813570714913642  8.4847063576780890  8.5477298783415669
  7.1101180669253132  9.9056532643008364  9.9733370771120811
  8.5432660513791330 -0.0197076109228192  0.0012714389629745
  9.9124066234135171  1.4255352098338228  1.4283201347160024
  8.5487515467318822 -0.0134244451698466  2.8481906210946879
 10.0235748534565303  1.4440139765868523  4.2055131955520686
  8.5583233189973758 -0.0099783315274335  5.6707453432110428
  9.9677086443200089  1.3958081559894522  7.1104831184160631
  8.5480011210064646 -0.0260508875060358  8.5250489473222117
  9.9500892280725228  1.4022810175280902  9.9571124512765543
  8.5275658966134955  2.8348905034004614 -0.0270437346284533
  9.8935099776560467  4.2249819473784624  1.4339204433987012
  8.5227289564130899  2.8237905440678963  2.8661498078163974
 10.0191565347026419  4.2084361380305193  4.2101441831894855
  8.5500837860615491  2.8198586726566228  5.6791284453118198
  9.9636283129892806  4.2388988677137638  7.1115737481573591
  8.5410467575047662  2.8231633081001766  8.5131471137346804
  9.9528812862868161  4.2615198750853969  9.9440583535528226
  8.5345132838731779  5.6636999315496279 -0.0017159146695918
  9.9913271006808433  7.0440432654105489  1.4152955592924199
  8.5407214202777428  5.6644794166738111  2.8545141175947499
  9.9987876070853972  7.0465235856212480  4.2304470274447210
  8.5558550280885530  5.6491937789823297  5.6733335391161672
  9.9695251084902274  7.0768076509793492  7.1081773938426389
  8.5450525912678454  5.6736361179925030  8.5234218883712636
  9.9995506346446916  7.0271034122277483  9.9941864895584125
  8.5475588945460075  8.4790462314899049 -0.0066517151966216
  9.9883848360023109  9.9183607058087038  1.4129111424610810
  8.5518230754265421  8.4864269208120682  2.8365742538209751
  9.9983646617915412  9.9258366293663247  4.2307804092101780
  8.5627279335499242  8.5017355779916954  5.6664642409884349
  9.9901948808374392  9.9127845293715353  7.1237862803502647
  8.5630440560946326  8.4866285762015075  8.5551788766720325
  9.9900723568690388  9.9249699414954318  9.9790213513708768
  2.8452072984271122  1.7493794333017363  0.0007194398694458
