Fe C 
 1.0000000000000000
    11.2293986992655093    0.0000000000000000    0.0000000000000000
     0.0000000000000000   11.2294926120064069    0.0000000000000000
     0.0000000000000000    0.0000000000000000   11.8054316248226456
 Fe  C  
 128   2
Cartesian
  0.0190411373598879  0.0187814251751150 -0.1562830223990820
  1.4036748035346924  1.4036865048179519  1.4756597516035654
  0.0187791295817043  0.0190405752356347  3.1076420934099631
  1.4036748661969682  1.4036867440659679  5.0541283206982150
 -0.0929548031574171 -0.0930899925000694  6.0161004348430422
  1.4036747877897851  1.4036865677616681  7.3783942643728295
 -0.0930723859928215 -0.0929722918902092  8.7406885117798137
  1.4036747423553424  1.4036865759187311  9.7026529828965664
  0.0187805332725440  2.7883310621859216 -0.1562829684569106
  1.4036749339834262  4.1344460097073243  1.4756792094859776
  0.0190395571242948  2.7885932451898050  3.1076421119664275
  1.4036005212639342  4.2468604735719344  4.5694895978245826
 -0.0930723712391660  2.9003455900888921  6.0161004505875537
  1.4036749555141022  4.2205589509543282  7.3783947620560069
 -0.0929548960306722  2.9004629928003043  8.7406883698765512
  1.4037494014855880  4.2468606662387680 10.1872999591693514
  0.0227119026965448  5.5824843378968030 -0.0090453564562639
  1.4036748123734921  7.0184327509386675  1.4756789684467848
  0.0227702965772717  5.5826597803772575  2.9605655271910933
  1.4036748938946466  7.0184330014828360  4.4426100663405581
 -0.0441865835894575  5.6599310176967608  5.9250850531877459
  1.4036748136659185  7.0184328911934646  7.3783947249499313
 -0.0440424911780537  5.6596574921942606  8.8318723598780284
  1.4036748186094994  7.0184328621150147 10.3141792378039749
  0.0227702734158437  8.4542059433077377 -0.0092074340431342
  1.4036748249828745  9.9024197212343736  1.4756792061484043
  0.0227121712904333  8.4543817138832864  2.9604033257792763
  1.4037492466461954  9.7900053163426239  4.5694895646169718
 -0.0440424432242535  8.3772080707738468  5.9249168322543193
  1.4036747259408149  9.8163067117675897  7.3783947466539708
 -0.0441867336089777  8.3769349681504934  8.8317044320229012
  1.4036003043024707  9.7900050191518151 10.1872999428101156
  2.7885691000557937  0.0190421902525362 -0.1562830991181376
  4.1344183110626478  1.4036865789286046  1.4756791928593243
  2.7883100764547857  0.0187799066047778  3.1076421573978177
  4.2468147919863037  1.4037610650194607  4.5695061502926668
  2.9004220643275600 -0.0929723286641906  6.0161004109846274
  4.2204954783454411  1.4036866752316641  7.3783946287963751
  2.9003046179600451 -0.0930897919455279  8.7406883169075069
  4.2468149075148895  1.4036120635662550 10.1872832168482468
  2.7883085242249135  2.7885917299075582 -0.1562830794265230
  4.1462704021478274  4.1462981352710342  1.4756791905667264
  2.7885707105245858  2.7883325967616974  3.1076422243020532
  4.2345680326895527  4.2345384640469259  4.4516576129098624
  2.9003046094759060  2.9004630929252260  6.0161005718524319
  4.3107261739661347  4.3107712174385355  7.3783946077507991
  2.9004221526222236  2.9003454935995885  8.7406884870758645
  4.2345005280420374  4.2346062016331993 10.3051317946749492
  2.7845794089401110  5.5826597241576392 -0.0092074087107530
  4.1709132635163106  7.0184327044927386  1.4756789351736126
  2.7846374580633091  5.5824840928768324  2.9604033233857643
  4.2215307440168788  7.0183299942276980  4.3763209340481790
  2.8513921351365528  5.6596577567760944  5.9249169977078191
  4.3020201326906404  7.0184329160703909  7.3783948165628548
  2.8515362412162983  5.6599307779509207  8.8317044758304029
  4.2215306386987921  7.0185356860260244 10.3804683280423493
  2.7846376821432939  8.4543815272441645 -0.0090454293063579
  4.1462705776045015  9.8905675866079807  1.4756791044926010
  2.7845792375823231  8.4542060111169750  2.9605652444543025
  4.2345005417971571  9.8022597447768494  4.4516576734550064
  2.8515361981671123  8.3769348170993183  5.9250848611580436
  4.3107261565312651  9.7260944538752874  7.3783947023710805
  2.8513922860779366  8.3772083392298935  8.8318724105327373
  4.2345683450016267  9.8023272049791625 10.3051318669342589
  5.5826127694810292  0.0227755976441582 -0.0092193934644508
  7.0183742872435486  1.4036864716622828  1.4756789792500495
  5.5824369743426798  0.0227177274034757  2.9604150589008933
  7.0183742510306892  1.4036865515279142  4.4426287636774990
  5.6596001618194425 -0.0440452954098525  5.9249269537249294
  7.0183740507672692  1.4036865990041245  7.3783947860804409
  5.6598733421526584 -0.0441894414713867  8.8316941398249877
  7.0183741695652069  1.4036866150522824 10.3141608250225083
  5.5824368701430647  2.7846555715103802 -0.0090571702032743
  7.0183742410810934  4.1709359688783181  1.4756789506348389
  5.5826125476128841  2.7845975717359073  2.9605772460279320
  7.0184770704535735  4.2215630911312632  4.3763309579122724
  5.6598735761139327  2.8515626679318302  5.9250950790704806
  7.0183742691033100  4.3020611100074975  7.3783947236781886
  5.6596001449609465  2.8514187576110257  8.8318623372712821
  7.0182712168178698  4.2215632937541931 10.3804585891726973
  5.5939193117540338  5.5939681174218583  0.0538164578634739
  7.0183741963177777  7.0184328309660540  1.4756788375181069
  5.5939266129054683  5.5939606454133957  2.8975412138433403
  7.0183742486980698  7.0184328907908116  4.3106764622826521
  5.6615063634563505  5.6615669137425879  5.8397058004158113
  7.0183741306048972  7.0184328941780256  7.3783946529423670
  5.6615168685677375  5.6615565974492164  8.9170836025410978
  7.0183741932338135  7.0184329713871207 10.4461128292560765
  5.5939267122819860  8.4429050192309045  0.0538165980020282
  7.0183741596796780  9.8659298673098128  1.4756789641361761
  5.5939194110317878  8.4428977671416483  2.8975411254107910
  7.0182713423205172  9.8153027184434478  4.3763310798930730
  5.6615169550754443  8.3753091457430511  5.8397058598938925
  7.0183742625912284  9.7348046886403274  7.3783947536512038
  5.6615064332893574  8.3752988748623860  8.9170835062632801
  7.0184771324368489  9.8153026556298375 10.3804585008145427
  8.4543113576436504  0.0227174965722543 -0.0090572276096592
  9.9023300667355887  1.4036865428261540  1.4756791568399246
  8.4541358206196016  0.0227756902439432  2.9605772047257664
  9.7899337329792253  1.4036122630218824  4.5695062039848162
  8.3768747608950900 -0.0441894587144401  5.9250950963404563
  9.8162529588200353  1.4036866502753675  7.3783946102201066
  8.3771481728336781 -0.0440456259325656  8.8318622600620742
  9.7899335855345537  1.4037610956328508 10.1872831754868791
  8.4541357312723147  2.7845975505521396 -0.0092194247367539
  9.8904778805143394  4.1462981101209015  1.4756790815323966
  8.4543113618012669  2.7846554856812364  2.9604149568784837
  9.8022480555055598  4.2346061804528814  4.4516577133444990
  8.3771481067528608  2.8514186154695431  5.9249270312638203
  9.7260222346747174  4.3107714600442888  7.3783947860618193
  8.3768748905270591  2.8515626065511697  8.8316943337459506
  9.8021802653509678  4.2345386086600829 10.3051318003946548
  8.4428217643077748  5.5939608269892709  0.0538164531335596
  9.8658352384581072  7.0184329542794925  1.4756789052383443
  8.4428289760084354  5.5939679993427811  2.8975411843718373
  9.8152177695416878  7.0185358012118284  4.3763209161184680
  8.3752315480980268  5.6615566538374216  5.8397060058575700
  9.7347283508961180  7.0184329776237835  7.3783947391485025
  8.3752420176308693  5.6615670310682908  8.9170836098641431
  9.8152176537485030  7.0183301544212382 10.3804683876110850
  8.4428290041458354  8.4428977338114297  0.0538165215332298
  9.8904778424466642  9.8905676558217532  1.4756791978398600
  8.4428218814134208  8.4429050342208463  2.8975411872876626
  9.8021804593050099  9.8023274184986171  4.4516575358907629
  8.3752419319598985  8.3752986093489223  5.8397060861457586
  9.7260221498254413  9.7260944860030634  7.3783947408389148
  8.3752314620597446  8.3753091392595191  8.9170836894987264
  9.8022478077195121  9.8022595117520446 10.3051315701352699
  1.4036749222162188  1.4036868053707876 -0.3223674831189248
  1.4036748329230975  1.4036865047348657  3.2737487669009062
