Fe
 1.0000000000000000
    11.3709228502215733    0.0000000000000000    0.0000000000000000
     0.0000000000000000   11.3709228519352532    0.0000000000000000
     0.0000000000000000    0.0000000000000000   11.3709228445950998
 Fe 
 127
Cartesian
  0.0531200554155500  0.0531199393862676  0.0531199107574240
  0.0531200192673775  0.0531198342557433  2.7896106268813212
  1.4213654138847123  1.4213654657053174  4.3045980270554027
 -0.0019945885967956 -0.0019102711451700  5.6870201936994391
  1.4213654066923105  1.4213653878069004  7.1068267734166568
 -0.0019102174506177 -0.0019946558180047  8.5266334723138399
  1.4213653562160076  1.4213654211949041  9.9090556285549294
  0.0531201661180247  2.7896106717000433  0.0531198123685329
  1.4213653501242478  4.3045980471731973  1.4213653481357440
  0.0531201672258428  2.7896107484118882  2.7896108632237340
  1.4213653349505668  4.2524514658922206  4.2524513695677202
 -0.0019100492403319  2.8447256797570275  5.6870202663078624
  1.4213652061990742  4.2553418837528296  7.1068268216066510
 -0.0019946523059382  2.8446410378591787  8.5266333002493333
  1.4213651626421908  4.2524514343363533  9.9612020500087901
 -0.0019101319054633  5.6870200798382040 -0.0019947108578724
  1.4213653664912906  7.1068267212114540  1.4213654363720010
 -0.0019945797052578  5.6870201898526309  2.8446408608163138
  1.4213652925732989  7.1068267676837218  4.2553417751644158
  0.0007990353996550  5.6852026589328997  5.6851603981324041
  1.4213654028585678  7.1068268737756943  7.1068267685093387
  0.0007990791600132  5.6851601851589733  8.5284509052272739
  1.4213653502386978  7.1068268051283550  9.9583116784059822
 -0.0019946190134743  8.5266334099406418 -0.0019101633831121
  1.4213652581760297  9.9090555563553018  1.4213653052887218
 -0.0019102385374116  8.5266334053558754  2.8447253812408659
  1.4213651821098672  9.9612021511796094  4.2524514930702795
  0.0007989345666217  8.5284931763576122  5.6852027464005364
  1.4213654606931054  9.9583116852396056  7.1068266775885887
  0.0007990120306592  8.5284509039214047  8.5284931642325521
  1.4213652611061078  9.9612020119501654  9.9612022022508064
  2.7896106019612614  0.0531199745960976  0.0531200267970844
  4.3045979810350801  1.4213654184547606  1.4213654833403997
  2.7896108134653619  0.0531200843833926  2.7896107837703048
  4.2524513153103980  1.4213653809176765  4.2524513440452703
  2.8446409282022467 -0.0019947474427469  5.6870202931386080
  4.2553419540169228  1.4213652235001062  7.1068268498573106
  2.8447255388246617 -0.0019101298900597  8.5266332398216989
  4.2524516206143170  1.4213653783713731  9.9612020473530336
  2.7896107130899752  2.7896107518906428  0.0531199499040599
  4.2524513778438191  4.2524514120245600  1.4213655207872253
  2.7896108611005785  2.7896106525435065  2.7896106756394081
  4.2462335548263477  4.2462336997353800  4.2462335628402359
  2.8447253039101397  2.8446408401054275  5.6870201749535498
  4.2593576530641215  4.2593578519117647  7.1068267338539544
  2.8446408830002299  2.8447254885099804  8.5266332945600691
  4.2462336018080933  4.2462336784470658  9.9674199319687293
  2.8447253548143387  5.6870202579608247 -0.0019101493748703
  4.2553420209659665  7.1068268342988459  1.4213654307077754
  2.8446408925807654  5.6870201316555828  2.8447253724946360
  4.2593577083986771  7.1068267300471462  4.2593576998008515
  2.8419317585350794  5.6851604473725574  5.6852027027390060
  4.2621380723134514  7.1068267710147230  7.1068267727448067
  2.8419316881688665  5.6852028190783326  8.5284931280330589
  4.2593577365359332  7.1068266734482508  9.9542957289339231
  2.8446407380904808  8.5266333355613586 -0.0019946922183559
  4.2524515706438413  9.9612020858997017  1.4213652978047138
  2.8447255027579241  8.5266333938198944  2.8446408711895970
  4.2462336195061576  9.9674198323422427  4.2462336759385382
  2.8419317969083489  8.5284509207745121  5.6851604943356007
  4.2593576800057864  9.9542958544077340  7.1068267354192143
  2.8419316740801395  8.5284930174933073  8.5284509209901120
  4.2462336651176749  9.9674198628947330  9.9674199642545709
  5.6870201940661582 -0.0019947539771086 -0.0019102303705050
  7.1068268325296433  1.4213654030395508  1.4213653472883545
  5.6870201251442518 -0.0019102055142868  2.8447252228663462
  7.1068268250785698  1.4213654146105428  4.2553419424234269
  5.6851605257147453  0.0007991140724098  5.6852028304749265
  7.1068266276669130  1.4213654688032165  7.1068265711366676
  5.6852025249836187  0.0007991979310856  8.5284931757628826
  7.1068268087614364  1.4213654631832395  9.9583116705135879
  5.6870201978083399  2.8446408303050017 -0.0019947665981202
  7.1068269846178129  4.2553418987501184  1.4213653345028834
  5.6870200766968448  2.8447253449999907  2.8446406896956078
  7.1068269630653873  4.2593576944065790  4.2593577354477468
  5.6852028697465977  2.8419315700475907  5.6851605607493925
  7.1068268052230712  4.2621380036697802  7.1068266924132928
  5.6851603775984021  2.8419315588801988  8.5284508996275399
  7.1068268876373049  4.2593577603703725  9.9542958471064278
  5.6852029294033493  5.6851604861909806  0.0007989698457039
  7.1068267774414045  7.1068267038028994  1.4213652810101376
  5.6851603832155604  5.6852026805163867  2.8419316919874058
  7.1068268458223969  7.1068266450264286  4.2621380197372059
  5.6775692902733663  5.6775693960914007  5.6775693561405802
  7.1068267505098062  7.1068268562487606  7.1068267593250702
  5.6775692845061352  5.6775693612726768  8.5360842091942093
  7.1068267232451676  7.1068266155768081  9.9515155858157023
  5.6851603586068089  8.5284508242241248  0.0007989983160400
  7.1068267308715649  9.9583116681604782  1.4213653995979292
  5.6852025808971671  8.5284932389962602  2.8419316613210062
  7.1068268184243459  9.9542958603276865  4.2593576543067533
  5.6775691346091870  8.5360843248729097  5.6775693668081528
  7.1068267532032943  9.9515154966593418  7.1068266879084989
  5.6775692273771714  8.5360841865435155  8.5360843669769491
  7.1068267323241896  9.9542958656921314  9.9542959083450970
  8.5266333892641555 -0.0019100426212261 -0.0019947690237580
  9.9090554245869242  1.4213651617614980  1.4213653086139317
  8.5266333617629879 -0.0019945886440239  2.8446408500052045
  9.9612019854445943  1.4213652460713808  4.2524515958919000
  8.5284508096990894  0.0007990024763547  5.6851603535225124
  9.9583117151470688  1.4213652541439803  7.1068269298929376
  8.5284933060290662  0.0007990821915635  8.5284509656351890
  9.9612019786873969  1.4213651891820620  9.9612020111971535
  8.5266333212503849  2.8447253936782664 -0.0019100885994128
  9.9612020522691260  4.2524515295808651  1.4213652663358598
  8.5266331302028675  2.8446407848585902  2.8447254471365784
  9.9674199675182305  4.2462336978565203  4.2462336846456292
  8.5284930027993777  2.8419316832862069  5.6852026184600044
  9.9542960229615147  4.2593577111037186  7.1068266807426461
  8.5284509324884983  2.8419316318614674  8.5284931288301209
  9.9674200650391498  4.2462336111442305  9.9674198890912784
  8.5284930386033508  5.6852026327869822  0.0007990064011384
  9.9583115957108390  7.1068268257959790  1.4213653361937018
  8.5284506939841140  5.6851602969161235  2.8419316252003979
  9.9542959154424331  7.1068268681220026  4.2593577687746560
  8.5360841547932793  5.6775692163526834  5.6775691806271142
  9.9515155813119396  7.1068269238087067  7.1068267470376085
  8.5360842159546646  5.6775693117483756  8.5360844248874681
  9.9542958891623652  7.1068268115225148  9.9542959421052526
  8.5284509003112028  8.5284930372464061  0.0007990125733905
  9.9612021587331032  9.9612021166397753  1.4213654437836118
  8.5284931722420509  8.5284508772245893  2.8419317100528452
  9.9674199692022327  9.9674199370879641  4.2462337383853193
  8.5360844350006264  8.5360843594764173  5.6775693895392880
  9.9542958149447482  9.9542958112389748  7.1068268528858587
  8.5360844668200642  8.5360843179307118  8.5360841837710026
  9.9674198530694476  9.9674200178004835  9.9674198273910903
