Fe C 
 1.0000000000000000
    11.3520660429238642    0.0000000000000000    0.0000000000000000
     0.0000000000000000   11.3582319734546591    0.0000000000000000
     0.0000000000000000    0.0000000000000000   11.5235872176400651
 Fe  C  
 128   2
Cartesian
  0.0286278236677187  0.0112223020030373 -0.0378982195569889
  1.5616160437020095  1.4197790199843239  1.4404461038827276
  0.0285537825853444  0.0110230313347752  2.9186619754755809
  1.3567692122721555  1.4200673171993217  4.4454251268305924
 -0.0277021199300255 -0.0284459146463645  5.7972090673396997
  1.3690873577209137  1.4197790061074600  7.2022420418263620
 -0.0277131339598288 -0.0289418840011106  8.6072598699982912
  1.3567681862009775  1.4194907364675042  9.9590583584614318
  0.0285537638528832  2.8285346496524255 -0.0377654945092260
  1.4602063476341696  4.2363226155915106  1.4404330130456902
  0.0286278296379241  2.8283359570737465  2.9187945630652945
  1.3866918578111409  4.2888017925145192  4.3764888126728803
 -0.0277125939237340  2.8684995696910742  5.7972241125320751
  1.3898169981106623  4.2972203290437001  7.2021514608240151
 -0.0277025790801472  2.8680042194090345  8.6072749577968963
  1.3865259608093301  4.2885749154131370 10.0280453223449335
  0.0161231348908204  5.6688336530841275  0.0053069395258990
  1.4438300650410647  7.0988950052865718  1.4404482004114587
  0.0162464787434151  5.6689199761877020  2.8756473867805710
  1.3969794186076077  7.0990055983788602  4.3461619091916406
 -0.0412263777117512  5.7016004579642674  5.7779369061727150
  1.3977301487697484  7.0988949372381303  7.2022421057909849
 -0.0412737125292131  5.7013537917543919  8.6266015352722327
  1.3969795887036121  7.0987843277844229 10.0583220757465774
  0.0162468299326960  8.5288700063177298  0.0052491867136652
  1.4602063243317820  9.9614673153072530  1.4404616893210329
  0.0161228112465918  8.5289561061922043  2.8755895810250554
  1.3865265635518957  9.9092155912958528  4.3764384332192527
 -0.0412735162544444  8.4964362995525402  5.7778824856515136
  1.3898169585600240  9.9005695936915181  7.2023325040103119
 -0.0412265825667265  8.4961892128262697  8.6265471174474513
  1.3866913150361997  9.9089875370830818 10.0279948507807983
  2.8381082888485514  0.0416458263527468 -0.3920670464075093
  4.1144169898559069  1.4197789405285377  1.4404460797176974
  2.8379247632158742  0.0416462804765166  3.2729830358341934
  4.3192638842014848  1.4194905921442884  4.4454251400117970
  2.8378111060072211 -0.0005575066946434  5.8271568059330514
  4.3069456557504102  1.4197789853220903  7.2022420273101249
  2.8382219579988726 -0.0005576094168106  8.5773263576047594
  4.3192648322873382  1.4200673079358970  9.9590583530641190
  2.8379248009636635  2.7979121665830586 -0.3920672056386199
  4.2158267207645990  4.2363226028384915  1.4404618065332175
  2.8381082438801997  2.7979116399185204  3.2729829323100352
  4.2895064886141041  4.2885744147444544  4.3764383887413594
  2.8382219103490818  2.8401154511783044  5.8271568396128322
  4.2862160957294666  4.2972203983430566  7.2023324972817448
  2.8378111061156326  2.8401156333750568  8.5773263868224436
  4.2893417831672354  4.2888023764249334 10.0279948541879254
  2.8380954694901082  5.6748661667819640 -0.0557064854218061
  4.2322029400854699  7.0988949487217763  1.4404482186117751
  2.8379375515465242  5.6748658401847507  2.9366030105678247
  4.2790536714791916  7.0987843782274789  4.3461618791122749
  2.8383253147489831  5.6850815334986837  5.7845265117968703
  4.2783029315135535  7.0988949887650490  7.2022421159904102
  2.8377077008615976  5.6850816770154662  8.6199576318262530
  4.2790534513121008  7.0990055791813340 10.0583220971307288
  2.8379375545603307  8.5229237623152319 -0.0557064869468395
  4.2158266562690789  9.9614673919381644  1.4404329128566853
  2.8380954903898270  8.5229241101915569  2.9366029623924339
  4.2893411476036833  9.9089881043761370  4.3764888136898037
  2.8377077278797307  8.5127083852203267  5.7845265344706958
  4.2862160542629262  9.9005695892247214  7.2021514876241008
  2.8383253329495792  8.5127081843400543  8.6199576091253185
  4.2895070647267692  9.9092150014866789 10.0280453065702719
  5.6474792148686941  0.0110233022548410 -0.0377655525720445
  7.0701242358626164  1.4197789515358874  1.4404482346188587
  5.6474052430785182  0.0112219782328033  2.9187945055397924
  7.1078459827341618  1.4196722085377047  4.3445012653503383
  5.7037456722468036 -0.0289415724588273  5.7972240902601762
  7.1238062995310134  1.4197789587632810  7.2022420655941799
  5.7037356055724420 -0.0284462855154232  8.6072749648396147
  7.1078459284399438  1.4198857220036469 10.0599828226504968
  5.6474051927547029  2.8283357041127095 -0.0378981895851924
  7.0773745663480199  4.2475860985233149  1.4405297129585761
  5.6474792526349065  2.8285349245627116  2.9186619516754506
  7.1056555011661295  4.2734840206396294  4.3137524904999740
  5.7037351211304337  2.8680038970082533  5.7972090430224696
  7.1377488696014533  4.2983198393712909  7.2022104256111108
  5.7037461960146354  2.8684998591221502  8.6072598533624340
  7.1055707480959303  4.2734510377292407 10.0906498576426120
  5.6597862555437839  5.6689198785450250  0.0052492036627405
  7.0836803666932022  7.0988949745997871  1.4404484315896771
  5.6599102548634779  5.6688338267261313  2.8755895248347132
  7.0959027005724638  7.0989425475408492  4.2869232627694727
  5.7173065806823811  5.7013535818362326  5.7778824296091180
  7.1407426359225807  7.0988949844730351  7.2022421057782573
  5.7172596598207663  5.7016006742433483  8.6265470944113503
  7.0959024474685330  7.0988473751478720 10.1175604783596338
  5.6599099064097134  8.5289562907449596  0.0053069597010007
  7.0773745373801589  9.9502038587303243  1.4403671628380119
  5.6597866153645882  8.5288699561386725  2.8756473299409064
  7.1055709371084577  9.9243386028864826  4.3138339621256518
  5.7172594100433356  8.4961894620101344  5.7779368752831139
  7.1377489128810385  9.8994701524055309  7.2022737003186652
  5.7173067634970636  8.4964361193988900  8.6266014957878809
  7.1056553935498661  9.9243062016216204 10.0907313688758293
  8.5141623993545892  0.0049853602655782 -0.0044912848991360
  9.9579749677548737  1.4197790118688263  1.4404482523618489
  8.5139366952051230  0.0049851328409445  2.8853879391963702
  9.9202531599108230  1.4198857208760542  4.3445012534731084
  8.5140514033938697 -0.0193525921592196  5.7643295576733786
  9.9042927734883897  1.4197790530111540  7.2022421001449501
  8.5140476655256236 -0.0193525680059714  8.6401544279507672
  9.9202531712936768  1.4196722980637007 10.0599828469017343
  8.5139366787055106  2.8345726061552510 -0.0044912822220034
  9.9507245658599039  4.2475861341945196  1.4403671796069797
  8.5141623844217076  2.8345728093257136  2.8853879617297506
  9.9225281668036249  4.2734513102009064  4.3138339896828795
  8.5140476615611700  2.8589105184891070  5.7643295288080649
  9.8903501714112618  4.2983198731210726  7.2022736727263172
  8.5140514105037415  2.8589106142026028  8.6401543753722212
  9.9224437179229739  4.2734837244197470 10.0907313288669478
  8.5139474635394645  5.6835672706354865  0.0168043257319292
  9.9444187683746286  7.0988949266640011  1.4404484503393649
  8.5141515883086551  5.6835674656505288  2.8640922616666549
  9.9321963569966094  7.0988474364609768  4.2869232553430985
  8.5140950770083368  5.7001607975114164  5.7290136629468886
  9.8873564600446926  7.0988948827508835  7.2022420909152407
  8.5140040255644411  5.7001607475614104  8.6754704006480878
  9.9321966910291515  7.0989425278680525 10.1175605073599009
  8.5141515979559443  8.5142226741722755  0.0168043399300897
  9.9507245470813359  9.9502038215691879  1.4405296676619126
  8.5139475020109057  8.5142224533251110  2.8640922660904651
  9.9224436461200032  9.9243059261095734  4.3137524781566814
  8.5140040281103939  8.4976291619048361  5.7290136873061446
  9.8903502183422844  9.8994701490044683  7.2022104958443736
  8.5140950682434955  8.4976291238527892  8.6754703798324169
  9.9225283573072591  9.9243388281892564 10.0906498820609212
  2.8380165250304139 -0.0568083012932254  1.4404343485777535
  2.8380166332955370  2.8963663159168722  1.4404345189602414
