Fe
 1.0000000000000000
    11.3557869851974456    0.0000000000000000    0.0000000000000000
     0.0000000000000000   11.3488078151544869    0.0000000000000000
     0.0000000000000000    0.0000000000000000   11.3557869925642976
 Fe 
 126
Cartesian
  0.0660996375972037  0.0790081411836190  0.0660751688373832
  0.0660750535827941  0.0790079694286460  2.7728468482480970
  1.4192994210537311  1.4353983545330125  4.3042934391469316
  0.0005948837921629 -0.0011397671957194  5.6773576602691289
  1.4194735350227710  1.4285297711979081  7.0973669781151170
  0.0005902784189832 -0.0012561564088220  8.5173715868105297
  1.4196470223649424  1.4353986101144089  9.8904402333042825
  0.1141684452062155  2.8372020621846885  0.1141682787496149
  0.1141680259181560  2.8372018190761268  2.7247788208008941
  1.4196471911520399  4.2390051960471595  4.3042933313177345
 -0.0112146757969932  2.8372398706758077  5.6883178546834543
  1.4194732320571892  4.2458736557506764  7.0973670027990785
 -0.0112148663529481  2.8371642048973755  8.5064159357447515
  1.4192994964165020  4.2390053519622901  9.8904404421415446
  0.0660751196921819  5.5953960439242287  0.0660997433498125
  1.4194733780441828  7.1356505331899882  1.4194733201469660
  0.0660998092788123  5.5953958093226808  2.7728714540576811
  1.4195216072825418  7.0752471502127907  4.2324852622669660
  0.0005900580791096  5.6756598002986758  5.6773620141844061
  1.4194731727091643  7.0838880786503919  7.0973667542899124
  0.0005950417930175  5.6755437766795289  8.5173755515454914
  1.4194251779287239  7.0752471185332970  9.9622486934074228
 -0.0037590422688596  8.5116057568124432 -0.0037590366404525
  1.4194734957483353  9.8875614313045848  1.4194735261039113
 -0.0037592240447007  8.5116058373137218  2.8427059664726344
  1.4194246764718097  9.9479645510395063  4.2324848855437791
  0.0026734298769627  8.5116620573608373  5.6750174554327977
  1.4194734677084311  9.9393234275745250  7.0973668594730785
  0.0026737651647401  8.5115497264167281  8.5197161891678768
  1.4195217452026350  9.9479645843028006  9.9622485762191264
  2.7728716719448050  0.0790081532733631  0.0660997678550681
  4.3042938785787452  1.4353985568023429  1.4196473268202208
  2.7728468859740780  0.0790080532436925  2.7728716237426720
  4.2255078513456068  1.4368909982284546  4.2254967280054583
  2.8383564830608501 -0.0012562285968954  5.6773620232337292
  4.2475061986280434  1.4202708743875663  7.0973224469909884
  2.8383515635402250 -0.0011396985374246  8.5173756470980848
  4.2254965390581249  1.4368912083636514  9.9692259859090910
  2.7247785200878254  2.8372019102573520  0.1141683404607075
  4.3042935136213591  4.2390053097630149  1.4192995417034246
  2.7247787025705863  2.8372019351702886  2.7247787930770668
  4.2254965734772494  4.2375128883205200  4.2255074542082580
  2.8501617147042726  2.8371641732560020  5.6883175351528665
  4.2475062843032632  4.2541333077587975  7.0974112808481360
  2.8501617720034780  2.8372398902756459  8.5064159449064842
  4.2255079371358528  4.2375128200272920  9.9692368248936365
  2.7728470468081583  5.5953957145745603  0.0660753498565641
  4.2324850239691827  7.0752473832688265  1.4194250495078198
  2.7728713155213107  5.5953958970715201  2.7728469448099831
  4.2272029554693882  7.0662543237172866  4.2271877064048251
  2.8383518152256126  5.6755437572903267  5.6773578029039191
  4.2494591264655233  7.0902020404684345  7.0973598019753741
  2.8383562460009979  5.6756599740288554  8.5173718235479914
  4.2271878299502470  7.0662545297862023  9.9675306728501525
  2.8427060024878616  8.5116061394400511 -0.0037593641570200
  4.2324847406426809  9.9479644668183305  1.4195217771438506
  2.8427057446532085  8.5116058626024671  2.8427059753254684
  4.2271877376263332  9.9569572346812105  4.2272031149343272
  2.8362733817945389  8.5115498995321381  5.6750174615126978
  4.2494589473562447  9.9330100267712833  7.0973738901155201
  2.8362734618281773  8.5116621113823783  8.5197163823420023
  4.2272028169111096  9.9569574802968646  9.9675461044156766
  5.6773620086784744 -0.0012559184298273  0.0005904848879192
  7.0973669624920230  1.4285298037498495  1.4194733529477528
  5.6773580626244140 -0.0011397776606580  2.8383516800083357
  7.0974113630201243  1.4202708648679012  4.2475062501783993
  5.6697088380821352  0.0036588659134024  5.6697702468139886
  7.0973670060975946  1.4191500087244886  7.0973668198548978
  5.6697703424585226  0.0036590175352057  8.5250252419608863
  7.0973228778365653  1.4202704481697515  9.9472276401699755
  5.6883178257472622  2.8371640333977712 -0.0112149284196883
  7.0973669625130142  4.2458739277194786  1.4194733952150596
  5.6883175394676666  2.8372398978567563  2.8501614483880879
  7.0973221836064955  4.2541331117778727  4.2475061938680927
  5.6777328617998277  2.8372018688552001  5.6777327642244302
  7.0973667773164122  4.2552539271799814  7.0973668327642212
  5.6777331362935755  2.8372018647346748  8.5170008178584489
  7.0974112392910929  4.2541329651737447  9.9472276345934869
  5.6773583029128547  5.6755437708408207  0.0005951721788777
  7.0973668427236012  7.0838880300744531  1.4194731738006663
  5.6773618727626838  5.6756599511983969  2.8383563343194056
  7.0973738151412249  7.0902021128033841  4.2494589546445605
  5.6697703377551134  5.6707447337277364  5.6697087382619715
  7.0973664689128011  7.0986080655196817  7.0973666733874152
  5.6697089021496332  5.6707446741459604  8.5249634247562120
  7.0973598044206545  7.0902020580599094  9.9452749631794912
  5.6750177747102626  8.5115498422107443  0.0026735336767091
  7.0973670153577952  9.9393238047509449  1.4194730732801575
  5.6750175100478950  8.5116620470193496  2.8362735242910291
  7.0973599229959818  9.9330096564630281  4.2494590513222494
  5.6555319994674944  8.5116057977535178  5.6555317412795727
  7.0973668985406944  9.9246037959061351  7.0973668295444234
  5.6555319952557550  8.5116060422895838  8.5392016185695301
  7.0973742904728727  9.9330097981763998  9.9452748715174053
  8.5173755874611601 -0.0011397026702451  0.0005953354862048
  9.8904399967371734  1.4353987627145508  1.4192997343102309
  8.5173715541897597 -0.0012562419372917  2.8383563142203161
  9.9692366580727114  1.4368907222473348  4.2255074849116490
  8.5249634478642147  0.0036591300477510  5.6697087304071285
  9.9472275617894326  1.4202707001719825  7.0974114175734178
  8.5250250642296752  0.0036594158705716  8.5249633047141931
  9.9692258479659284  1.4368908586668143  9.9692370686249507
  8.5064159955541641  2.8372400121598504 -0.0112147696540545
  9.8904402895766950  4.2390052778220015  1.4196469300280290
  8.5064160404338498  2.8371639124242831  2.8501616115128101
  9.9692261601082635  4.2375128493960306  4.2254968153145231
  8.5170008811633480  2.8372020620015568  5.6777328126722653
  9.9472273284145203  4.2541331788658399  7.0973224263766079
  8.5170011405211987  2.8372018533186929  8.5170008971962261
  9.9692369255505540  4.2375129069377069  9.9692261894429954
  8.5173717164192571  5.6756597538698923  0.0005904063121274
  9.9622487882788846  7.0752472132153876  1.4195217390878543
  8.5173760251772563  5.6755436179395709  2.8383517388998780
  9.9675460484477547  7.0662541225309532  4.2272027172623350
  8.5250249111438965  5.6707448509802898  5.6697703054960042
  9.9452748459784033  7.0902018641444959  7.0973738942524642
  8.5249632636969395  5.6707448578949871  8.5250250617310304
  9.9675308099321995  7.0662542397834009  9.9675458747440864
  8.5197161466534830  8.5116619146914569  0.0026737337426129
  9.9622488523348753  9.9479644423991935  1.4194250616672723
  8.5197162098339501  8.5115496503789885  2.8362731520366595
  9.9675307524454038  9.9569573211204236  4.2271876891594760
  8.5392017519020715  8.5116058027504113  5.6555317637232907
  9.9452751899168010  9.9330099902172222  7.0973599948317201
  8.5392017035490309  8.5116058923436899  8.5392018254586048
  9.9675460665413915  9.9569572804673232  9.9675307115988385
