Fe
 1.0000000000000000
    11.3709228480380151    0.0000000000000000    0.0000000000000000
     0.0000000000000000   11.3709228549647143    0.0000000000000000
     0.0000000000000000    0.0000000000000000   11.3709228510100715
 Fe 
 127
Cartesian
  0.0531200401730410  0.0531201800685421  0.0531199650006009
  0.0531200422936044  0.0531200162179985  2.7896106388908826
  1.4213655008168102  1.4213652642290984  4.3045978944760623
 -0.0019947106271254 -0.0019101920267598  5.6870203334128853
  1.4213654315345003  1.4213653987761157  7.1068265418930343
 -0.0019102171145175 -0.0019947072555843  8.5266332636233564
  1.4213654352542815  1.4213653610539805  9.9090558416061008
  0.0531200934078673  2.7896106308312394  0.0531198714857996
  1.4213653193508224  4.3045981439762553  1.4213653068581422
  0.0531200859026014  2.7896106252134825  2.7896106439446324
  1.4213652459678316  4.2524515913109351  4.2524515017073234
 -0.0019100304652617  2.8447254243719238  5.6870203702749560
  1.4213653225493954  4.2553417919777461  7.1068267158964211
 -0.0019947636463213  2.8446409495568301  8.5266332161355010
  1.4213653947822280  4.2524515217412198  9.9612020452672905
 -0.0019101679569551  5.6870201558746949 -0.0019946024752933
  1.4213653129046873  7.1068266692104016  1.4213654309864419
 -0.0019946895755884  5.6870202543711690  2.8446408021529379
  1.4213653710409841  7.1068268369572154  4.2553418644905028
  0.0007989828834367  5.6852026209721096  5.6851604545053664
  1.4213653373914303  7.1068268246927468  7.1068266496879771
  0.0007988723511008  5.6851603676294360  8.5284507902524425
  1.4213655438634873  7.1068266884147766  9.9583117165447508
 -0.0019946544995930  8.5266333525307161 -0.0019101604390406
  1.4213652288009826  9.9090554949048251  1.4213654541229976
 -0.0019100264496816  8.5266332152047717  2.8447254635566153
  1.4213655308931599  9.9612021135716304  4.2524514805837113
  0.0007990473938535  8.5284930980943514  5.6852027026040348
  1.4213652309982772  9.9583117526116780  7.1068267235922011
  0.0007989896505394  8.5284509060065989  8.5284931243344371
  1.4213654020527702  9.9612020884370569  9.9612020481801427
  2.7896106833040566  0.0531200889421645  0.0531198861983992
  4.3045978455815632  1.4213653537639452  1.4213653219892868
  2.7896105899598291  0.0531200795340965  2.7896108496694758
  4.2524514068282864  1.4213653026028901  4.2524514785440353
  2.8446408913657404 -0.0019947041280320  5.6870201379954564
  4.2553418314215685  1.4213654391742974  7.1068266982970876
  2.8447253479908703 -0.0019102515760630  8.5266334353853175
  4.2524513544575360  1.4213653785862059  9.9612021625926825
  2.7896106186687462  2.7896105996113700  0.0531198963043950
  4.2524515088721291  4.2524515952547155  1.4213653936032211
  2.7896107513047896  2.7896105805165994  2.7896106157621956
  4.2462338709729570  4.2462338793214514  4.2462336565124366
  2.8447252646669572  2.8446406576076568  5.6870203448114172
  4.2593576637496993  4.2593578272237744  7.1068268638069938
  2.8446408269124470  2.8447254753146467  8.5266333844294806
  4.2462336567564432  4.2462338011747915  9.9674197271294034
  2.8447253789878606  5.6870200911618829 -0.0019101932096359
  4.2553420156603208  7.1068267908243330  1.4213653133818223
  2.8446407380766869  5.6870201983292770  2.8447252998659898
  4.2593577617232556  7.1068266877597663  4.2593578224355806
  2.8419317558046915  5.6851603085635354  5.6852027444590378
  4.2621379514661761  7.1068267538634435  7.1068267598303390
  2.8419318277319010  5.6852026624996350  8.5284932164148000
  4.2593575863195730  7.1068267742543298  9.9542959035248142
  2.8446409738308915  8.5266334019407832 -0.0019948200521898
  4.2524516943940833  9.9612019085625256  1.4213651762801820
  2.8447253540815214  8.5266333404868320  2.8446408143402220
  4.2462336523752979  9.9674197732007084  4.2462337283932392
  2.8419316858141377  8.5284509612218624  5.6851603533596800
  4.2593577140382717  9.9542957716097789  7.1068269053919053
  2.8419317487316431  8.5284932225751167  8.5284509483994260
  4.2462337412539295  9.9674197671182743  9.9674198933243883
  5.6870202197777564 -0.0019947512783617 -0.0019101031561218
  7.1068268910629531  1.4213653878041901  1.4213653919864164
  5.6870204288606390 -0.0019101137940514  2.8447254647456433
  7.1068266846506072  1.4213652084401760  4.2553418618222620
  5.6851604771536293  0.0007991600408424  5.6852026583117592
  7.1068267268825487  1.4213653246266236  7.1068266644341040
  5.6852028286580794  0.0007990016461996  8.5284931923355725
  7.1068266879627400  1.4213656101971355  9.9583117063292299
  5.6870203633388057  2.8446408203307993 -0.0019947762563648
  7.1068268651103548  4.2553418168933330  1.4213654448741679
  5.6870203425680455  2.8447253899857565  2.8446409605840319
  7.1068266396854387  4.2593577155479254  4.2593576284068684
  5.6852026641250193  2.8419315716123665  5.6851603861548474
  7.1068267296057916  4.2621379103663157  7.1068269051164332
  5.6851604658794415  2.8419317326710019  8.5284509656301157
  7.1068267671772638  4.2593576798043395  9.9542958113391364
  5.6852026402447917  5.6851603725222022  0.0007991400696717
  7.1068267097965547  7.1068267331590853  1.4213654564004363
  5.6851603754610984  5.6852026234790172  2.8419317228973933
  7.1068266958025044  7.1068267405826111  4.2621380623679190
  5.6775692351211120  5.6775692458020162  5.6775691567016473
  7.1068267209307567  7.1068267537037642  7.1068267213144800
  5.6775691140626803  5.6775692047986759  8.5360842215294941
  7.1068268822348486  7.1068267016151569  9.9515156045748121
  5.6851604193744043  8.5284509949445262  0.0007991191524199
  7.1068267373786451  9.9583116843742179  1.4213653523083785
  5.6852027515834207  8.5284930689931038  2.8419316269862942
  7.1068268077048469  9.9542960022525140  4.2593577346130331
  5.6775692011586631  8.5360842976859352  5.6775692618129785
  7.1068268257216882  9.9515157199346849  7.1068268826918191
  5.6775692747021527  8.5360843271530662  8.5360842689747631
  7.1068268124346154  9.9542958811410696  9.9542957797981266
  8.5266334778926289 -0.0019101613188428 -0.0019945890365444
  9.9090554513912892  1.4213653302885025  1.4213651801797043
  8.5266334063695286 -0.0019947042985535  2.8446408040593365
  9.9612020764541285  1.4213653322473292  4.2524515163132026
  8.5284508681579378  0.0007989784279524  5.6851604786142298
  9.9583116991370009  1.4213654071423354  7.1068266571438814
  8.5284930634407470  0.0007989742357892  8.5284507489291759
  9.9612020617839470  1.4213654203291606  9.9612021978441820
  8.5266332557909070  2.8447253100015915 -0.0019101690173309
  9.9612019793235369  4.2524515923049444  1.4213654036429653
  8.5266332715354718  2.8446408985069298  2.8447252548254194
  9.9674198653700454  4.2462338364720544  4.2462337174509628
  8.5284931094643284  2.8419316977758502  5.6852028115176250
  9.9542958108280555  4.2593577297288254  7.1068269112662374
  8.5284507861968226  2.8419317822065771  8.5284930824208764
  9.9674197604960497  4.2462337954939864  9.9674196585675645
  8.5284931929598660  5.6852027150535003  0.0007989855377864
  9.9583116460928522  7.1068267223242412  1.4213654008113079
  8.5284509145874559  5.6851602976917492  2.8419316581306346
  9.9542958158195347  7.1068268450382037  4.2593576601572627
  8.5360842940709194  5.6775692772668913  5.6775693339026914
  9.9515155171147125  7.1068268154557908  7.1068267866749064
  8.5360843240047046  5.6775693083328358  8.5360843048178268
  9.9542957230810778  7.1068267568210626  9.9542958203469691
  8.5284509889426428  8.5284931985243055  0.0007989355382974
  9.9612020542884849  9.9612020914084436  1.4213651693133960
  8.5284931885833828  8.5284508217497734  2.8419318393678421
  9.9674198181425169  9.9674197490585144  4.2462337474315008
  8.5360842884912369  8.5360842986052461  5.6775692071093928
  9.9542958001352968  9.9542958197061484  7.1068269545479552
  8.5360842806880974  8.5360842629082363  8.5360843196955116
  9.9674198818352178  9.9674197241851559  9.9674198222407284
