Fe C 
 1.0000000000000000
    11.3652812941578141    0.0000000000000000    0.0000000000000000
     0.0000000000000000   11.3652812847985167    0.0000000000000000
     0.0000000000000000    0.0000000000000000   11.4673573613817155
 Fe  C  
 128   1
Cartesian
  0.0415433628883391  0.0415432332943780  0.0000010113092404
  1.4206602408664877  1.4206600993895795  1.8274336986157136
 -0.0393894486558033 -0.0392534727478046  2.9330535134197238
  1.4206601727819159  1.4206601853091501  4.3557010568063914
 -0.0246407000438876 -0.0246407561602901  5.7336785781868809
  1.4206602516962692  1.4206601926913878  7.1116578606583492
 -0.0392524151112942 -0.0393885500287891  8.5343042071580779
  1.4206601078519208  1.4206601948180735  9.6398974776125410
  0.0415433310086297  2.7997769387023368  0.0000010633245424
  1.4205890027873451  4.2507186059366058  1.4873227089057861
 -0.0392534480344193  2.8807097755362592  2.9330535197526530
  1.4209746191377373  4.2675007650088927  4.3201957016093457
 -0.0246406900919755  2.8659610990139970  5.7336786123932599
  1.4203457063152065  4.2675004747828442  7.1471615038736269
 -0.0393886024796842  2.8805728463895282  8.5343042254954895
  1.4207313382629698  4.2507185134428331  9.9800348437914916
  0.0150438235657857  5.6649129586898637  0.0000373462484252
  1.4206601192242028  7.1033008111401212  1.4457139548989799
 -0.0136660601071020  5.6931527149789698  2.8802961439323349
  1.4206601443561619  7.1033008132755100  4.3039090117407941
 -0.0111542950392137  5.7020064630371321  5.7336535240620110
  1.4206601346717003  7.1033007831946744  7.1634481816058670
 -0.0136357177437943  5.6930341355576966  8.5870307983626262
  1.4206601230193694  7.1033007482936155 10.0216432343019068
  0.0150438719392645  8.5416886283497035 -0.0000372023485660
  1.4207313957975432  9.9558829082925762  1.4873226856826818
 -0.0136357717592739  8.5135673921606436  2.8803265484890810
  1.4203457331277480  9.9391008538823087  4.3201957721014539
 -0.0111541812427334  8.5045951345106587  5.7337036290964907
  1.4209746244030781  9.9391010714080803  7.1471616404285525
 -0.0136661343758008  8.5134490142528563  8.5870610060751318
  1.4205890147381459  9.9558829803235263  9.9800349153000507
  2.7997770377305069  0.0415433435220087  0.0000010563843043
  4.2507187006318041  1.4207313640343564  1.4873227539931821
  2.8805737836532219 -0.0393894778134552  2.9330534124517236
  4.2675007620892584  1.4203456070612770  4.3201957131596691
  2.8659610650513563 -0.0246406838123018  5.7336785535718304
  4.2675004704718527  1.4209745562605842  7.1471615275372669
  2.8807088234078644 -0.0392525060633550  8.5343042879082009
  4.2507185296190206  1.4205889463881669  9.9800350118137988
  2.7997770941280051  2.7997770934899595  0.0000009912735061
  4.2520777457866155  4.2520505880199648  1.4339824738116689
  2.8807097980551291  2.8805738166049628  2.9330534799381760
  4.2919684127807196  4.2918777320513186  4.3238024913536517
  2.8659610680415999  2.8659610331849228  5.7336785933153678
  4.2918775227128734  4.2919681962258451  7.1435549436818278
  2.8805727882480636  2.8807088028612520  8.5343042169645216
  4.2520508493514981  4.2520778499677796 10.0333750085235689
  2.8262764763062607  5.6649130762069762 -0.0000372481445326
  4.2573333637538573  7.1032441040958050  1.4230021111256537
  2.8549560987222740  5.6930341810186702  2.8803264091625769
  4.2847384689216117  7.1032379302971531  4.2964612280694947
  2.8524745224002195  5.7020064488616304  5.7337035726776682
  4.2847385910134053  7.1033635384627862  7.1708960129949446
  2.8549864459449430  5.6931525384599873  8.5870610176278266
  4.2573336002189572  7.1033574565704400 10.0443552478782880
  2.8262765009567157  8.5416886209263421  0.0000371951463524
  4.2520505786367098  9.9545239251301201  1.4339824472770375
  2.8549863231505275  8.5134489334704710  2.8802962036159903
  4.2918777114654274  9.9146331261057341  4.3238024537117550
  2.8524745751924243  8.5045950738293854  5.7336535561105633
  4.2919682208511407  9.9147241218480211  7.1435549116213748
  2.8549562475239072  8.5135674246479773  8.5870307567251238
  4.2520779679616769  9.9545507093033425 10.0333749530515171
  5.6649131416055098  0.0150438893222472 -0.0000371458337530
  7.1033008351156539  1.4206600418870288  1.4457140243560607
  5.6930343401813168 -0.0136357230358669  2.8803265019323292
  7.1033008354824378  1.4206601109529546  4.3039089844831580
  5.7020064523129657 -0.0111542313874084  5.7337036504630348
  7.1033008788329646  1.4206601790606044  7.1634483493360230
  5.6931525085779953 -0.0136661031496729  8.5870611098120992
  7.1033007079631219  1.4206601053703602 10.0216432418042558
  5.6649130360249877  2.8262764438695802  0.0000372332796239
  7.1033574866982585  4.2573333216241718  1.4230020767851104
  5.6931527282028833  2.8549863804163231  2.8802962046410645
  7.1033636686478774  4.2847385137078886  4.2964612468551016
  5.7020065560154238  2.8524746377785926  5.7336535526732657
  7.1032379281783111  4.2847385288220607  7.1708959549812539
  5.6930342477235447  2.8549560423943929  8.5870307244419131
  7.1032440917364257  4.2573335708761721 10.0443552048091895
  5.6787423252067493  5.6787425145967125 -0.0000001604406988
  7.1033008836215901  7.1033007356378075  1.4199754365796762
  5.6845320294100627  5.6845565527704798  2.8448261487041124
  7.1033008443754477  7.1033008245898266  4.2659950049997208
  5.7106735582683461  5.7106735925206822  5.7336787134257090
  7.1033007659886875  7.1033007363994285  7.2013623598134950
  5.6845566737806639  5.6845322234218374  8.6225311375746703
  7.1033007823800602  7.1033007621469562 10.0473817256666447
  5.6787424741586010  8.5278591868246334 -0.0000000725989545
  7.1032441739248622  9.9492682874997804  1.4230020679858533
  5.6845565782744991  8.5220697066256257  2.8448262018705770
  7.1032379752396544  9.9218630291572225  4.2964612082566767
  5.7106737005675923  8.4959279742505398  5.7336786657156233
  7.1033637163770678  9.9218631516970710  7.1708960553174137
  5.6845321207723298  8.5220449099764721  8.6225311097038144
  7.1033575795806136  9.9492680061678396 10.0443552207317097
  8.5416886473150022  0.0150438949287385  0.0000372615103222
  9.9558830251989292  1.4205890390483924  1.4873226510403181
  8.5134489436064360 -0.0136661091971183  2.8802961804834117
  9.9391008518614328  1.4209746700508814  4.3201956427666266
  8.5045951186448434 -0.0111542833478826  5.7336535435314842
  9.9391011367232167  1.4203456761762063  7.1471615478743100
  8.5135674938505090 -0.0136358036527147  8.5870309017944173
  9.9558831586519183  1.4207313678686055  9.9800348826169465
  8.5416886360281996  2.8262764149323014 -0.0000371951798385
  9.9545509456938976  4.2520777130700127  1.4339824524426481
  8.5135673498322930  2.8549560243672047  2.8803264768156653
  9.9147239397089297  4.2919684499883486  4.3238024904993635
  8.5045950973357112  2.8524745292030032  5.7337035224778310
  9.9146333768617456  4.2918775455810927  7.1435550356190625
  8.5134490849166475  2.8549863669543409  8.5870610294839764
  9.9545237386013916  4.2520506852539235 10.0333749981314622
  8.5278592368949031  5.6787424698656661 -0.0000000789807128
  9.9492683138924463  7.1033574764613547  1.4230020325568045
  8.5220450000800625  5.6845320082533233  2.8448261865942621
  9.9218630402558219  7.1033636506475908  4.2964612362444816
  8.4959279329473905  5.7106735668386372  5.7336786274443021
  9.9218630049128418  7.1032379753316111  7.1708960744973309
  8.5220694536447308  5.6845565936271019  8.6225312212431664
  9.9492680297843439  7.1032441644729269 10.0443552373499863
  8.5278592388628436  8.5278591942830406 -0.0000001433212686
  9.9545239061477062  9.9545509394111225  1.4339825397907953
  8.5220695962487998  8.5220450278457420  2.8448261794700773
  9.9146331778903729  9.9147239604912141  4.3238024534232071
  8.4959279832574506  8.4959279829202519  5.7336786755485205
  9.9147240478606768  9.9146333053836777  7.1435550260181291
  8.5220450006230397  8.5220693741772511  8.6225311943735967
  9.9545507958047512  9.9545236215436432 10.0333750305079921
  1.4206601958625562  1.4206602343490262  0.0000197335642891
