Fe C 
 1.0000000000000000
    11.3729985031985965    0.0000000000000000    0.0000000000000000
     0.0000000000000000   11.3729279090199622    0.0000000000000000
     0.0000000000000000    0.0000000000000000   11.3824798155486704
 Fe  C  
 126   1
Cartesian
 -0.0047880244316124  0.0232489930826165  0.0303352254856182
  0.0779262206806888  0.0569717861810262  2.7412777925270593
  1.4209534466435791  1.4224501627154460  4.4379784170997807
 -0.0044819612543772 -0.0103788048281337  5.7063370958959760
  1.4195705725472698  1.4236497436565105  7.1469552984665139
  0.0001821178078973 -0.0084038978773984  8.5507450725350278
  1.4623768270693025  1.3811367260865717  9.9766199771114596
  0.0499444366394832  2.7929261661011160  0.0420661817062486
  1.4215635224585952  4.3313481706240733  1.4161089266441995
  0.0775438172947627  2.7653309058907483  2.7481295314719545
  1.4262413281139634  4.2142548861938849  4.2488247286191969
 -0.0066708256543007  2.8499267006273463  5.7035999725118778
  1.4219404597872134  4.2544805000215069  7.1302725824485069
  0.0028455442527715  2.8403083082128249  8.5548917373420021
  1.4195053786691141  4.2655273126428934  9.9645848024952084
 -0.0020616125712546  5.6909230734817235 -0.0011667789408762
  1.4202833914749169  7.1111057769202697  1.4142510825735812
  0.0048486580803229  5.6894915466493812  2.8474603923602895
  1.4222583407378184  7.1113898388225314  4.2732080097790375
  0.0072043593206890  5.6797420677936339  5.6900753175255803
  1.4201085069081723  7.1056230433947842  7.1230335340284325
 -0.0027802150423709  5.6926266473418465  8.5423334818774332
  1.4179160673381954  7.1058458605597137  9.9627411992798471
  0.0009377944339938  8.5314979487732234 -0.0019071461126337
  1.4619758909225740  9.9332805625520173  1.3762453016063623
  0.0126057088940511  8.5385888680269542  2.8358701940604498
  1.4184819053536641  9.9909049649663455  4.2632065969771791
  0.0052093506714415  8.5362908805145832  5.6909981219466896
  1.4175607748965726  9.9577793242270722  7.1320543518692441
  0.0082036659362262  8.5349674368569808  8.5554828152897695
  1.4645931151881153 10.0001489219271189 10.0178207676345270
  4.2832659368279336  1.3811898016780579  1.3762369421149780
  2.7838439169844595  0.0595477934308861  2.8174740987874536
  4.2254502828104918  1.4254183565220124  4.2634462921438692
  2.8520525199239533 -0.0087091779176817  5.7075990811143260
  4.2584478253384113  1.4254327468862711  7.1319484848163137
  2.8501812580562960 -0.0067175658420146  8.5062569367743226
  4.2158781588838874  1.3791004013073180 10.0178896036207892
  2.8199414127289288  2.8484681399537815  0.0299898471141133
  4.2491732610480888  4.2508330339416478  1.4383825103261916
  2.7859596247584424  2.7652646034086259  2.7409203473896686
  4.2334563997643109  4.2329015675070902  4.2396728417331060
  2.8535117830842465  2.8477245745719131  5.7064556264316471
  4.2680735280977800  4.2698754394816918  7.1263358129132905
  2.8517109021174711  2.8434079357271460  8.5506184317128398
  4.2621731232615208  4.2595858498722219  9.9703703267983226
  2.8517668706906729  5.6910260450449224 -0.0019342481244584
  4.2660468296436171  7.1072381119485781  1.4317295458568260
  2.8438848960021255  5.6928860089474629  2.8443579402660046
  4.2637163051558167  7.1101524227579640  4.2743127499100897
  2.8385791085131031  5.6818428743698499  5.6919147609503549
  4.2656014942681129  7.1076508890314898  7.1106837719704332
  2.8471933713245847  5.6925559071718475  8.5473012939911008
  4.2746347551479875  7.1076423072732799  9.9589123407232503
  2.8534378516098680  8.4881138303808399 -0.0028502827844989
  4.1791833202432205 10.0370791541659088  1.3927030798355888
  2.8442184015330931  8.5373386315139044  2.8388462469131808
  4.2360246404189486  9.9802744122325624  4.2441516342796648
  2.8375905666023469  8.5425938320769159  5.6907900568466649
  4.2697062716194472  9.9464603551442572  7.1282840170067576
  2.8429171450583168  8.5345088979783412  8.5539605963396586
  4.2178732532050756  9.9982523150632883 10.0111330168993131
  5.7280076188681592 -0.0098569914816828 -0.0028258245150869
  7.1050904349409425  1.4229477418606831  1.4141774488815189
  5.6790466530681964 -0.0008999866463365  2.8389516957464855
  7.1049170022750587  1.4209355459378181  4.2733096217549242
  5.6735386530770393  0.0058410626279559  5.6908565002278095
  7.1105832097945081  1.4231081544285455  7.1229977718670909
  5.6816462270150536  0.0003606328429409  8.5540982520048860
  7.1102671167558942  1.4253275796062623  9.9626056287547691
  5.6846091884110610  2.8426019554211317 -0.0019632450327512
  7.1064534862310884  4.2647866470851961  1.4291761167176242
  5.6775334736989116  2.8306901838253391  2.8361979241525139
  7.1006293394822304  4.2578918606626983  4.2658624729827039
  5.6800870528650025  2.8382359009081419  5.6910591980654512
  7.1054138942178326  4.2624147600384221  7.1154712817664469
  5.6812348995331687  2.8350020855009510  8.5554349494517350
  7.1090284698237891  4.2735109364439854  9.9624173278461896
  5.6763619834086718  5.6813628121721518  0.0118461341074956
  7.1075811717360411  7.1086124135980207  1.4317534116558863
  5.6819677115248046  5.6840402473934919  2.8477504858907556
  7.1014635477605648  7.1147903597349407  4.2647423022896103
  5.6723358532678141  5.6737815445454629  5.6773044634599650
  7.1046410583897952  7.1115957364099813  7.1010711357222922
  5.6871512384402285  5.6860696820984664  8.5437635395993574
  7.1077435043915713  7.1083914351931066  9.9768234316894269
  5.6652313975289390  8.5508396787942775  0.0174793279041886
  7.1090344100489906  9.9502968215498218  1.4317449748555513
  5.6640522322697562  8.5523090677347628  2.8306811996789256
  7.1061058501703593  9.9523638719603227  4.2744971978866744
  5.6711466982351482  8.5451870993134627  5.6760686393778821
  7.1085528361505039  9.9505494897099140  7.1107901694954165
  5.6749651413252877  8.5412358521281533  8.5557087704680441
  7.1084767232307335  9.9414539110181810  9.9589803354515851
  8.5251969655422055 -0.0088090726913786 -0.0021577391557980
  9.8847854810465563  1.4215924352942526  1.4162704028602449
  8.5232895365034658 -0.0008179268861829  2.8446154484339670
 10.0019554272346607  1.4165738807537449  4.2489075341838030
  8.5342757182835598  0.0044706304796204  5.6919898496663528
  9.9617311044268391  1.4216418423987374  7.1303635451413241
  8.5237297347861940 -0.0040116162722396  8.5472520226004605
  9.9507345019437459  1.4229924445833511  9.9646864644251636
  8.5252750008575813  2.8449673159299427 -0.0010658688894607
  9.9792397833528028  4.2368311078092793  1.4342513837760629
  8.5264934307099232  2.8381603100699131  2.8474271675213032
  9.9896273106200084  4.2266667821572463  4.2333125418737598
  8.5366418692788422  2.8359172692501078  5.6901456316533094
  9.9535999090070302  4.2627326066462965  7.1320933984884629
  8.5236713971676288  2.8460021563290914  8.5424633943733088
  9.9608701234330930  4.2552766884776467  9.9767737761391988
  8.5340065536553631  5.6822104289411541  0.0128714615505993
  9.9514222548194304  7.1095126292448043  1.4291372654428507
  8.5324694741989617  5.6835255895978296  2.8464577022690789
  9.9583085456441616  7.1155712254402328  4.2657866535258879
  8.5423058068553193  5.6737984861551354  5.6752644606689202
  9.9538304424826034  7.1108703333826719  7.1154240392818302
  8.5285309843680466  5.6877116003818005  8.5446416815809005
  9.9426585894988868  7.1072708291203295  9.9624699959143772
  8.5346686825766866  8.5398823995788220  0.0119137045243464
  9.9652881388144507  9.9669851167161809  1.4384236883890205
  8.5322818450478088  8.5340731170267379  2.8477276496689008
  9.9832487518535693  9.9827644377770675  4.2395942477468038
  8.5426736603930546  8.5437657741702946  5.6773762271204067
  9.9464772571016482  9.9482517102114656  7.1263857685616170
  8.5301996303016647  8.5290487918746614  8.5438199310204332
  9.9568610550117160  9.9538669916930207  9.9706243567320438
  1.4359248499667692  1.4069641595990858  2.5592698352377381
