Fe C 
 1.0000000000000000
    11.4062259811087685    0.0000000000000000    0.0000000000000000
     0.0000000000000000   11.4039380971426372    0.0000000000000000
     0.0000000000000000    0.0000000000000000   11.4039381025094606
 Fe  C  
 127   2
Cartesian
 -0.0248091990017926  0.0399101751744446  0.0395943920470481
  0.0845493942086569  0.0584236987555549  2.7804618778254042
  1.4258934894117428  1.4506311344186129  4.3610813719947679
 -0.0084708276821100 -0.0100566979236496  5.6997028076984799
  1.4256969670618755  1.4326496739235075  7.1095742591513780
 -0.0218222681304204 -0.0189697526336508  8.5532109232251017
  1.4258986559501001  1.4520950518865590  9.7862484554769225
  0.0845251099211427  2.7804203846571998  0.0577078527199627
  1.4256631523645793  4.3610815471393334  1.4506311114369819
 -0.0067218254706155  2.8670810766382995  2.8670009385579922
  1.4257783067733236  4.2877829274852211  4.2877829579774200
 -0.0194752432912558  2.8700101894598911  5.7142558582446306
  1.4255853426299547  4.2687230641656537  7.1170679766144165
 -0.0236251464949670  2.8652260362604181  8.5474729770279918
  1.4262024023361695  4.2526267178518502  9.9779041312149168
 -0.0081443313181568  5.7001587510142269 -0.0101669334720989
  1.4258599342935254  7.1095743256024599  1.4326496526007031
 -0.0192840588922145  5.7147706901401980  2.8697733933179563
  1.4259711935264989  7.1170679708382183  4.2687230425895688
 -0.0089018282599592  5.7063910097367732  5.7063435547364234
  1.4257782349492696  7.1175313602056045  7.1175313374099662
 -0.0072170890416757  5.6932281227466124  8.5423135635145204
  1.4257848144159539  7.1041770677623735  9.9748376580176572
 -0.0217603444530341  8.5528547638597345 -0.0191191359055774
  1.4256589860554008  9.7862484369616247  1.4520950297096591
 -0.0236662683683618  8.5475538952332641  2.8651518396260247
  1.4253546480765886  9.9779041735011553  4.2526266419613830
 -0.0072530373720715  8.5423203499524725  5.6935428346852985
  1.4257722835752189  9.9748376455959633  7.1041770397618151
 -0.0143725463676130  8.5358128761915228  8.5360674128582001
  1.4257776789591430  9.9782044239066003  9.9782045379425828
  2.8763718051457596  0.0395896689209145  0.0399055787701884
  4.4113842356686570  1.4562503188686409  1.4564477644427722
  2.7670288103671843  0.0577099356394953  2.7804172170009100
  4.2637516602600067  1.4180795848590584  4.2607490220428570
  2.8597009679736454 -0.0101668357145535  5.7001584348118257
  4.2800341413015532  1.4242856845704845  7.1076719424238499
  2.8733170865686541 -0.0191195812006818  8.5528547418670140
  4.2543521289730526  1.4274446685145796  9.9894064129592284
  2.7670044483422167  2.7804586315994437  0.0584258267065424
  4.2641455634357976  4.2606532725472528  1.4186448789072199
  2.8582790875758239  2.8670018719281121  2.8670819722576959
  4.2890850975627117  4.2864488204083973  4.2865366984944497
  2.8708406679001239  2.8697735571634566  5.7147705797487136
  4.2950377416480086  4.2837679416589873  7.1144295170797642
  2.8752229437157273  2.8651520274348585  8.5475534920645462
  4.2619687733793787  4.2557850794055776  9.9924310603618682
  2.8600273786982711  5.6997024022464116 -0.0100564242387312
  4.2800065402519634  7.1076444020484661  1.4240712343291959
  2.8710319405225206  5.7142555539835396  2.8700102755945207
  4.2950932331719551  7.1144762207606176  4.2836232801304339
  2.8604582356617936  5.7063435525185611  5.7063911070946141
  4.2907614595636421  7.1225617532290633  7.1224455924122125
  2.8588096795092812  5.6935426964494038  8.5423202181012492
  4.2934278827827264  7.1104945713899266  9.9655503246398691
  2.8733789989173713  8.5532108911550893 -0.0189700917730350
  4.2549634488217540  9.9886096373057711  1.4277385393344275
  2.8751817801611388  8.5474724441926142  2.8652262332368270
  4.2618781319647612  9.9922763637444856  4.2557942097020005
  2.8587738367009172  8.5423134019562319  5.6932279562083323
  4.2936950048887805  9.9655398610654977  7.1105033291245343
  2.8659291857458222  8.5360670097811315  8.5358126006497255
  4.2616772224520147  9.9915370583776628  9.9915258872985291
  5.7094614618013431 -0.0121130179076623 -0.0119612499626707
  7.1288906044703486  1.4386482661389750  1.4386483048298786
  5.7151387467436567 -0.0175034170791274  2.8562138178642544
  7.1289019040919497  1.4216752255575700  4.2722997163791261
  5.7092270946869279 -0.0037667369643263  5.6946294508588995
  7.1288885574087253  1.4231777101364498  7.1140991744521020
  5.7082817002494286 -0.0007615353182188  8.5524207086322690
  7.1288586117606050  1.4283467344975125  9.9735031645819454
  5.7153650903615825  2.8559957139209295 -0.0169735368108286
  7.1288803756681247  4.2722996733511325  1.4216751837447086
  5.7293137510946881  2.8805052854752935  2.8809751249265885
  7.1288910167631760  4.2921856384947326  4.2921856892032499
  5.7111110757139008  2.8487012767420943  5.6950040547104619
  7.1286756330384469  4.2732999306655284  7.1201164912290675
  5.7095869499526701  2.8498674518330058  8.5445440387514573
  7.1287593021033953  4.2819309528748857  9.9668176640600823
  5.7093001558801362  5.6946391609907874 -0.0036770378649376
  7.1288939004208727  7.1140991597312118  1.4231777461646644
  5.7111219392755723  5.6952933446436944  2.8488924072402191
  7.1291070949165789  7.1201164476255583  4.2732999541602883
  5.7114962164136855  5.7018334186956601  5.7017360387719362
  7.1288917715841853  7.1292119090897019  7.1292118954733210
  5.7039747198799242  5.6908663972184161  8.5523797550517831
  7.1289576058081705  7.1209407344641429  9.9744673003241058
  5.7082642477059800  8.5522109011030256 -0.0009136093237454
  7.1289231119009440  9.9735031974386494  1.4283467072404961
  5.7100479682648038  8.5445638083231490  2.8500051710792849
  7.1290228979866361  9.9668176811082763  4.2819309905468055
  5.7039669160850242  8.5522465502072968  5.6908084885782628
  7.1288251482589828  9.9744673380214621  7.1209407689793034
  5.7023315681296136  8.5565353143794063  8.5567503261638471
  7.1288911328313986  9.9659583448152844  9.9659584310328206
  8.5483208521739691 -0.0119608269039473 -0.0121127282559314
  9.8463974925729936  1.4564480169422587  1.4562505418589273
  8.5424172156900813 -0.0169737030170354  2.8559951375900030
  9.9936372291605693  1.4186449583016583  4.2606526259035142
  8.5484822209028675 -0.0036769396741253  5.6946392618338937
  9.9777757068948567  1.4240713661312752  7.1076444290998353
  8.5495183442964375 -0.0009134271808903  8.5522114779193430
 10.0028206194241989  1.4277366493390555  9.9886116294772318
  8.5426435279988020  2.8562133742784765 -0.0175034624501047
  9.9940311833439281  4.2607484163872922  1.4180796391138890
  8.5284683016850131  2.8809747782381629  2.8805050004696438
  9.9686977419267215  4.2865362759268324  4.2864483377344467
  8.5466604606328911  2.8488924370277737  5.6952934517914340
  9.9626892628515833  4.2836231924184203  7.1144764759344694
  8.5477344997771034  2.8500045191770491  8.5445643357028658
  9.9959039404579517  4.2557942277853682  9.9922757510569102
  8.5485552157824518  5.6946295881519102 -0.0037666884701212
  9.9777481288525998  7.1076719874691898  1.4242858243170808
  8.5466712587815774  5.6950039586254082  2.8487013008059447
  9.9627447962838751  7.1144297906260743  4.2837677838710668
  8.5462865388337939  5.7017357492175149  5.7018331424189412
  9.9670210410159399  7.1224457497186870  7.1225619768096511
  8.5538154850592978  5.6908085471541723  8.5522467454706739
  9.9640874130480181  7.1105036391141105  9.9655399499772219
  8.5495009916658766  8.5524213715414987 -0.0007612939978810
 10.0034319130535572  9.9894083221434418  1.4274427458092833
  8.5481955251858626  8.5445444560278947  2.8498666847819449
  9.9958134021393725  9.9924305853519169  4.2557851077593476
  8.5538078062692708  8.5523799701674914  5.6908666389429223
  9.9643545049950912  9.9655503483467136  7.1104948610054040
  8.5554519244876008  8.5567514255185007  8.5565364810713920
  9.9961072476986228  9.9915284072907706  9.9915397232009759
  1.4252797890136999  1.3038176737052782  0.3670813146600152
  1.4262676807924282  0.3670813618996996  1.3038177319938222
