Fe
 1.0000000000000000
    11.3709228576018848    0.0000000000000000    0.0000000000000000
     0.0000000000000000   11.3709228638936182    0.0000000000000000
     0.0000000000000000    0.0000000000000000   11.3709228634925985
 Fe 
 127
Cartesian
  0.0531199357187601  0.0531199567121267  0.0531200263481534
  0.0531199598513195  0.0531200621316492  2.7896107972937143
  1.4213652521441926  1.4213655061428558  4.3045980082270408
 -0.0019944864362564 -0.0019102223458380  5.6870202872501565
  1.4213652344751515  1.4213653200774883  7.1068267430695506
 -0.0019101133201634 -0.0019948850507667  8.5266331655466452
  1.4213654082742344  1.4213654119222026  9.9090555437922454
  0.0531199116825844  2.7896106415914375  0.0531200667687610
  1.4213653878830772  4.3045979721213286  1.4213652356247526
  0.0531199086126306  2.7896106463549688  2.7896107321085615
  1.4213655326269139  4.2524514302942489  4.2524516430208923
 -0.0019100747479280  2.8447254253371468  5.6870202430563106
  1.4213652998691801  4.2553418790329518  7.1068267086036885
 -0.0019946962833234  2.8446409979760854  8.5266332337921131
  1.4213655591933854  4.2524516274492870  9.9612020482139414
 -0.0019102188743570  5.6870202276484285 -0.0019947238639799
  1.4213653407112512  7.1068267193668806  1.4213653124746679
 -0.0019947298513376  5.6870202795880704  2.8446407846464821
  1.4213653386102301  7.1068267340755691  4.2553419061297157
  0.0007990575851020  5.6852026596794678  5.6851604157903459
  1.4213652664073972  7.1068269150715109  7.1068268084497026
  0.0007990283449516  5.6851604471555159  8.5284508687594478
  1.4213654493747738  7.1068267315668550  9.9583116297062908
 -0.0019946745839886  8.5266333571415913 -0.0019101118498912
  1.4213654581205788  9.9090555310200141  1.4213653161054576
 -0.0019102048579007  8.5266333111423442  2.8447254970396463
  1.4213652391744565  9.9612020515280957  4.2524516469657909
  0.0007989138999840  8.5284932204519208  5.6852026513326459
  1.4213652564198263  9.9583117991510317  7.1068267714662490
  0.0007990210052565  8.5284508050111114  8.5284930238740309
  1.4213654737899346  9.9612020260594818  9.9612019699180525
  2.7896107502353553  0.0531200780826719  0.0531200618707198
  4.3045978931091922  1.4213650703325631  1.4213652869521980
  2.7896108280770440  0.0531201446622180  2.7896106209642513
  4.2524514868394805  1.4213655450596923  4.2524514240356677
  2.8446407970960257 -0.0019948473329242  5.6870202586439902
  4.2553420372155077  1.4213652910708321  7.1068268077523475
  2.8447252503930724 -0.0019101735625782  8.5266333958348017
  4.2524514413261985  1.4213652597449939  9.9612021324134936
  2.7896106547458759  2.7896107501834284  0.0531199024608168
  4.2524515185173684  4.2524516975180511  1.4213653167420035
  2.7896105922651588  2.7896106843397352  2.7896108208467600
  4.2462337163380441  4.2462337932191323  4.2462336006101342
  2.8447252454948044  2.8446409191047377  5.6870201442682786
  4.2593578024241925  4.2593578997156936  7.1068268230152034
  2.8446406138968356  2.8447254903838695  8.5266334346125614
  4.2462335381176421  4.2462338290343382  9.9674198911246510
  2.8447254865449829  5.6870201581598616 -0.0019102219124216
  4.2553418891770374  7.1068268198492177  1.4213653477996788
  2.8446408840527564  5.6870202046395910  2.8447255086242471
  4.2593576653327236  7.1068268333040425  4.2593577078030709
  2.8419316678697468  5.6851603413655747  5.6852025452269555
  4.2621381647844192  7.1068268459434361  7.1068268048204031
  2.8419316402029082  5.6852027042993383  8.5284933590849370
  4.2593576048936130  7.1068267196005070  9.9542959129130928
  2.8446409215681259  8.5266333549684248 -0.0019946896798246
  4.2524513620071076  9.9612022034755832  1.4213652570945221
  2.8447254740300898  8.5266331651427247  2.8446408425798819
  4.2462335160579077  9.9674198141944093  4.2462337093924765
  2.8419317582323624  8.5284509840550555  5.6851603791308705
  4.2593577653287893  9.9542959650793801  7.1068267146846509
  2.8419316481935541  8.5284931219711382  8.5284509569924758
  4.2462336358073722  9.9674199454441723  9.9674199784124351
  5.6870200598060219 -0.0019947036789192 -0.0019101600078209
  7.1068269087627174  1.4213653594150468  1.4213652952327531
  5.6870202829345251 -0.0019101439560846  2.8447253390562555
  7.1068267431789307  1.4213655043754321  4.2553420542771612
  5.6851603516706417  0.0007991517074820  5.6852027615917820
  7.1068268550034928  1.4213654369419171  7.1068266616747309
  5.6852027327113266  0.0007991065436431  8.5284931587587209
  7.1068269591036808  1.4213654078221962  9.9583117515224622
  5.6870202725933972  2.8446408797272649 -0.0019948185257931
  7.1068267030265906  4.2553420263262947  1.4213653335500589
  5.6870202551698750  2.8447254518236060  2.8446409089332017
  7.1068265370416688  4.2593578183838288  4.2593576968663349
  5.6852027397308760  2.8419316449179446  5.6851604424485203
  7.1068267676118744  4.2621381434685581  7.1068267543964847
  5.6851604617966514  2.8419317539516991  8.5284507739721622
  7.1068266717454938  4.2593577737916473  9.9542958332913898
  5.6852026415255850  5.6851603032932392  0.0007990315902177
  7.1068268945554998  7.1068267813976975  1.4213654032753629
  5.6851604918221534  5.6852025660617338  2.8419316975871527
  7.1068268291227366  7.1068267879377016  4.2621380601911465
  5.6775693466989425  5.6775692276106806  5.6775693619502583
  7.1068269162983801  7.1068268524860594  7.1068268506786012
  5.6775692606508041  5.6775693458526879  8.5360842229220406
  7.1068268021161902  7.1068268110901442  9.9515153745564557
  5.6851601875673339  8.5284509670411790  0.0007989378356533
  7.1068267624707788  9.9583117069016804  1.4213654913288740
  5.6852027184638692  8.5284931636553125  2.8419317096417722
  7.1068267405940961  9.9542958542272331  4.2593576441593770
  5.6775692235931441  8.5360843970236235  5.6775693394933189
  7.1068267523480948  9.9515155033176388  7.1068268314749883
  5.6775694473447871  8.5360843376916904  8.5360842983797003
  7.1068267589448464  9.9542957779455943  9.9542958766720240
  8.5266334014030534 -0.0019100535280718 -0.0019947395916330
  9.9090555994226328  1.4213653832488369  1.4213652262831629
  8.5266333776808221 -0.0019946952341125  2.8446408526772338
  9.9612021725226345  1.4213655342380616  4.2524513164455833
  8.5284507838346837  0.0007991450839857  5.6851603461574172
  9.9583114868391593  1.4213654067405781  7.1068268591860866
  8.5284931785110789  0.0007991145739601  8.5284509956778720
  9.9612017921667722  1.4213653544198186  9.9612022316234494
  8.5266334112269035  2.8447251270531830 -0.0019101955785167
  9.9612021159082804  4.2524515534961926  1.4213652875894314
  8.5266334268953763  2.8446407538795242  2.8447253961929202
  9.9674198993599870  4.2462336046887197  4.2462335907099700
  8.5284930754067201  2.8419316842811462  5.6852027316701532
  9.9542959154167896  4.2593577024999183  7.1068268140533393
  8.5284508833762640  2.8419316755239974  8.5284931782595201
  9.9674200618258837  4.2462337222553126  9.9674199260772571
  8.5284932344194164  5.6852027086305137  0.0007991060365463
  9.9583115751134432  7.1068266909665203  1.4213653596219167
  8.5284509054886293  5.6851604360940096  2.8419315960473153
  9.9542958715815093  7.1068268542757540  4.2593575959178329
  8.5360841973445414  5.6775693062789694  5.6775693848568318
  9.9515155086773763  7.1068268097092622  7.1068267809334715
  8.5360841688897775  5.6775693833509706  8.5360842016260889
  9.9542959488599880  7.1068267432096430  9.9542959367974380
  8.5284510512736453  8.5284931772461174  0.0007991100110559
  9.9612020850026823  9.9612020223805224  1.4213654199081620
  8.5284931733727767  8.5284509003618147  2.8419316334785556
  9.9674199863497357  9.9674196958810075  4.2462335844694010
  8.5360843686167822  8.5360841300612886  5.6775692607817385
  9.9542959520416403  9.9542956841302583  7.1068266978216919
  8.5360842876744449  8.5360842021656129  8.5360842430967185
  9.9674199494424318  9.9674197878297832  9.9674199283089298
