Fe C 
 1.0000000000000000
    11.3446580256010083    0.0000000000000000    0.0000000000000000
     0.0000000000000000   11.4498701000752625    0.0000000000000000
     0.0000000000000000    0.0000000000000000   11.4672431796729466
 Fe  C  
 128   2
Cartesian
 -0.0209981473225772 -0.0834393881319205 -0.0531608389271186
  1.4469533776214165  1.4312558914094686  1.0602345480490885
  0.0551636613930540  0.0407764663568837  2.8701209197351942
  1.4237476349091809  1.4312955184796394  4.7159216519236162
 -0.0358591316575915 -0.0374911921074730  5.7990943337008085
  1.4298433707183991  1.4311233563717201  7.2309363458659632
 -0.0195801922564097 -0.0288981404063759  8.6068783600776282
  1.4379763577715357  1.4309503334880429  9.9966740718661260
 -0.0208264779828851  2.9458270758540142 -0.0533126660739118
  1.3868076721077791  4.3383847266656694  1.4337034736715297
  0.0556290132251323  2.8219296362081709  2.8701000541698516
  1.4079544934698487  4.2889379478996137  4.3552133639114619
 -0.0357474617541741  2.8999343752665538  5.7989848950153142
  1.4047769489812529  4.3171989491419565  7.1797000343866406
 -0.0194716105514640  2.8913234900314837  8.6067831547403024
  1.3752745562389179  4.3680762211892414  9.9816975491585218
 -0.0170362494150191  5.7526682790564783 -0.0030182012425004
  1.3940357833948167  7.1562848317655909  1.4526220334783255
 -0.0114965419878379  5.7276072193927474  2.8938334389265048
  1.4040090014279256  7.1563145421474115  4.3283943703395931
 -0.0326413744057308  5.7313224293048899  5.7426189977383153
  1.4038473242247087  7.1562077187771793  7.1562966860828858
 -0.0446074640809631  5.7684522299967034  8.5735601225403038
  1.3899904383486574  7.1561407033523849 10.0089994730500198
 -0.0170709045314862  8.5593771827499534 -0.0025647070178860
  1.3867416973322104  9.9740605795248278  1.4336613013290000
 -0.0115213485261974  8.5846375552300032  2.8938444155823255
  1.4080142850942130 10.0235549051175159  4.3552042022862505
 -0.0326407829821751  8.5811076391505825  5.7427804051621951
  1.4040767060369668  9.9951513696394709  7.1798644488492505
 -0.0447213418466210  8.5438813926556776  8.5738326792235977
  1.3755505589946624  9.9445381084663858  9.9820948293333114
  2.8716691991491756 -0.3960771841873704 -0.0611158502495480
  4.1955433423961503  1.4310624338399103  1.3213950229189984
  2.7885533907279894  0.0114562391501012  2.8572535013083029
  4.2243286968825320  1.4313855679555212  4.3485511407187198
  2.8724487497342346 -0.0597237445736501  5.8032667367738124
  4.2475611466235996  1.4310394837729905  7.1975336115314574
  2.8624041510296769 -0.0745918933240359  8.6036501041656859
  4.3082508670219433  1.4314224486697600  9.9873714989703526
  2.8715394564733763  3.2590539828836254 -0.0615045990832387
  4.2650723100091499  4.3347828477130390  1.4776371191892266
  2.7883130758646986  2.8508857659689437  2.8575228306287803
  4.2545299837609694  4.2979792726839650  4.3121918468846836
  2.8724355507714865  2.9220306802582567  5.8030959893476792
  4.2956805002846297  4.3392718292436827  7.1781195057826164
  2.8621050018704528  2.9370132672899207  8.6035724185504190
  4.3190786373770376  4.3790499482527352  9.9768123073214205
  2.8456799258959586  5.7868957626675241 -0.0094246407706987
  4.2697856715139348  7.1561994205396671  1.4721565370166509
  2.8209542610774947  5.7282039605825945  2.8789039541625505
  4.2611544342390699  7.1561610452639979  4.3093382285017467
  2.8443854214102755  5.7409353397967351  5.7452110853230023
  4.2866258444984515  7.1561767597278534  7.1448829841135906
  2.8470462988735670  5.7621327286690294  8.5959465562672772
  4.2970749586010895  7.1561564860221507 10.0170109554227107
  2.8458520769074331  8.5255157309586664 -0.0093800865923740
  4.2653778324081468  9.9774777977808462  1.4772853052985004
  2.8213460977420377  8.5843016263150425  2.8789523978229963
  4.2546368797902252 10.0142690842348276  4.3121560004507700
  2.8443741442598833  8.5713409179147568  5.7452237963160782
  4.2956941466661975  9.9729875016872693  7.1781170843297080
  2.8464430628619111  8.5501757123715318  8.5959997958221965
  4.3192128225329132  9.9332977577195969  9.9768014499809325
  5.6727967468925042 -0.0633163530772946 -0.0121136660928796
  7.0728119622445345  1.4313334179239525  1.4115598857000682
  5.6347630194088314  0.0221386328374347  2.8603451408536591
  7.0836889464842683  1.4311856226732123  4.3116329685831687
  5.6814715103835853 -0.0094926351326801  5.7464544269317024
  7.0865439790897788  1.4312264006313571  7.1754155771850918
  5.6873544823332454 -0.0255661050467731  8.5987903234153205
  7.0705689245787688  1.4313086732296876 10.0368609137935643
  5.6727147922241166  2.9258018012776508 -0.0123112383022617
  7.0950776418027850  4.2995660515970835  1.4577716184487910
  5.6343041432403114  2.8400219920419696  2.8604759479382178
  7.0898197794656994  4.2715889483456255  4.2894263180522421
  5.6815958123539527  2.8719983763136820  5.7464806274977036
  7.0997359775066347  4.3059492600103546  7.1606608407010057
  5.6875443057294710  2.8881398285981352  8.5988139184772976
  7.1018117687824560  4.3292056844555846 10.0254131429311908
  5.6714268123457012  5.7407241503034561  0.0265063651998700
  7.1022139822918815  7.1561469519604373  1.4584897465562028
  5.6909784596333459  5.7408040045208706  2.8925825740247579
  7.1135559139815481  7.1561499871903420  4.3066315926288050
  5.6954636665592204  5.7251026644365748  5.7095558968515006
  7.1180078819836288  7.1561391765987779  7.1061646052772449
  5.7261898608901847  5.7752561876094211  8.5731134081493447
  7.1038414959342324  7.1560361576171996 10.0626419121966659
  5.6715228987683153  8.5714499459582143  0.0258661313802834
  7.0954356585687357 10.0127372947539950  1.4576592235485517
  5.6911658135573715  8.5716245702524869  2.8924962160090568
  7.0898531100131787 10.0407261836817305  4.2894733556979459
  5.6956184319365519  8.5872781922644794  5.7094161258416367
  7.0996975883915221 10.0064213826199868  7.1607455534170166
  5.7261809646674751  8.5370454291067883  8.5731424803321090
  7.1018607153134381  9.9831057503011049 10.0254974323125960
  8.4984422229783600 -0.0221398801782587 -0.0109399380562329
  9.9474411140301662  1.4314041921635896  1.3799788975697407
  8.5229086614838216  0.0241384226946207  2.8644759809538916
  9.9463685762581147  1.4312874938321078  4.3481544559089222
  8.4985215127229790 -0.0031007586498747  5.7471127140209788
  9.9241291449265319  1.4315363899028934  7.1867372994305105
  8.4938729277671072 -0.0050689768334447  8.6023877241474107
  9.9366948615880322  1.4309643659306241 10.0316795162264079
  8.4984125104678796  2.8846289516116586 -0.0109104168704688
  9.9295025754988604  4.2893315602125757  1.4463316582496910
  8.5227079823646825  2.8385075038684744  2.8644215692070230
  9.9318909382669087  4.2668677614753667  4.3007426255089207
  8.4985894200649454  2.8655658749607467  5.7471462972850125
  9.8902659908845312  4.3106226638297223  7.1865726949610567
  8.4941120354944832  2.8676420360542343  8.6024210735905378
  9.8890001168214123  4.3348912776674293 10.0062944336437027
  8.5070216857921626  5.7286532365090705  0.0276600017374189
  9.9147490563325604  7.1561101388448920  1.4575436846921623
  8.5118049438937806  5.7178195103938387  2.8849966520305603
  9.9068661991121996  7.1561758031192850  4.3111845205467754
  8.5066514420344816  5.6998819727519336  5.7055024581793745
  9.8774871975467349  7.1562249806921292  7.1308941598533853
  8.4862914398330940  5.7552055353656897  8.5850313448334443
  9.8908715821520889  7.1560462630497863 10.0381485067118188
  8.5069492205787611  8.5835504273311081  0.0275958532016926
  9.9295733878324786 10.0227723156983064  1.4462819089418864
  8.5118852729620915  8.5943988863011516  2.8850643286105315
  9.9318260692282223 10.0454063714135220  4.3007269782536275
  8.5066709028737399  8.6123745596387966  5.7055208985705086
  9.8900964436016050 10.0017394302167304  7.1865760183133638
  8.4861771954435543  8.5570276207909863  8.5851181065712563
  9.8889435089331190  9.9773986939451387 10.0063238742675775
  2.9139513534617230  1.4314656788014117 -0.1928856783699993
  1.4274692547711816  1.4312643369697544  2.8967519443868563
