Fe C 
 1.0000000000000000
    11.3565237131456165    0.0000000000000000    0.0000000000000000
     0.0000000000000000   11.3565237059920676    0.0000000000000000
     0.0000000000000000    0.0000000000000000   11.5451184967089979
 Fe  C  
 128   2
Cartesian
 -0.0165995138131995 -0.0402603879672979 -0.0913203898385202
  1.5349126079931006  1.3038904162602116  1.1517826901831967
  0.0426674750572874  0.0409706371775326  2.9209796127069940
  1.3573364862765875  1.4823309544155669  4.7907038711875547
 -0.0444060421918364 -0.0391843214942817  5.8484070223644515
  1.3974182559761561  1.4417532809941609  7.2715016729229278
 -0.0252458046348854 -0.0198517864172183  8.6436655755212666
  1.3918034279870888  1.4472983714498309 10.0141476081690719
 -0.0113784650881108  2.8506077790948563 -0.0256882530534138
  1.4415045696206361  4.2428551004299964  1.4020384036222875
 -0.0007903952502029  2.8405182291219018  2.8595974093666050
  1.4020227864637005  4.2452295385875880  4.3812706749749681
 -0.0795729327081614  2.9188797005694234  5.8684670958502219
  1.4102009977093688  4.2758959002178258  7.2326906539436955
 -0.0391838992178077  2.8781221144761111  8.6499888544295302
  1.4102890802209871  4.2752990009209446 10.0762404884594314
 -0.0055523865455232  5.6854683200732952 -0.0025788173619764
  1.4319240279663672  7.1069245914110075  1.4290463791265362
  0.0108925403313033  5.6638775083048847  2.8763399876077393
  1.4035672122755336  7.0844351799929610  4.3552078954947895
 -0.0368149852893449  5.6829400130208727  5.7846148822151298
  1.4098538400113430  7.0800788149274183  7.2191588932929998
 -0.0296674069049576  5.6953575933507450  8.6641096257124364
  1.4102507912710245  7.0925183732172341 10.0865913902348119
 -0.0010109924451130  8.5207234654112458 -0.0086800475534235
  1.4605361975421920  9.9796254586071225  1.4084400489994675
  0.0208863016830090  8.5423485970733513  2.8816141740270895
  1.3793048954632201  9.9203585885672467  4.4207401786378089
 -0.0394768384279961  8.4818520224405454  5.8047420375154353
  1.3997136992142241  9.9117124515558412  7.2308724295592972
 -0.0367000328589088  8.4743200506955230  8.6364457576568192
  1.3803814302152604  9.8925522551399485 10.0261309101565068
  2.9018959978020664 -0.0622288461960611 -0.4612872731010911
  4.2155925355968407  1.3779345216824097  1.4089152371622164
  2.7234564875025113  0.1153469010826412  3.1776343092629471
  4.2753990669243116  1.4599181576439269  4.4206733158517331
  2.8668635745409548 -0.0277620597183597  5.8603905960432234
  4.2838638683664554  1.4389456486520411  7.2308339300081856
  2.8613187476579189 -0.0221471324110056  8.6030363790456725
  4.3029914994272316  1.4593137934105789 10.0262239420119244
  2.8794836473115737  2.8558335042895568 -0.0912536209195222
  4.2375451969150131  4.2336650294961560  1.4477893583937185
  2.7975000353792923  2.7960271760657411  2.9205045617862728
  4.2596982923609357  4.2551701115143130  4.3380927986496758
  2.8788791597705883  2.8834262800520265  5.8483138870097591
  4.2955173348257567  4.3016191611199108  7.2381507318368987
  2.8585111293191297  2.8642984099452256  8.6437039903658430
  4.2981353220162521  4.2943537650628425 10.0699039813084834
  2.8550862406958082  5.6919689353080862 -0.0256868298401236
  4.2478510969616323  7.1122598692792849  1.4533125034947787
  2.8268118556410804  5.6693376793171462  2.9005258119506436
  4.2643831062935638  7.0904838711726068  4.3320896130521716
  2.8484726225584232  5.6834803108597969  5.7880639223943673
  4.2884674711117086  7.0805862635818864  7.2103341913267958
  2.8489375046783083  5.6960742993385809  8.6553934485484252
  4.2955450344315462  7.0932482742965783 10.0898983761529717
  2.8568013637669858  8.5311056553824969 -0.0519283133572691
  4.2600840449013093  9.9361675979467989  1.4698221239653060
  2.8174629592062388  8.5333453779108659  2.9273753421283035
  4.2701733273473357  9.9255794942395461  4.3551077768616295
  2.8482291841662479  8.5007323692191878  5.7982496373548189
  4.2976877298539806  9.8977744061564064  7.2245491935676993
  2.8491641251149633  8.5001572217408228  8.6420184294652334
  4.3384451288948611  9.8573853809302392 10.0060711313939859
  5.6647948950185310 -0.0175426294149206 -0.0518513413176121
  7.0889032333299262  1.4072463625089191  1.4288936601381828
  5.6624208605460167  0.0219389958316213  2.9273811771708904
  7.1115344585923967  1.4355206272254812  4.3551063671524739
  5.6948643834452177 -0.0092767236943408  5.7982976645506552
  7.1156399078363011  1.4293721514875517  7.2191447172311252
  5.6954614828702601 -0.0093644233103728  8.6418474746169363
  7.1030456483227287  1.4289072100684779 10.0864742334438180
  5.6747354606154534  2.8401327088123631 -0.0086732325606483
  7.0946682134277266  4.2561057910520015  1.4483968922389956
  5.6532303903130119  2.8179796551234610  2.8816301979920778
  7.0972427351460077  4.2569917287534631  4.3032434591531574
  5.7139192162967616  2.8785697018154122  5.8046343447640467
  7.1220528816917783  4.3069627290883830  7.2138974518294283
  5.7211845050895072  2.8759517284318870  8.6363873324286686
  7.0958167278996802  4.2772106353285819 10.1260128447413678
  5.6765574787300279  5.6776772371314062  0.0261759845301201
  7.0955254284565790  7.1001243855997433  1.4535072897891703
  5.6756713515047306  5.6751027787045132  2.8810227486945426
  7.1040782087377785  7.0915847356542470  4.3086116344428511
  5.6967761159820860  5.6762510420067134  5.7485252805938227
  7.1246948196163480  7.0709117545225411  7.1758698758182389
  5.7265281417202987  5.7024873680633021  8.6606406228590114
  7.0930288799301140  7.1025121758211220 10.1496084662911432
  5.6681150505238955  8.5276601238745897  0.0210759311471444
  7.0834432019827123  9.9478507812623356  1.4530795972569308
  5.6754455748994550  8.5202363742638347  2.8955367993122803
  7.1050339783062357  9.9314059295255976  4.3319984512187046
  5.6977693288980422  8.4978515200559297  5.7665612993918947
  7.1149230276784845  9.9072908986946899  7.2104284950499249
  5.7322949171411555  8.4634268679203704  8.6215408450533406
  7.1025057984710172  9.9001431253920344 10.0899232662186513
  8.5040002659507525 -0.0159983009287196 -0.0257884216844072
  9.9529109425948512  1.3978974256393124  1.4020440380277741
  8.5264902518292942  0.0123584270671983  2.9003733717634450
  9.9506713888917311  1.4372358517151900  4.3813478701780992
  8.5120837266321470 -0.0093147571028433  5.7879467463462264
  9.9197227058783177  1.4295985215176341  7.2325195215493094
  8.4996442216055659 -0.0097118220907835  8.6553791178385246
  9.9202977399706658  1.4286635965807037 10.0762883862064339
  8.5100494639837123  2.8448179675866343 -0.0026701146385809
  9.9398019330842615  4.2558799775780534  1.4338823959919431
  8.5318252092729097  2.8282852322673238  2.8761067751941223
  9.9472256300700366  4.2485493649689294  4.3083437540090994
  8.5128134819731116  2.8759792945456280  5.7846396028608433
  9.8829923269275124  4.3127295248460005  7.2529973327438348
  8.5001520095832337  2.8689020884313599  8.6642039818035794
  9.9174172107098499  4.2782040095830807 10.1079766271182034
  8.5111499933571615  5.6845125718575806  0.0208076397069611
  9.9395361348228217  7.1008176159044947  1.4483374001869729
  8.5196898971457333  5.6759598695538962  2.8759121499976064
  9.9386232708109237  7.0983956399555073  4.3032696898038756
  8.5220776191945209  5.6734634140823745  5.7249295368857096
  9.8886626516214484  7.0736277536477337  7.2138952462257961
  8.4904774275059633  5.7051291700066473  8.6986680983531421
  9.9183950891473511  7.0996204522643032 10.1259938796361517
  8.5179613121586470  8.5190577343059726  0.0261499482265260
  9.9619142339191438  9.9578445014321915  1.4478052310268801
  8.5203830221271364  8.5199705878846856  2.8810821303517828
  9.9402891883572568  9.9359473191406664  4.3380995531509772
  8.5191861231105648  8.4988296362951985  5.7485439532017359
  9.8938856912744182  9.9002581732498260  7.2380921676586683
  8.4931931756564971  8.4690972044989099  8.6606426771044003
  9.9014175578632457  9.8974811735167023 10.0697957497741104
  1.3428425887388775  1.4954484130293222  2.9663078334052964
  2.9150140440683616 -0.0767227059489685  1.3631152362943999
