Fe C 
 1.0000000000000000
    11.3769137127645656    0.0000000000000000    0.0000000000000000
     0.0000000000000000   11.3769137165147391    0.0000000000000000
     0.0000000000000000    0.0000000000000000   11.3875944765841677
 Fe  C  
 127   1
Cartesian
  0.0709205404949301  0.0711734310031391  0.0921962767095804
  0.0367486763474111  0.0370593081178292  2.8033193799308265
  1.4221141954297187  1.4221141733871965  4.3102741924948358
 -0.0103673068405365 -0.0101125810207883  5.6902199811151846
  1.4221141785465785  1.4221143394125684  7.0840086770287618
 -0.0098372150041727 -0.0099062538331015  8.5250588279978956
  1.4221142463521346  1.4221142393206017  9.7803107114291876
  0.0711736269239188  2.7733079562973075  0.0921962814497272
  1.4220930509704892  4.3321897883947056  1.4319920530691905
  0.0370594396895508  2.8074797833929406  2.8033192099466442
  1.4224763377301175  4.2621602181716787  4.2619307245764357
 -0.0101125248242197  2.8545958779768075  5.6902200377918719
  1.4219689384924927  4.2526540151880567  7.1020781380870739
 -0.0099063798633435  2.8540655115626654  8.5250588474145328
  1.4223296250048858  4.2219614486290427  9.9795459396090180
  0.0006026318258716  5.6953606815495821 -0.0046009290138847
  1.4221142124353392  7.1105711869666681  1.4327648023275961
 -0.0091984568448794  5.6949641592641012  2.8478790488442778
  1.4221142464704104  7.1105709893147750  4.2626900692551768
 -0.0038593050383874  5.6967430922618645  5.6903092047375869
  1.4221141873139052  7.1105710786293734  7.1083208829501743
  0.0044260768279137  5.6827282697303341  8.5406238454023722
  1.4221141923868508  7.1105711390972752  9.9596960262111356
  0.0003484792610826  8.5258819329995230 -0.0046831559488827
  1.4221353920629884  9.8889524177987660  1.4319919252789211
 -0.0094922105881144  8.5262334866145810  2.8480648165082538
  1.4217519282957038  9.9589819808491260  4.2619305986598768
 -0.0038540211865681  8.5243730630529235  5.6903914637315482
  1.4222595691662767  9.9684879522010448  7.1020780227098035
  0.0042719053293508  8.5382524221160185  8.5406366845835642
  1.4218987913502714  9.9991806383104151  9.9795458144174276
  2.7730548930701784  0.0709205681651123  0.0921963309750588
  4.3321898259401239  1.4221354457191466  1.4319918696886129
  2.8071690684552077  0.0367486429232317  2.8033192250819114
  4.2621602384957722  1.4217521051541280  4.2619305962451062
  2.8543411042225619 -0.0103673877448068  5.6902200891561989
  4.2526540736356973  1.4222596800880039  7.1020781347259616
  2.8541346023713214 -0.0098370597637882  8.5250589226162123
  4.2219614677989590  1.4218989500717902  9.9795458310762744
  2.7733079327919086  2.7730548820541339  0.0921963334505252
  4.2421670640966216  4.2421453724726694  1.4076588101053038
  2.8074799018587187  2.8071691926238862  2.8033192907692790
  4.2575970576439195  4.2574825915584169  4.2536344339435468
  2.8545958046217392  2.8543411276811748  5.6902200705931270
  4.2685037470264815  4.2685731479365483  7.1059848608791496
  2.8540655233135586  2.8541347330542748  8.5250588656888340
  4.2322167534708717  4.2322864616446960  9.9944607957446134
  2.8438799467258238  5.6952604902005319 -0.0046830402248458
  4.2649335980358378  7.1105283572030702  1.4174186407520803
  2.8537208162129146  5.6949085747378447  2.8480647109920358
  4.2730096091659773  7.1106044957357453  4.2672934765892325
  2.8480825299005250  5.6967691301749648  5.6903916350157422
  4.2694290811112285  7.1106073516607875  7.1202799147724436
  2.8399564516576810  5.6828897992683727  8.5406366002291065
  4.2648115517135228  7.1105669817966852  9.9606608599604609
  2.8436257549622916  8.5257816335754768 -0.0046008398055834
  4.2421452691020853  9.9789750754077371  1.4076587336287669
  2.8534267904967376  8.5261780632968858  2.8478791033802819
  4.2574824192412342  9.9635450217561559  4.2536344130695189
  2.8480876683817824  8.5243990226892805  5.6903091639139598
  4.2685731482225924  9.9526384393057086  7.1059847266389191
  2.8398022450987037  8.5384139996938071  8.5406239355602214
  4.2322864892084020  9.9889254319364831  9.9944608618776982
  5.6952603954089112  0.0003485236913548 -0.0046829883902917
  7.1105710530280257  1.4221142269510900  1.4327649597609970
  5.6949086750267721 -0.0094922540591052  2.8480648468674006
  7.1105709992169341  1.4221142077274285  4.2626899964822833
  5.6967690573011929 -0.0038540103878186  5.6903916393962888
  7.1105710968049278  1.4221141959758978  7.1083208309751402
  5.6828898623155126  0.0042720673197929  8.5406365681795560
  7.1105711314909961  1.4221143075116198  9.9596958908077138
  5.6953606089481568  2.8436258212303636 -0.0046006701851973
  7.1106136781956399  4.2649336780067033  1.4174187079972156
  5.6949642619093268  2.8534268163948799  2.8478790338910431
  7.1105375593116458  4.2730096371250061  4.2672934997377885
  5.6967430415747478  2.8480876015883383  5.6903092831778821
  7.1105346474408719  4.2694291172204535  7.1202800489028117
  5.6827280724374329  2.8398023608951095  8.5406239400938126
  7.1105751874153755  4.2648116570297736  9.9606608231213727
  5.6850261739982484  5.6848877414877057 -0.0030600890104602
  7.1105709991646879  7.1105710643397817  1.4150536682545263
  5.6841353759782054  5.6842216189027397  2.8341766277993257
  7.1105710201047190  7.1105711668532292  4.2551538713451214
  5.6888601760012714  5.6888570744892766  5.6870438844918381
  7.1105710574051502  7.1105711195443950  7.1352588568428539
  5.6738985000130162  5.6737801843685025  8.5561318743263257
  7.1105711323828134  7.1105711029169862  9.9606959810019262
  5.6848877182560420  8.5361161974948949 -0.0030602401153584
  7.1105283772272330  9.9562086287461344  1.4174186244025873
  5.6842215589992096  8.5370069268702320  2.8341766374680044
  7.1106044939944519  9.9481325682964723  4.2672934505119766
  5.6888571445180443  8.5322819114445245  5.6870438020776586
  7.1106075153347934  9.9517129874480084  7.1202800623054516
  5.6737802539475330  8.5472435154940580  8.5561320161043621
  7.1105670944108423  9.9563306220441454  9.9606608268074606
  8.5257813722451683  0.0006025541508596 -0.0046008252183173
  9.8889523260618439  1.4220931612466481  1.4319918973395884
  8.5261779710433423 -0.0091982964747331  2.8478788740187855
  9.9589819525343515  1.4224762046234356  4.2619306157382706
  8.5243988819974081 -0.0038592539471953  5.6903091838546596
  9.9684880993951133  1.4219687833800232  7.1020781060383191
  8.5384138013652908  0.0044260172070329  8.5406238525252611
  9.9991808437006888  1.4223297332243048  9.9795458502300551
  8.5258818321179195  2.8438799409948223 -0.0046830620188715
  9.9789967620024278  4.2421670595611873  1.4076587993168064
  8.5262334803364670  2.8537206885210336  2.8480648247831919
  9.9636597553028139  4.2575971524439904  4.2536344775431161
  8.5243729920696278  2.8480824398535391  5.6903916681397817
  9.9525691117179598  4.2685035870662169  7.1059847549252178
  8.5382523303467384  2.8399564060922682  8.5406366308686934
  9.9888556758592735  4.2322169261185039  9.9944608536092332
  8.5362544454534959  5.6850262456128844 -0.0030603492003155
  9.9562083865576554  7.1106136263054003  1.4174186802019153
  8.5369207436254673  5.6841353725052786  2.8341764929804252
  9.9481324293179174  7.1105375039500940  4.2672933394813022
  8.5322850682803075  5.6888603883398385  5.6870438086662238
  9.9517130283400483  7.1105347455861203  7.1202800799134520
  8.5473618392881594  5.6738986753427003  8.5561319952624100
  9.9563305229645245  7.1105750154783021  9.9606608510272885
  8.5361159194245744  8.5362546384690301 -0.0030603355473322
  9.9789750270312609  9.9789966077653709  1.4076587169370542
  8.5370067444043389  8.5369205474925192  2.8341765805638843
  9.9635451229586796  9.9636595567042097  4.2536344728352553
  8.5322817361744452  8.5322850591291584  5.6870439346992709
  9.9526384232969018  9.9525691148700997  7.1059849227300091
  8.5472436125555422  8.5473619973231028  8.5561320571628006
  9.9889253607951645  9.9888555752109678  9.9944609604674888
  1.4221141436254947  1.4221143104381391  0.2675560430885247
