Fe Ru
 1.0000000000000000
    11.3971228869401635    0.0000000000000000    0.0000000000000000
     0.0000000000000000   11.3971228818510593    0.0000000000000000
     0.0000000000000000    0.0000000000000000   11.3971228859467395
 Fe  Ru 
 126   1
Cartesian
  0.1311981451662305  0.0437941333372248  0.0440090891445717
  0.0433856939142988  0.0347185730249707  2.8056134350371473
  1.4339133567294633  1.4154119229799402  4.3114483119621294
 -0.0032740526660037 -0.0031274052669631  5.6928344558736672
  1.4214315680420950  1.4276741895149547  7.1200724940330256
 -0.0003516462352490 -0.0068852793360740  8.5431593917972162
  1.4040076840394831  1.4456829161558709  9.9053781731228874
  0.0436672025595848  2.8058949586119737  0.0347185512587067
  1.4338687656561075  4.3114483764090510  1.4153673965627940
  0.0516291348906273  2.7976515589454931  2.7976516339917801
  1.4185076015683471  4.2671162870441828  4.2671210942498234
 -0.0057722745277231  2.8551709231415736  5.6957111049190576
  1.4203712876747974  4.2708383969453134  7.1183870160464799
 -0.0146368607826557  2.8640297417604250  8.5333468471043954
  1.4328939007362309  4.2631094766430211  9.9866538685417829
 -0.0031320824135693  5.6928939312659255 -0.0029657052165157
  1.4216065833292999  7.1200725132681439  1.4278490599173717
 -0.0058901861047818  5.6957110130447193  2.8550530239415894
  1.4203845279060399  7.1183995815535672  4.2705951847550070
  0.0019209578989670  5.6993959791120359  5.6992900982339281
  1.4183176784785161  7.1188994870833389  7.1188634870773226
 -0.0025667022201317  5.6962141359939915  8.5433577586877512
  1.4282221270840034  7.1228501390877605  9.9794508430310316
 -0.0005649719879709  8.5430925460888769 -0.0067610534946817
  1.4035978318626807  9.9053782369039336  1.4452731164899439
 -0.0147489678608173  8.5333468169080433  2.8639175063769886
  1.4326565587109916  9.9867620030960147  4.2628797112570895
 -0.0025108097333169  8.5433767610733149  5.6961415825313431
  1.4284166862949448  9.9791850934480415  7.1227692119006951
  0.0011785483961325  8.5481162689522474  8.5481592638592616
  1.4482378077093858  9.9771402085584864  9.9770894397897791
  4.3410254603532588  1.4452730929446749  1.4456828812229909
  2.8054866183816936  0.0440090179195245  2.7180825772562609
  4.2597496146925105  1.4163868496132470  4.2631094077424514
  2.8476778955396043  0.0014243966291854  5.6975350921713641
  4.2669527882745015  1.4210586013105042  7.1228500554758254
  2.8454719456837809  0.0038577186788020  8.5869602337615252
  4.2693141515871869  1.4010428873052114  9.9771401187627777
  2.8052716947748180  2.7180825938874018  0.0437941133062979
  4.2596416101592212  4.2628798415866500  1.4166240873203775
  2.8145621293700747  2.8056134440744138  2.8058949908299979
  4.2661404413869644  4.2661081360203301  4.2660930855955002
  2.8522464618021828  2.8524128543056309  5.6928939197624526
  4.2814682061979950  4.2743515404364141  7.1196034815853055
  2.8560417694498206  2.8498456727110559  8.5430925852970603
  4.2506004040879066  4.2564487649975042  9.9959516651143367
  2.8478563286762792  5.6975351255098712  0.0016028155457243
  4.2672184584176236  7.1227691326125164  1.4208640226808344
  2.8524081222877640  5.6928344561851079  2.8525548115299308
  4.2815408570273430  7.1196293818198724  4.2744002959797811
  2.8500312470188121  5.6984028133555071  5.6984405656344839
  4.2812663788267322  7.1207172911002887  7.1205839510450168
  2.8517773719745403  5.6949499493580253  8.5456078484867763
  4.2619908085394345  7.1294600031796680  9.9841318895370463
  2.8454230447345519  8.5869603019523613  0.0038087627533157
  4.2692634857994420  9.9770894828342165  1.4010429968585605
  2.8561659626768510  8.5431593559767407  2.8496323488628157
  4.2504519476171314  9.9958032072819769  4.2564486844275224
  2.8518680845120206  8.5456321650919556  5.6947872794009120
  4.2622717147893692  9.9844127863004708  7.1294600531333989
  2.8547326555298485  8.5481352947829254  8.5481504974697362
  4.2032409325467697 10.0431626565460235 10.0431627107835677
  5.6594432883354520  0.0038087246919947  0.0038577502227120
  7.1263310815901999  1.4278491338486605  1.4276740915566730
  5.7033109997117473 -0.0067610332276004  2.8498457233161303
  7.1280165361806871  1.4289093800161485  4.2708383572579249
  5.7007956886723550 -0.0024966525303130  5.6949499490869604
  7.1275400790987282  1.4309630016773980  7.1188994391899740
  5.6982531680015800 -0.0054519891671928  8.5481352681038985
  7.1236344142908878  1.4208639698160148  9.9791850393161461
  5.7032442239086594  2.8496323360254037 -0.0068852397526777
  7.1280039493736007  4.2705952158036471  1.4288962095003082
  5.7130568248172722  2.8639174943639754  2.8640297397984336
  7.1285325422038133  4.2760842509631631  4.2761180701236183
  5.7030458957259498  2.8518472928568919  5.6962142286721740
  7.1223133281445463  4.2706451073704121  7.1240559290713268
  5.6982443986629487  2.8481022259195541  8.5481161859223072
  7.1267741300603733  4.2744003770810615  9.9648627731272210
  5.7007714338324282  5.6947873039185710 -0.0025874416710921
  7.1275041976316880  7.1188635504383964  1.4309629330986751
  5.7030267315585776  5.6961415625015750  2.8517915996353205
  7.1223477022543458  7.1240902402361099  4.2706451108489958
  5.6937417896862064  5.6936715671381855  5.6936549609804734
  7.1156474072401057  7.1307561258696612  7.1307561867530636
  5.6909740950390084  5.6946494221166191  8.5553276953706234
  7.1256863813427911  7.1205839197853020  9.9651372289549176
  5.6982683187300252  8.5481505093668400 -0.0054519766718210
  7.1235535190789108  9.9794508126045045  1.4210585524897439
  5.6982873715517899  8.5481592311742300  2.8481022385055961
  7.1268001137758077  9.9649354740525489  4.2743515308371540
  5.6910758217440742  8.5554294940822366  5.6946494016919091
  7.1258196514643819  9.9651372072390192  7.1207172934862228
  5.6759735828144944  8.5704300001341966  8.5704300206850625
  7.1169435834796708  9.9841317885721264  9.9844127727304368
  8.5488685210853390  0.0016027251838837  0.0014244002341596
  9.9349552019067655  1.4153673636072059  1.4154119101252343
  8.5535097692159425 -0.0029657394260162  2.8524128915164226
  9.9792825940544958  1.4307731258220320  4.2671163395004861
  8.5479630181376987 -0.0007505540421149  5.6984027279377916
  9.9758083984428385  1.4288962301639581  7.1183996529363540
  8.5516163215271543 -0.0025874220763771  8.5456321645932221
  9.9835238029514830  1.4166240842346498  9.9867619696210941
  8.5535691557765343  2.8525547573685146 -0.0031273858674909
  9.9792872588398502  4.2671210209979877  1.4307731226335234
  8.5506925139031740  2.8550529484827192  2.8551708643931173
  9.9847108912719591  4.2616926941967606  4.2616926932709829
  8.5471136152762437  2.8473597025221014  5.6993959702073616
  9.9703193409676292  4.2761181014661496  7.1178710452896263
  8.5502620841110808  2.8517916206400109  8.5433768396827308
  9.9802954768676582  4.2660930747907155  9.9802632206709134
  8.5480007185817701  5.6984405512419842 -0.0007505205789374
  9.9755652593497750  7.1183870146910442  1.4289093278270519
  8.5470076747413533  5.6992900092465852  2.8473597244044662
  9.9702855346445052  7.1178710539484848  4.2760842603932163
  8.5484658923799870  5.6979376265693107  5.6979376426647974
  9.9757584931499430  7.1240559842167652  7.1240902614018804
  8.5527320545135233  5.6936550521585101  8.5526619001018638
  9.9720520460981401  7.1196034815016205  9.9649354737996276
  8.5514535732141539  8.5456078536723705 -0.0024966574062442
  9.9832942013138499  9.9866539359781203  1.4163868462876565
  8.5501894174113975  8.5433577923975825  2.8518473890316312
  9.9803106057751627  9.9802632104073687  4.2661081118861599
  8.5527485849047622  8.5526618280972144  5.6936714845345247
  9.9720033231814309  9.9648627251491018  7.1196295515184689
  8.5517542034463467  8.5553276851567812  8.5554295493594807
  9.9899549510619572  9.9959516520818337  9.9958032535792380
  2.7788003116057447  0.0704804547271856  0.0704804427686875
