Fe Zr
 1.0000000000000000
    11.3861090009443977    0.0000000000000000    0.0000000000000000
     0.0000000000000000   11.3861089946010079    0.0000000000000000
     0.0000000000000000    0.0000000000000000   11.3861089963306910
 Fe  Zr 
 126   2
Cartesian
 -0.0802754094435427 -0.1123933937040430 -0.1126719385376361
 -0.1040311578515585 -0.1320168119795849  2.9506339853085719
  1.4290282595257442  1.4176646782961637  4.3165812121344649
 -0.0079084266797238 -0.0023645324475139  5.6760688157512522
  1.4172869567136097  1.4291855262994748  7.1230011201595875
  0.0138325027478574  0.0058907564348310  8.5749800022418796
  1.3105916318633453  1.5356570249734161  9.8825697585933074
 -0.1041067146554963  2.9505586268026458 -0.1320168540053005
  1.4288625583930405  4.3165812551359473  1.4174990190226466
 -0.1500826525113471  2.9966101560119198  2.9966098747905971
  1.4257397764292772  4.2516624393072417  4.2518809123397130
 -0.0100506359139167  2.8564848352864036  5.6683296164232599
  1.4240824402962085  4.2697096186988990  7.1188596759643055
 -0.0300438638470061  2.8763551853160032  8.5372614515304370
  1.4290614555273762  4.2344025112988586  9.9768229059546023
 -0.0079047212439998  5.6762424444244486 -0.0023946965489599
  1.4173416161287127  7.1230014728550941  1.4292405573616729
 -0.0099574859672414  5.6683297813461602  2.8565780476417331
  1.4241198866226801  7.1187207966708677  4.2698099573512813
  0.0018479962162378  5.6900956061850865  5.6902089594790413
  1.4251797626190905  7.1167843670098350  7.1169026993601747
 -0.0045996208386534  5.6893148296911091  8.5320465729243509
  1.4208691428605635  7.1331302240571430  9.9549407713966094
  0.0139776444435860  8.5749704854335391  0.0057975737441514
  1.3108702166203119  9.8825698255418732  1.5359356805504827
 -0.0298284264412366  8.5372617669387321  2.8765710711542241
  1.4291545449883627  9.9766779096485507  4.2343928401494910
 -0.0044303492284347  8.5320602199178488  5.6893795963321994
  1.4208988093431354  9.9549367711435490  7.1333037320237995
 -0.0289762226868568  8.5083558473405283  8.5084193031593482
  1.2912470083391139  9.8588137483489646  9.8587387744160324
  4.3500658125972089  1.5359353350683107  1.5356569874386992
  2.9589206054111670 -0.1126719071127762  2.9268027252187636
  4.2558129267025873  1.4174658665211564  4.2344026342007179
  2.8524491398829466 -0.0059768130190972  5.6863712999500393
  4.2776956871477045  1.4256587075676219  7.1331299888807225
  2.8409283059739012  0.0057646395436508  8.4927910541207421
  4.3738977211206187  1.5552802118271642  9.8588139681986817
  2.9591990817616529  2.9268023646693049 -0.1123933714366255
  4.2559585778948490  4.2343931104573587  1.4173728760622297
  2.9785437484307504  2.9506339730638289  2.9505588428682041
  4.2987670571017222  4.3009533748694100  4.3010166718494549
  2.8489221251642269  2.8544316994071255  5.6762423668831561
  4.2743904950071077  4.2773262188781906  7.1200576822998540
  2.8407297956965341  2.8325495439345008  8.5749701753985015
  4.2998346719939562  4.2721110829829430  9.9330167757302963
  2.8525040138925051  5.6863713040146111 -0.0059220717088738
  4.2776994188102311  7.1333036863896648  1.4256284510655299
  2.8488920079050177  5.6760688512712010  2.8544359557004242
  4.2742210381502561  7.1199929608786148  4.2773125084518089
  2.8446111060918846  5.6924698507680231  5.6925881692077063
  4.2679425563229278  7.1191636984156466  7.1192767224243587
  2.8457083494600433  5.6905130293181800  8.5396632184020564
  4.2798414064126247  7.1410433126921076  9.9528879226403699
  2.8407626232132830  8.4927913479280228  0.0055988508295274
  4.3738223181482363  9.8587388694002929  1.5552805776687286
  2.8406365141939847  8.5749800065914972  2.8326948697144125
  4.2996190573929018  9.9328017023430348  4.2721111012284680
  2.8456709206996469  8.5395627583231004  5.6906516629382793
  4.2797482444082036  9.9527945233607085  7.1410432545828169
  2.8440510087817819  8.5574920272831054  8.5577102400142131
  4.4198740805494943  9.8127623954993890  9.8127622827214829
  5.7398451630625171  0.0055990885023715  0.0057644389637637
  7.1096350035416771  1.4292402272797500  1.4291853765533304
  5.6576658436499594  0.0057979124664968  2.8325496954333489
  7.1137762871166785  1.4224447835305691  4.2697093870814555
  5.6929729301883034  0.0008187797195331  5.6905127228782337
  7.1157332112335983  1.4213476312131692  7.1167847007281866
  5.6749261323692304  0.0024758654134958  8.5574915874824580
  7.0993323678321083  1.4256280627968563  9.9549367956242794
  5.6576566368892678  2.8326949259394270  0.0058908514713655
  7.1139152783717856  4.2698100270162085  1.4224073715349785
  5.6953746491967685  2.8765710746879067  2.8763554877001964
  7.1327986846875397  4.2871046770869388  4.2870445378805568
  5.7005897095453193  2.8511267873459891  5.6893148073980226
  7.1288982036200288  4.2829974825446619  7.1038362150144581
  5.7242172867239791  2.8755034027714887  8.5083558394640946
  7.1126433750661064  4.2773124341022184  9.9584150409311434
  5.6930735978849096  5.6906515868473369  0.0008565537157697
  7.1158518140542384  7.1169029978345097  1.4213476915692234
  5.7005760128245413  5.6893795875170889  2.8509572325114165
  7.1288000290678122  7.1037380107290682  4.2829971707834247
  5.7062607513314774  5.7056349620745159  5.7055367158011858
  7.1285161267819905  7.1041197104519043  7.1041194300537231
  5.7103686652071906  5.7095349622745406  8.5223280268424109
  7.1134724452580320  7.1192766718697085  9.9646934360003421
  5.6751445245356074  8.5577099900444669  0.0024763315744872
  7.0995060386769699  9.9549405825918065  1.4256586056987737
  5.7242805877544001  8.5084187103066213  2.8755033967608719
  7.1125787398584182  9.9582459755357551  4.2773261101631723
  5.7103083367123917  8.5222678964948244  5.7095348520977760
  7.1133595422558047  9.9646938515875778  7.1191637586976970
  5.7368210345977317  8.4958153545526276  8.4958154635471885
  7.0915930149783080  9.9528880195318585  9.9527948660070127
  8.5462645871368110 -0.0059219236866947 -0.0059766660874204
  9.9160549487287977  1.4174991446151399  1.4176645351158916
  8.5563938438258464 -0.0023948621593650  2.8544321280997207
  9.9807553600973868  1.4207874444925914  4.2516623692187139
  8.5400479485308214  0.0019156531734554  5.6924698369792708
  9.9628261962296190  1.4224073209868338  7.1187209196838959
  8.5419841983069791  0.0008564412376910  8.5395622729644156
  9.9982437423754789  1.4173729526683263  9.9766779189740618
  8.5565672760664881  2.8544357718397944 -0.0023641054697697
  9.9809733856823506  4.2518805842415963  1.4207873678131988
  8.5643067608100125  2.8565780180008056  2.8564844153462721
  9.9190789669257047  4.3135574883500807  4.3135576211554776
  8.5424274607071258  2.8446789970257611  5.6900958754312700
  9.9455313290568341  4.2870443767556434  7.0998375473955253
  8.5432566975714259  2.8509578018376502  8.5320601544923811
  9.9316826360377437  4.3010172993819884  9.9338688793270062
  8.5401664548464922  5.6925881531023359  0.0019159646115877
  9.9629269768519038  7.1188597727065019  1.4224449413494868
  8.5425404934481914  5.6902087090926381  2.8446791568764263
  9.9455916473534316  7.0998377313125820  4.2871046972341418
  8.5273838822344992  5.7052527807265676  5.7052531806368609
  9.9496389109938779  7.1038358807681758  7.1037376324702999
  8.5270012139073401  5.7055365203616946  8.5263753620453375
  9.9553103402457559  7.1200579327784244  9.9582456951418141
  8.5421236664464217  8.5396635659613569  0.0008193287107956
  9.9982334205952714  9.9768227525756856  1.4174657917426698
  8.5433214169566263  8.5320467070477406  2.8511269244603019
  9.9316190776286746  9.9338690692285319  4.3009539228213649
  8.5270997956488639  8.5263754375977285  5.7056350014643105
  9.9553235725629179  9.9584146958817463  7.1199930137982950
  8.5231012136899089  8.5223282573373034  8.5222677123997439
  9.9605252882430246  9.9330169132409889  9.9328014923577310
  3.0024112264296656 -0.1558845775113417 -0.1558840007366614
  1.2673788370973422  1.5791476318939863  1.5791474187365913
