Fe Ag
 1.0000000000000000
    11.4314297305908177    0.0000000000000000    0.0000000000000000
     0.0000000000000000   11.4314297283919757    0.0000000000000000
     0.0000000000000000    0.0000000000000000   11.4314297322074570
 Fe  Ag 
 126   2
Cartesian
 -0.0089543228785326 -0.0364538514254860 -0.0364270086521137
  1.4289288702466016  1.4289286254393621  1.4289288605435653
 -0.0364538909830338 -0.0089542435036432  2.8942844434720070
  1.4635987648913351  1.3943473455277424  4.3170459087187369
 -0.0110636771793903 -0.0308957316585675  5.7435917418188307
  1.4288378128495414  1.4288378513960989  7.1446436009178518
 -0.0308959211721525 -0.0110637770261151  8.5456953735411538
  1.3943472674473585  1.4635988286287851  9.9722409464639945
 -0.0364270234246463  2.8943112910644775 -0.0089541983381086
  1.4635100465925797  4.3170457903594031  1.3942587552913612
  1.4686385858846402  4.3343536260548525  4.3341804551909489
 -0.0055147552042925  2.8634463913833681  5.7128206985241023
  1.4328837226411872  4.3072723875296299  7.1293562089092193
 -0.0292497173755630  2.8870255457894816  8.5465719303849728
  1.4289286073368295  4.3018085717452017  9.9874786153140658
 -0.0110447103589586  5.7436489172778202 -0.0309001193890244
  1.4290196686880088  7.1446436679220717  1.4290196041679482
 -0.0055891047973773  5.7128207828582651  2.8633722997075748
  1.4328781468235550  7.1293197881013102  4.3073071807020611
  0.0029982979817211  5.7413930553185448  5.7414189522986767
  1.4289287925699763  7.1446811953078910  7.1446058586532448
 -0.0084730672678521  5.7239588999754263  8.5656381522848122
  1.4249736846184058  7.1599310487900549  9.9820147479605215
 -0.0309000885464463  8.5456382774980018 -0.0110447589699763
  1.3942586558923358  9.9722412126190196  1.4635100170812030
 -0.0291681182502351  8.5465719475711843  2.8871072168861298
  1.4289287075782822  9.9875640711365428  4.3017229739642868
 -0.0084394480749468  8.5656607906474349  5.7239157080811518
  1.4249792165946400  9.9819801224062150  7.1599672467282094
 -0.0290995131562096  8.5461071770804971  8.5461671724101169
  1.3892188189560359  9.9551067411312246  9.9549335596645374
  4.3170459750763381  1.4635100455411842  1.4635987939633484
  2.8943113070992750 -0.0364269339614426  2.8668116017240384
  4.3018084313386717  1.4289287487804645  4.3018085474423948
  2.8870254472915446 -0.0292496364881019  5.7427152450923975
  4.3072723767105678  1.4328837496315481  7.1599310198531692
  2.8634464419629042 -0.0055149121814035  8.5764664598879659
  4.3343537049713143  1.4686385777367630  9.9551064425691802
  2.8942844423400698  2.8668117407291427 -0.0364537464901609
  4.3017230938860544  4.3017229399214045  1.4289286866580218
  2.8668116413840141  2.8942843294886669  2.8943112996457701
  4.2988674026389768  4.3156117997036549  4.3155821625945858
  2.8887575769402565  2.8689019671733327  5.7436488712329545
  4.3078063616511875  4.3078062854026093  7.1446436472854131
  2.8689021535976944  2.8887575418516613  8.5456382429338511
  4.3156115858305153  4.2988674107178211  9.9737049964202065
  2.8871072303031253  5.7427152757690090 -0.0291680205777111
  4.3073070735952479  7.1599673935961023  1.4328781385862370
  2.8887532499408097  5.7435916980212278  2.8689211004467050
  4.3078529395972298  7.1446436145038845  4.3078530877976355
  2.8869568443802214  5.7431200266224716  5.7431799860196175
  4.3075144417651261  7.1442310265040883  7.1442547765102784
  2.8663304011366191  5.7236491785126296  8.5653282836156794
  4.3075444125966111  7.1609892731614186  9.9817489286820855
  2.8633722251621485  8.5764665206374548 -0.0055891232111795
  4.3341804586312636  9.9549336138817086  1.4686386626663164
  2.8689212103274135  8.5456954448814617  2.8887532938944869
  4.3155820292078033  9.9736752735636269  4.2988673902689030
  2.8662969940015328  8.5653713986929123  5.7236266111290108
  4.3075381056166568  9.9817425773592348  7.1609892468128624
  2.8548590919974290  8.5478683454824527  8.5478941784193907
  4.3426102538477789  9.9466768261986616  9.9466768396801477
  5.7128206686209788 -0.0055890740714590 -0.0055148566013749
  7.1446435133114026  1.4290196787757683  1.4288377715621046
  5.7436489249424900 -0.0110445672289969  2.8887574834034155
  7.1599311374611112  1.4249737120330068  4.3072723187396802
  5.7239590319328366 -0.0084729599006145  5.7236490545854295
  7.1446813052173823  1.4289286636319309  7.1446812076336128
  5.7413930153459916  0.0029982292491543  8.5478683191386313
  7.1293197577699559  1.4328782174632899  9.9819801597103464
  5.7435916968888501  2.8887532457847587 -0.0110636716310439
  7.1599674887646065  4.3073070279237271  1.4249793410814222
  5.7427151914796397  2.8871073026395093  2.8870254500301060
  7.1609893214419404  4.3075444613590488  4.3075380810275776
  5.7236490621975742  2.8663304072971201  5.7239589588558228
  7.1442310255089554  4.3075144086380703  7.1450324686297355
  5.7431200425550939  2.8869568425224110  8.5461072511757301
  7.1446436850048869  4.3078530279412117  9.9814340889416187
  5.7239157532483871  5.7236265390182428 -0.0084395050269353
  7.1446058545491251  7.1446059264773867  1.4289288399811213
  5.7236265029800668  5.7239156711643648  2.8662968199894254
  7.1442547300018022  7.1450559810468519  4.3075144443242168
  5.7157418317670290  5.7247905240237911  5.7247828660374047
  7.1446435862413109  7.1446436048214927  7.1446435158323194
  5.7247905947878630  5.7157418041903592  8.5645042302066035
  7.1450561415795937  7.1442548404250426  9.9817726489307432
  5.7414190279654758  8.5478941932177488  0.0029982669348071
  7.1293561093136670  9.9820148871422809  1.4328837111278481
  5.7431799266394084  8.5461670769927238  2.8869568767912610
  7.1446436507299218  9.9814807753588894  4.3078064342215914
  5.7247829360529670  8.5644965618237361  5.7157418995704008
  7.1450322944269811  9.9817726466314785  7.1442310081576217
  5.7446589990108228  8.5446281219908098  8.5446281174237839
  7.1282978702343049  9.9817489581307477  9.9817427311878895
  8.5465719234615776 -0.0291681398668156 -0.0292496679149303
  9.9722410718574661  1.3942586366765297  1.3943472449809848
  8.5456383267489056 -0.0309001057976050  2.8689022417378776
  9.9551066059336968  1.3892187043725279  4.3343537755599701
  8.5461072678150583 -0.0290993762446175  5.7431200693260935
  9.9819803054580714  1.4249793212631006  7.1293197381889666
  8.5656606624763114 -0.0084395062726530  8.5653714926143678
  9.9875640381398156  1.4289286486461936  9.9875641314597701
  8.5456954094001816  2.8689211418761871 -0.0308957854551987
  9.9549335887200670  4.3341805188756037  1.3892187522696804
  8.5764664579136163  2.8633722996813353  2.8634463160568631
  9.9466769858415471  4.3426103061456542  4.3426102798515585
  8.5478682961419761  2.8548591417262599  5.7413930210382151
  9.9817427566143895  4.3075382042634578  7.1282979324894935
  8.5653714797665828  2.8662968550213721  8.5656606161796258
  9.9736755913253550  4.3155822481504629  9.9904198098325221
  8.5461671684787817  5.7431799225259805 -0.0290995131587748
  9.9820147620484097  7.1293562032536189  1.4249737564723264
  8.5478940571302324  5.7414189715947073  2.8548593008344452
  9.9817489787690832  7.1282978171601110  4.3075443549952217
  8.5446280659929403  5.7446589881244590  5.7446589479835994
  9.9817727834125485  7.1450323667630498  7.1450562125559989
  8.5644964752885411  5.7247829368857399  8.5735453203569030
  9.9814807045670744  7.1446435890553399  9.9814807817320848
  8.5656382399528344  8.5653281289207186 -0.0084731428847201
  9.9874785565078756  9.9874786157113871  1.4289286193193056
  8.5653282656780565  8.5656382980949921  2.8663303317204059
  9.9737050529512317  9.9904198411850018  4.3156116040078514
  8.5645042423607638  8.5735455114751904  5.7247906279177831
  9.9814341066179146  9.9814341556039761  7.1446436735980008
  8.5735453213780612  8.5645043500156977  8.5644966236935485
  9.9904197911609582  9.9737050678425678  9.9736754846016300
  2.8971030567045739 -0.0392456541283320 -0.0392456209938664
 -0.0392456221516386  2.8971031404192442  2.8971031373850935
