Fe Ir
 1.0000000000000000
    11.4043271886483346    0.0000000000000000    0.0000000000000000
     0.0000000000000000   11.4043271967852373    0.0000000000000000
     0.0000000000000000    0.0000000000000000   11.4043271838451243
 Fe  Ir 
 127   1
Cartesian
  0.0260419627193872  0.0000000932761498 -0.0000000252116480
  1.4104019130190943  1.4406800262702213  1.4406799132980870
 -0.0066887036751497 -0.0000000177505534  2.8577704189651656
  1.4223732156786408  1.4289372192465126  4.2760592842793619
  0.0035601212933507 -0.0000001083325619  5.7021635959812729
  1.4221445797899777  1.4287084604874720  7.1282678252232090
 -0.0066886448761354 -0.0000000331886747  8.5465567309108028
  1.4104019312020295  1.4406799804835093  9.9636472865873085
 -0.0066885534697067  2.8577703240211823 -0.0000000581716842
  1.4221446136029221  4.2760592918615599  1.4287085448582793
 -0.0175433852194713  2.8686251030356340  2.8686252413722193
  1.4193676592357434  4.2845455034482871  4.2846298791695281
 -0.0046826063949257  2.8557643994453961  5.7021635294153681
  1.4193677880537099  4.2846299250798241  7.1197817434252482
 -0.0175434101520528  2.8686252700380006  8.5357019993808922
  1.4223733015469491  4.2760592827398014  9.9753899387562495
  0.0035600451191538  5.7021636283037864  0.0000000548887969
  1.4223731769470673  7.1282678871566301  1.4289372786734276
 -0.0046826939664200  5.7021635944011386  2.8557644368534429
  1.4193677542971819  7.1196973332738320  4.2845454424477643
 -0.0008219331772362  5.7021635638468045  5.7021635658380596
  1.4193675861378563  7.1197818123578180  7.1196972660304860
 -0.0046827214214335  5.7021636176478978  8.5485627137868097
  1.4221445989899901  7.1282678509405031  9.9756186055359954
 -0.0066885618664228  8.5465569028251860  0.0000000382445137
  1.4104018038684694  9.9636472934133060  1.4406799641307286
 -0.0175434593281991  8.5357019486158467  2.8686252305853701
  1.4221446157431483  9.9756185071170034  4.2760592854201764
 -0.0046825610607269  8.5485627843569389  5.7021636467577448
  1.4223731922183080  9.9753899842817582  7.1282678760217433
 -0.0175433845918907  8.5357019926590763  8.5357019113812012
  1.4104018707591313  9.9636471879994097  9.9636472717220084
  4.2917617601038680  1.4406798240517475  1.4406799363499840
  2.8510819542114576 -0.0000000350463065  2.8250398441678817
  4.2800189890251330  1.4287085036873486  4.2760593663031043
  2.8510818139890115  0.0000000207764076  5.7021636152623660
  4.2797903844971934  1.4289371777235647  7.1282678418668892
  2.8510817595222870  0.0000000330731277  8.5792872823761588
  4.2917617331504507  1.4406799742087746  9.9636472655019528
  2.8510817551441674  2.8250397215614074 -0.0000000246430020
  4.2797903413779679  4.2760593383487695  1.4289372552436186
  2.8510817733093883  2.8577703209500238  2.8577702686590203
  4.2827958576307772  4.2846298677467836  4.2845454867929620
  2.8510818270949163  2.8475216396944529  5.7021635690317511
  4.2827958043555157  4.2845454340007381  7.1196973996829698
  2.8510817870202922  2.8577703555642056  8.5465568738580160
  4.2800190533655780  4.2760593107895319  9.9756185981121686
  2.8510818012038373  5.7021635969934614  0.0000000576293972
  4.2800190723724105  7.1282678062242892  1.4287085761958922
  2.8510817539372004  5.7021636344532709  2.8475216241035581
  4.2827959603929662  7.1197817258707605  4.2846298670354557
  2.8510818230907717  5.7021636712213652  5.7021635613756949
  4.2827958677137792  7.1196973019448784  7.1197817119108198
  2.8510817946026070  5.7021635523644605  8.5568054620718073
  4.2797903716112451  7.1282679144439971  9.9753898780510415
  2.8510819248231356  8.5792874173087696  0.0000000282616739
  4.2917617269622363  9.9636472914961303  1.4406799891543465
  2.8510818396824060  8.5465568679786728  2.8577703474110900
  4.2797903835769437  9.9753899427640285  4.2760592769952046
  2.8510818258437678  8.5568054851353921  5.7021635281444443
  4.2800190466959984  9.9756185658115708  7.1282678618981157
  2.8510818102932767  8.5465568738608049  8.5465568900274338
  4.2917617293964607  9.9636472038326822  9.9636472593451586
  5.6761215960484845  0.0000000730573565  0.0000000683699974
  7.1271410601417955  1.4289372237657545  1.4287085138604920
  5.7088521463545874  0.0000000436412323  2.8577703879914891
  7.1356273256010123  1.4317141043264807  4.2846297700338436
  5.6986033703126333  0.0000000198289193  5.7021635659672594
  7.1357115450244351  1.4317141292616100  7.1197817313567198
  5.7088522389809384  0.0000000300919549  8.5465567897615635
  7.1271411062434833  1.4287086115069745  9.9753899502899213
  5.7088522178623569  2.8577702861687113  0.0000000292509333
  7.1357116470562376  4.2845454895508022  1.4317141208907236
  5.7197070047929497  2.8686251483695502  2.8686251240656091
  7.1342751109647198  4.2831934460184735  4.2831933186512083
  5.7068462139858225  2.8557644030253790  5.7021635671019091
  7.1342752512797949  4.2831934391075341  7.1211337765745313
  5.7197070740073945  2.8686251825829672  8.5357018871317774
  7.1356272737936450  4.2846297776569289  9.9726130907639696
  5.6986035260323886  5.7021635763795029  0.0000000004058101
  7.1356272619702921  7.1196974021143609  1.4317140401183228
  5.7068462753258782  5.7021635688046821  2.8557645900585484
  7.1342753165928672  7.1211337802280017  4.2831934209278408
  5.7029855690953886  5.7021636390507933  5.7021636382576153
  7.1342751933171566  7.1211338143191325  7.1211337316097190
  5.7068463066451747  5.7021636121376744  8.5485627790465326
  7.1357116722880161  7.1197817442105897  9.9726130755652793
  5.7088521911659660  8.5465567444586235  0.0000000674334990
  7.1271411180280184  9.9756186150779182  1.4289372020704365
  5.7197069630216584  8.5357019437396122  2.8686252009993929
  7.1357116451765741  9.9726131048765136  4.2845455128041969
  5.7068462113320866  8.5485627985336432  5.7021635517568559
  7.1356272223696360  9.9726130981142340  7.1196973365700371
  5.7197071111235278  8.5357019003787329  8.5357020672395603
  7.1271410435903251  9.9753899934171528  9.9756186501952175
  8.5532453734570275 -0.0000000630955238 -0.0000000222357225
  9.9793496661398926  1.4287085947349902  1.4289372371790867
  8.5532454453697593 -0.0000000038656972  2.8475216961418846
  9.9707791762035125  1.4317140986381767  4.2845454830752026
  8.5532453647095483 -0.0000000438894285  5.7021635646818991
  9.9708635644724861  1.4317141524537422  7.1196973087480471
  8.5532454279723726 -0.0000000397323948  8.5568054365380792
  9.9793496002843849  1.4289372578533306  9.9756186274441045
  8.5532453065560539  2.8475217441726479 -0.0000001412325743
  9.9708635435980124  4.2846297952883123  1.4317141194337077
  8.5532452582863421  2.8557644168202190  2.8557643791971743
  9.9722155830827059  4.2831934308675814  4.2831933253995205
  8.5532453488406066  2.8519038004563564  5.7021635638293624
  9.9722156534919684  4.2831933615872408  7.1211338293409714
  8.5532454110492075  2.8557644257496690  8.5485627524348331
  9.9707791815792017  4.2845454563509069  9.9726131066221271
  8.5532454140745529  5.7021637022676250 -0.0000001157250368
  9.9707790918720516  7.1197817343901413  1.4317141871975432
  8.5532454143716805  5.7021636043512496  2.8519037422961682
  9.9722156652610145  7.1211338004646256  4.2831933928838213
  8.5532452443923770  5.7021635190533990  5.7021634585059759
  9.9722156379419413  7.1211337932108556  7.1211338499528951
  8.5532453286364962  5.7021636971884080  8.5524234483624859
  9.9708634545961115  7.1196973984407101  9.9726131447059441
  8.5532453576489651  8.5568054922933516 -0.0000000476006296
  9.9793496862776543  9.9753899758615372  1.4287085055284188
  8.5532454632613959  8.5485627590194966  2.8557643689953993
  9.9708635946726272  9.9726130802859618  4.2846298027863847
  8.5532453218235798  8.5524235083089799  5.7021636113050498
  9.9707790727453691  9.9726131435495109  7.1197817962904644
  8.5532453713772298  8.5485628041107002  8.5485628460398058
  9.9793496808290012  9.9756185257880752  9.9753900211136948
  2.8510816042549441  0.0000000396944915 -0.0000000727341065
