Fe Co
 1.0000000000000000
    11.3689205592649358    0.0000000000000000    0.0000000000000000
     0.0000000000000000   11.3689205599007543    0.0000000000000000
     0.0000000000000000    0.0000000000000000   11.3689205635439556
 Fe  Co 
 126   2
Cartesian
  0.0553283608584846  0.0016082032691665  0.0016010835374760
  0.0099726016528844  0.0013262251928204  2.8322501803128204
  1.4249841814353772  1.4172214655530710  4.2067696357677038
  0.0028745157772449  0.0018784382456434  5.6760458816982835
  1.4237806159992492  1.4184460129998788  7.1138026934578775
  0.0024899441937725  0.0008433724941323  8.5341426697487819
  1.4227161069599015  1.4195069182859925 10.0031337908291835
  0.0099799389564993  2.8322575534019201  0.0013261985281834
  1.4250086207787462  4.2067696183192496  1.4172459839970530
 -0.0115404859209769  2.8537706525758062  2.8537707100103415
  1.4207840841595134  4.2631489621181924  4.2631105728264904
  0.0041337660196507  2.8380791681077846  5.6754785503845886
  1.4194340776985102  4.2648416661037372  7.1032194796407691
 -0.0040765620851901  2.8463740089923193  8.5275421450400888
  1.4220036716024509  4.2558735502450364  9.9503355692186446
  0.0028979941412974  5.6760323111831568  0.0018926670201679
  1.4237842056769752  7.1138026320775491  1.4184495955210412
  0.0041509686753665  5.6754785880275289  2.8380963815496223
  1.4194082598945041  7.1032723516102552  4.2648611575877187
 -0.0014272076473578  5.6873971021943195  5.6873554306384992
  1.4195133077670419  7.1032623368456838  7.1032804000349907
 -0.0001770500168947  5.6868315739350157  8.5259661368806405
  1.4230077628987692  7.1140033411515979  9.9507035444984790
  0.0025301169627655  8.5341620613158504  0.0008885872177648
  1.4227233353769635 10.0031337813111154  1.4195140105748851
 -0.0041438245417143  8.5275422057112351  2.8463066569886908
  1.4219584717657301  9.9502953957358660  4.2558930243970670
 -0.0001872028011814  8.5259951177025179  5.6868522027905408
  1.4229935744393829  9.9506799703852131  7.1139898444488878
 -0.0065286801604990  8.5194391439121127  8.5194915808783236
  1.4224412554570049  9.9577780641727021  9.9577854886926840
  4.2080168803123561  1.4195139967171730  1.4195069027551284
  2.8406219592460022  0.0016010688237671  2.7869018697493240
  4.2608150928977402  1.4202264624449394  4.2558735572626141
  2.8395610560346722  0.0026654942543579  5.6762329912969429
  4.2604471862330904  1.4192223883182249  7.1140033097571624
  2.8383366050482142  0.0038690885892841  8.5832661723332144
  4.2533652318892301  1.4197888596062631  9.9577781033704795
  2.8406290468477278  2.7869018718248095  0.0016081842719067
  4.2608552678323797  4.2558929857694583  1.4202717038753225
  2.8409039331600678  2.8322501791956420  2.8322576127985797
  4.2698739510918573  4.2705441021202741  4.2705964310327067
  2.8403374840836952  2.8393321241652485  5.6760322985095133
  4.2635222633855481  4.2640694041402485  7.1032041257514456
  2.8413415855390500  2.8397000600793603  8.5341620904306499
  4.2674217037708333  4.2624934482779695  9.9436616225145062
  2.8395646219205917  5.6762329118703017  0.0026690364656303
  4.2604706883321022  7.1139898620461235  1.4192365983581161
  2.8403517081730465  5.6760457845271572  2.8393556390766448
  4.2635324596945887  7.1031834000121234  4.2640404871116573
  2.8438319518438973  5.6867552397107692  5.6867733432068537
  4.2647724628577448  7.1026802130730653  7.1026385284169349
  2.8439111427942327  5.6868161979281959  8.5251938837596288
  4.2592114383252566  7.1145570491511458  9.9519564785464993
  2.8383610325978395  8.5832660259336322  0.0038935534737391
  4.2533726497598643  9.9577854897217914  1.4197888509878214
  2.8413868073377357  8.5341426627862003  2.8397402112660992
  4.2674890363920666  9.9437290011249573  4.2624934449265748
  2.8439369938785095  8.5251744197333057  5.6867632799020669
  4.2591942651786070  9.9519392697616862  7.1145570465570502
  2.8425611805170736  8.5269250198829631  8.5268866943447801
  4.2748857824796787  9.9362649810795283  9.9362649776397660
  5.6278847276021056  0.0038935895187311  0.0038690724379002
  7.0973480452527751  1.4184495621029731  1.4184459837158705
  5.6769886218151271  0.0008885799812825  2.8397000632903033
  7.1079312509135848  1.4227960742937804  4.2648416633971493
  5.6859568044414868 -0.0016809565059099  5.6868162360912349
  7.1078702913841898  1.4227168527717797  7.1032623363029277
  5.6842640851667028 -0.0003310648352375  8.5269250548050817
  7.0971609273536105  1.4192366106692846  9.9506799899606637
  5.6770080391763598  2.8397402326965064  0.0008433803291996
  7.1078783950278606  4.2648611927588682  1.4228219233978683
  5.6836085236611655  2.8463066312516441  2.8463739809946409
  7.1056896824391735  4.2620534888930637  4.2620642907957214
  5.6851844495965240  2.8424071415056078  5.6868315531388074
  7.1061303450288147  4.2647422353134949  7.1050109541159756
  5.6916591491222901  2.8487588732410467  8.5194392299821118
  7.1079672821724662  4.2640405448191290  9.9476182265000030
  5.6859762364616229  5.6867632745827805 -0.0017068093659668
  7.1078883912149893  7.1032804415168709  1.4227168543082105
  5.6851555394614799  5.6868522286038816  2.8424173524439089
  7.1061397316476222  7.1050203212470215  4.2647422729541944
  5.6858573184264403  5.6850153314074481  5.6850246936814148
  7.1076571714029555  7.1034935029814052  7.1034935330788658
  5.6831685236111946  5.6845746905256114  8.5279713337175203
  7.1084705450645176  7.1026384917876744  9.9463782564404433
  5.6842256715449846  8.5268866129654199 -0.0003309926347393
  7.0971473504279530  9.9507034940139185  1.4192223919472604
  5.6917115028907350  8.5194915422674367  2.8487588708079405
  7.1079466156481583  9.9476284645374644  4.2640693900702775
  5.6831794392962971  8.5279821764758950  5.6845746847770604
  7.1085121965296088  9.9463781855828373  7.1026802446988722
  5.6941745587132653  8.5169761974705676  8.5169762104801752
  7.0965937536533863  9.9519564477644789  9.9519392827427016
  8.5349177717801883  0.0026690677731882  0.0026654734361765
 10.0043810640168545  1.4172459507784185  1.4172215247692279
  8.5351184178980652  0.0018926478417974  2.8393321400141867
  9.9480401046541349  1.4214460643286158  4.2631489723726155
  8.5243773623746417 -0.0016018491374690  5.6867552818838112
  9.9462894984543588  1.4228219083107918  7.1032723187047138
  8.5243874664841357 -0.0017068563975777  8.5251744489716970
  9.9552577527615753  1.4202716516332905  9.9502954132615837
  8.5351048918471051  2.8393556830984052  0.0018784085885788
  9.9480017404039227  4.2631105844428081  1.4214461025829424
  8.5356720971011324  2.8380964012136789  2.8380791870050786
  9.9380912458498347  4.2730594059780556  4.2730594274750233
  8.5237952045077332  2.8436574106120807  5.6873970986630473
  9.9490972461167608  4.2620642748452564  7.1054609067550958
  8.5242984738859651  2.8424173860647666  8.5259951487745553
  9.9406066313606569  4.2705964971363022  9.9412767335070402
  8.5243954986160304  5.6867733303522447 -0.0016017591437765
  9.9463090149904918  7.1032194466428686  1.4227960427665785
  8.5237535411072631  5.6873554714810979  2.8436574060896560
  9.9490864104714181  7.1054609736019385  4.2620534917648749
  8.5246085987516853  5.6865420726014531  5.6865420969742626
  9.9464084683196248  7.1050109599066777  7.1050202331657681
  8.5261353945447294  5.6850247193227865  8.5252933408240388
  9.9470813138349161  7.1032040818481637  9.9476284447208236
  8.5243345442063738  8.5251939515965613 -0.0016809563340616
  9.9552771166719900  9.9503356355331665  1.4202265033081061
  8.5243191926194779  8.5259661934133018  2.8424071989672859
  9.9405542966438034  9.9412768096349939  4.2705441031481071
  8.5261260092486886  8.5252934007394252  5.6850153633703666
  9.9471102517432275  9.9476181985321990  7.1031833872408257
  8.5265760118218914  8.5279713001865520  8.5279821648297887
  9.9486572660935444  9.9436616195846703  9.9437289732127692
  2.8454049005151902 -0.0031747572359974 -0.0031748018766681
  1.4179403233539032  1.4242898498931080  1.4242898376105104
