Fe W 
 1.0000000000000000
    11.3817368883114884    0.0000000000000000    0.0000000000000000
     0.0000000000000000   11.3817368872641094    0.0000000000000000
     0.0000000000000000    0.0000000000000000   11.3817368858373396
 Fe  W  
 126   1
Cartesian
  0.0568256174448528  0.0450428238465634  0.0450716685771013
  0.0621596856692959  0.0567177270389298  2.7832708837597573
  1.4221666151356678  1.4234969342613315  4.3143788470937512
  0.0033364189622014 -0.0034116011607123  5.6878281781842261
  1.4155133949790306  1.4298105774238787  7.1124703496169692
 -0.0063852160943146 -0.0095956608988626  8.5301295255986549
  1.3884289719386547  1.4572377075227869  9.8612649750232304
  0.0621634784120865  2.7832744878637747  0.0567177790824935
  1.4219372757008784  4.3143790030226024  1.4232674381099988
  0.0557061339748837  2.7897281524029389  2.7897280496204098
  1.4246463224829049  4.2540339787534371  4.2539625478697474
 -0.0057554195396280  2.8512409865925381  5.6895249530815137
  1.4255154518483908  4.2579070764870348  7.1137624917014755
 -0.0186676368936499  2.8641573068263106  8.5118771072900437
  1.4197974008514778  4.2556136484327345  9.9619092879549065
  0.0034665915829476  5.6878361102331301 -0.0034088600858042
  1.4156236275783431  7.1124702984256531  1.4299207421341185
 -0.0058067712101130  5.6895248858308634  2.8511895575225688
  1.4255244455944986  7.1139436908564795  4.2577206635774383
  0.0050934468216761  5.6909383493579933  5.6908498796737934
  1.4240654835221140  7.1168004125203561  7.1168480849182396
 -0.0052267721640803  5.6870098382186365  8.5312671091150794
  1.4194336320006671  7.1158739750209481  9.9605690774450064
 -0.0067260165555422  8.5299784288607174 -0.0096810194655681
  1.3881962815058277  9.8612649923109998  1.4570053139994910
 -0.0187232433539408  8.5118771273167226  2.8641017752289204
  1.4195026575604550  9.9619923883078041  4.2557481335259579
 -0.0052022287412008  8.5311438087181575  5.6870358500704938
  1.4195501284358281  9.9603468634388612  7.1157664671077283
 -0.0068034233159152  8.5328201009927884  8.5328983356263670
  1.4124227494829829  9.9604975809812881  9.9606077301459219
  4.3659059937170168  1.4570052397073472  1.4572377807121852
  2.8003912941840317  0.0450717594715693  2.7886085619325414
  4.2652618075215747  1.4256368016826066  4.2556135956498355
  2.8450071052350419  0.0002234765919024  5.6871045228358268
  4.2666021355332520  1.4260006515971837  7.1158740442895771
  2.8399603102904019  0.0053982894377545  8.5169760438435809
  4.2665632741942536  1.4330115120805433  9.9604976395671923
  2.8003626256492464  2.7886085567814058  0.0450428571322203
  4.2651787381764628  4.2557481551676943  1.4259314487578247
  2.7887164267944535  2.7832709501896260  2.7832745314043055
  4.2480594623794765  4.2449958550217106  4.2448730426325945
  2.8488431725221042  2.8419676889298433  5.6878361727604494
  4.2680827222132738  4.2625987346009513  7.1146975170248856
  2.8551151660162737  2.8521602798463515  8.5299783092848873
  4.2555091491881694  4.2535136779737206  9.9718665188039282
  2.8452107542022249  5.6871044308409564  0.0004271098871026
  4.2668243495086857  7.1157665433289798  1.4258839664191458
  2.8488459162851787  5.6878281566652689  2.8420978673085657
  4.2679997594721542  7.1147621448075329  4.2624936205544994
  2.8461421478040427  5.6884840532378185  5.6884994055160760
  4.2666309216122400  7.1163582797681970  7.1162975653500666
  2.8464781223055833  5.6853470739567769  8.5401601802550520
  4.2653352512814209  7.1195471773445487  9.9615706376179141
  2.8400360109346505  8.5169762228411052  0.0054738955347031
  4.2666734536078605  9.9606077093347665  1.4330114328097803
  2.8550298940946215  8.5301295016815839  2.8518193816837805
  4.2553046903583862  9.9716619430213900  4.2535137819631661
  2.8466163233280906  8.5400385738336144  5.6853657358761112
  4.2656003886905243  9.9618358862193830  7.1195471404857518
  2.8504919013242329  8.5428830801946205  8.5428870612886190
  4.2224258090051059 10.0047453655529690 10.0047452842790161
  5.7101949358727113  0.0054739694507945  0.0053982362826885
  7.1147008295106211  1.4299207846290658  1.4298104835520971
  5.6971927518708911 -0.0096808305260096  2.8521602748466717
  7.1134086545533393  1.4199186684709846  4.2579070311232181
  5.6870111065748716 -0.0010438798844375  5.6853471004407030
  7.1103228835716878  1.4213687816579621  7.1168004500858775
  5.6842840771694467 -0.0050575289391897  8.5428830320270617
  7.1114044697089653  1.4258839583564158  9.9603468620841582
  5.6970416925361116  2.8518193817166870 -0.0095956001985055
  7.1132274479578443  4.2577206516084471  1.4199097753975811
  5.7152940311376179  2.8641017204959542  2.8641574036777304
  7.1217865829813443  4.2703045578745531  4.2703047418604987
  5.6959040520278510  2.8506611205528842  5.6870099073359937
  7.1146121692280406  4.2675771765763386  7.1124285756057350
  5.6942727856291810  2.8522376800103895  8.5328200710293256
  7.1124089488942159  4.2624936257830237  9.9591714189167924
  5.6871325361831273  5.6853657703208862 -0.0011821546517515
  7.1103706914902265  7.1168481759716533  1.4213688098536421
  5.6960273979042757  5.6870358095452689  2.8506365799843985
  7.1147426022386657  7.1125588932775452  4.2675772666377423
  5.6820536844642415  5.6839665001705351  5.6838504882990097
  7.1120443458037830  7.1151267181256284  7.1151266655352687
  5.6871955731456802  5.6825442181877186  8.5399516775608166
  7.1108127885578511  7.1162976332670791  9.9605401702945233
  5.6842880407160017  8.5428869130298200 -0.0050576625133402
  7.1112972702394766  9.9605690448448634  1.4260005132761939
  5.6943510435202027  8.5328983858921319  2.8522376149578577
  7.1124735446581493  9.9590883562715700  4.2625987707364175
  5.6872193705432910  8.5399753190373247  5.6825441890800672
  7.1108734588102838  9.9605402025568850  7.1163581251288051
  5.6821616112683708  8.5450095160149093  8.5450095542760174
  7.1076239995069068  9.9615707713769588  9.9618359131898266
  8.5400666373180787  0.0004270173265417  0.0002235240392351
  9.9127922628009255  1.4232675728470707  1.4234969936425623
  8.5393349707170358 -0.0034088162525653  2.8419676309464927
  9.9732085197843432  1.4207878124321631  4.2540340351764305
  8.5386716557474553 -0.0007080074276252  5.6884839806855396
  9.9694503349451953  1.4199098098393332  7.1139436937044183
  8.5418055126140686 -0.0011820411514322  8.5400384888461058
  9.9714229046320870  1.4259314605180329  9.9619923865363766
  8.5393429616878969  2.8420978283211875 -0.0034115920232063
  9.9731372006522143  4.2539624549112895  1.4207878907472280
  8.5376462460351004  2.8511896139875956  2.8512410997148629
  9.9740817717026484  4.2530893314375637  4.2530893446661464
  8.5363212377308262  2.8403407616328620  5.6909383505684410
  9.9568664592543552  4.2703048039749598  7.1053846062113388
  8.5401353939614584  2.8506365034553860  8.5311437264772234
  9.9821752360261637  4.2448729424203524  9.9791115504964765
  8.5386871161459137  5.6884993106765318 -0.0007080788306378
  9.9692640862200790  7.1137625703151190  1.4199186912106043
  8.5362328360359800  5.6908499079636945  2.8403407749081793
  9.9568663795260619  7.1053846356804522  4.2703046214046108
  8.5404619795522816  5.6867091752944834  5.6867091748512131
  9.9595937994240540  7.1124286020537362  7.1125589092287296
  8.5432046230900980  5.6838504530709075  8.5451173311225315
  9.9645723862001248  7.1146975662214036  9.9590884109900166
  8.5418239600959893  8.5401601055259597 -0.0010439139285863
  9.9715575086468355  9.9619092261319668  1.4256368383073719
  8.5401612270835390  8.5312671506251050  2.8506611733356020
  9.9822980753546329  9.9791115091794413  4.2449959537313608
  8.5433205822496401  8.5451173198804256  5.6839664570003343
  9.9646775065293465  9.9591713681707414  7.1147622220745834
  8.5446270318430706  8.5399517353434042  8.5399753032686121
  9.9736574983307094  9.9718664657963814  9.9716619145305199
  2.7263630301869068  0.1190711809892179  0.1190711768702775
