Fe Nb
 1.0000000000000000
    11.3749671750698216    0.0000000000000000    0.0000000000000000
     0.0000000000000000   11.3749671641838450    0.0000000000000000
     0.0000000000000000    0.0000000000000000   11.3749671756704167
 Fe  Nb 
 126   1
Cartesian
 -0.0791915530809250 -0.0090245206176438 -0.0092184479794014
  0.1216964030241533  0.0788308417516575  2.7216313504512675
  1.4341341749342376  1.4095547967601161  4.2909008638877912
  0.0067666983324917 -0.0075208613573046  5.6894873926583971
  1.4215195772324889  1.4222026485990535  7.1070728735612434
 -0.0010704206292823 -0.0135781870492384  8.5265147885012826
  1.3705857002707382  1.4728520948510664  9.7934132180376068
  0.1221104946382894  2.7220454371628082  0.0788307911552721
  1.4341870516788391  4.2909008851311707  1.4096076330180936
  0.0694181852394118  2.7743236740430248  2.7743236079149987
  1.4347855692291251  4.2339960116723505  4.2339003790180465
  0.0025573913144663  2.8412551089015037  5.6787976254046946
  1.4253809649429143  4.2561603194887656  7.1040921423219396
 -0.0109766309640065  2.8546435494477338  8.5020332653023605
  1.4152980297580471  4.2439240456594947  9.9506173994869993
  0.0070152788422464  5.6894860454373211 -0.0075828594892214
  1.4215390592760853  7.1070728856532677  1.4222222328838352
  0.0024867423700971  5.6787975548255991  2.8411843145293139
  1.4254151117069953  7.1042072021147629  4.2561588606566652
  0.0122440606155294  5.6788639140725463  5.6787344667213748
  1.4251533494871489  7.1076545252836354  7.1077749481188528
 -0.0066343420588939  5.6796581183977199  8.5225334070090497
  1.4184827066598027  7.1052111291092688  9.9572792940153878
 -0.0013937184016868  8.5263511606342686 -0.0134679023789752
  1.3708897582837785  9.7934132510479373  1.4731559909291865
 -0.0109017604358151  8.5020332332598691  2.8547183343345663
  1.4150335183735643  9.9508481536986828  4.2440548094249042
 -0.0065451780655397  8.5225447159492660  5.6796868582775977
  1.4185934516624028  9.9572114863800056  7.1052254359492366
  0.0011972190416538  8.5372672775259542  8.5372184938192799
  1.4206044448968340  9.9822762009433958  9.9827096631883236
  4.4252956864157156  1.4731561688173609  1.4728520746590172
  2.8527663309144482 -0.0092183862846271  2.9229333063035563
  4.2680916832509377  1.4284437988015022  4.2439240425963884
  2.8486844616807789 -0.0049977552276291  5.6840931989057051
  4.2614296744357416  1.4252590980633160  7.1052111700966174
  2.8353238127214664  0.0083431907079160  8.5289025330684769
  4.2359993452428624  1.4231374291386736  9.9822761463103564
  2.8529601888890546  2.9229334507375881 -0.0090244418946318
  4.2678608016836099  4.2440547622935654  1.4287082823349233
  2.7649110269828410  2.7216312719558577  2.7220453719212725
  4.2405881515870085  4.2244858214601759  4.2241963331834977
  2.8513246072070983  2.8367264485481103  5.6894860667790885
  4.2747045479444541  4.2672688915992678  7.1036001755655018
  2.8572097005392729  2.8451355309710262  8.5263512028978976
  4.2651229217234361  4.2629941401258247  9.9534918991311230
  2.8487394916981721  5.6840931667387347 -0.0049426528357540
  4.2614974748269727  7.1052255117345027  1.4251482925540850
  2.8512626867767414  5.6894873543071167  2.8369750997133849
  4.2745533352033709  7.1037083086283932  4.2672702902497921
  2.8487576507161094  5.6802732539675880  5.6803277632438895
  4.2623800832417080  7.1105723038422823  7.1104819894685258
  2.8451356283048641  5.6814124945689537  8.5300395529518784
  4.2620237385240385  7.1129644201252660  9.9564130097211336
  2.8353986033249545  8.5289025450596867  0.0084180408653669
  4.2364328405698402  9.9827096057023255  1.4231373310495095
  2.8573199635968010  8.5265148530444232  2.8448122400639235
  4.2652170797914586  9.9535860333728667  4.2629941628223245
  2.8452837035449026  8.5300668040471042  5.6815058203394067
  4.2622960110471846  9.9566852285769212  7.1129644326513999
  2.8347400251450545  8.5603117196057585  8.5602016767220626
  4.1911744692161266 10.0275344112151643 10.0275345907878481
  5.6898064631036211  0.0084179637490051  0.0083431576295420
  7.1116360217291241  1.4222222254327510  1.4222027121446033
  5.6923577326879693 -0.0134678847300733  2.8451355636503699
  7.1146169274309159  1.4183608044745240  4.2561602010021904
  5.6886693830622601 -0.0013937755956674  5.6814124892174771
  7.1109340379976587  1.4185884474895365  7.1076544852903254
  5.6585073662228291  0.0090018078700824  8.5603117167937164
  7.1134835026881706  1.4251483193292693  9.9572114769221223
  5.6921941489245125  2.8448122258810948 -0.0135783137731066
  7.1145017199974916  4.2561589148802330  1.4183267364571421
  5.7166756409076998  2.8547183598325505  2.8546436256256684
  7.1247374178218159  4.2667860315885378  4.2666004365922401
  5.6961754909898623  2.8503760163848573  5.6796581325355904
  7.1118064347263665  4.2640544197896766  7.1068379329890981
  5.6814903429619390  2.8425445653330708  8.5372672851696443
  7.1150006321881571  4.2672702716941444  9.9441555869139062
  5.6886421251596264  5.6815058814103585 -0.0015418743042315
  7.1110545049266536  7.1077749514990574  1.4185883992372288
  5.6961642535532286  5.6796868869211821  2.8502868436694295
  7.1118709665284454  7.1069024755396706  4.2640544462154040
  5.6825031433216333  5.6764464771542364  5.6764553379562326
  7.1103718933380202  7.1083370724268624  7.1083370299360329
  5.6891148481645484  5.6859993965197342  8.5297102455270046
  7.1081366389681246  7.1104820458763704  9.9563288768671523
  5.6583972355136529  8.5602016857613918  0.0090018041170645
  7.1134977761214291  9.9572793201944467  1.4252591044572938
  5.6814416713365850  8.5372185189225522  2.8425445802692910
  7.1151088778938130  9.9440045142278848  4.2672689466713312
  5.6889986752977215  8.5295940075408510  5.6859994412018979
  7.1082269783103857  9.9563288521596878  7.1105723008905768
  5.6705846437759080  8.5481242446318273  8.5481242945449818
  7.1057445653757316  9.9564129988322492  9.9566852522932585
  8.5346157404666645 -0.0049426641485458 -0.0049977510909202
  9.9278081733069588  1.4096075545031836  1.4095548024126234
  8.5292228979471538 -0.0075828579577208  2.8367265347844297
  9.9848085053374600  1.4089561996489386  4.2339960240215051
  8.5383812945433561 -0.0050158608582939  5.6802732783796657
  9.9625502524776604  1.4183266685803262  7.1042070994698081
  8.5372031063008080 -0.0015418115905333  8.5300669527959236
  9.9746541985045454  1.4287083269815164  9.9508481557736115
  8.5292215827645084  2.8369750338481108 -0.0075209667336646
  9.9847130158493229  4.2339004774156779  1.4089561358579530
  8.5399113169141181  2.8411842413911952  2.8412550959240859
  9.9784204650605250  4.2402884647602370  4.2402884894728041
  8.5399744542582052  2.8314976233251987  5.6788639090748241
  9.9519229838594345  4.2666005274773315  7.0939715663093468
  8.5390222162767841  2.8502868401179384  8.5225446933329199
  9.9942231184289394  4.2241962941276983  9.9781208460051332
  8.5384356443971221  5.6803277755477319 -0.0050158304601281
  9.9625487391734602  7.1040920606916185  1.4183608715464864
  8.5398450476732730  5.6787345314168665  2.8314977132850707
  9.9521085365155795  7.0939715648361306  4.2667860193038685
  8.5353987937481506  5.6833101401422876  5.6833102008533398
  9.9546544589602330  7.1068379116954743  7.1069024992122216
  8.5422625842097890  5.6764552210118051  8.5362057987907534
  9.9514401113136461  7.1036000476758119  9.9440044990647447
  8.5372965007577672  8.5300396358483894 -0.0013938029186053
  9.9747849400339348  9.9506173452523257  1.4284437903961036
  8.5390509293690631  8.5225334563630781  2.8503761242889882
  9.9945126198235741  9.9781207281472941  4.2244858810930666
  8.5422537917684735  8.5362057746100568  5.6764464116716002
  9.9514387308106453  9.9441554835652184  7.1037083567385464
  8.5327095160264417  8.5297101696408522  8.5295940795963094
  9.9557148210630313  9.9534918509995514  9.9535860654631758
  2.3878626860401853  0.4558791530701720  0.4558791380693250
