Fe
 1.0000000000000000
    11.3709228462115384    0.0000000000000000    0.0000000000000000
     0.0000000000000000   11.3709228524977366    0.0000000000000000
     0.0000000000000000    0.0000000000000000   11.3709228454107159
 Fe 
 127
Cartesian
  0.0531201642365015  0.0531200860298066  0.0531198536194521
  0.0531200301189200  0.0531200695669463  2.7896107688099443
  1.4213654985491992  1.4213652384799615  4.3045979283599038
 -0.0019946028022494 -0.0019101494496716  5.6870202045778306
  1.4213652422772012  1.4213653290463122  7.1068267189943555
 -0.0019100246509100 -0.0019946498204468  8.5266333066203259
  1.4213653504005035  1.4213652408456554  9.9090554290079549
  0.0531199059251329  2.7896104700760915  0.0531199912151745
  1.4213654646104150  4.3045981789771268  1.4213653225767380
  0.0531198028165685  2.7896105962681381  2.7896108821605266
  1.4213653114843330  4.2524512928999876  4.2524516593397319
 -0.0019101146218728  2.8447253733319151  5.6870201608562798
  1.4213653216112729  4.2553420209370083  7.1068267456619845
 -0.0019946756430833  2.8446407361254074  8.5266333730484511
  1.4213654163518854  4.2524514101510880  9.9612021258510417
 -0.0019101585624938  5.6870202577420663 -0.0019945764714736
  1.4213653673513316  7.1068267156969549  1.4213653660597398
 -0.0019948672966992  5.6870202581438516  2.8446409005541833
  1.4213654395264179  7.1068268710556781  4.2553420387550567
  0.0007990091718983  5.6852027559224814  5.6851604850423705
  1.4213654043636619  7.1068266813684513  7.1068266348501243
  0.0007990862382103  5.6851602809032373  8.5284507185889140
  1.4213654078174649  7.1068268551700591  9.9583117512525376
 -0.0019946006965743  8.5266333667723586 -0.0019100597080688
  1.4213653533624899  9.9090554405653233  1.4213652666795609
 -0.0019102118573127  8.5266333968126258  2.8447254091826077
  1.4213653879476404  9.9612023293748067  4.2524514413682946
  0.0007989926177610  8.5284931732470319  5.6852028460062680
  1.4213651361527413  9.9583117262549248  7.1068268492937783
  0.0007990449760962  8.5284510674984642  8.5284930708929849
  1.4213653447355923  9.9612022178882142  9.9612019464227863
  4.3045980120821810  1.4213654570230370  1.4213653757236568
  2.7896107336338467  0.0531201481182739  2.7896109208988662
  4.2524515012708655  1.4213653310336607  4.2524512982303602
  2.8446408062772890 -0.0019947179548570  5.6870199927738190
  4.2553419603523555  1.4213653677594158  7.1068267470223958
  2.8447253569316899 -0.0019101230742885  8.5266333712649764
  4.2524514564716815  1.4213653561122015  9.9612020172698319
  2.7896107771898673  2.7896106758311507  0.0531200149084157
  4.2524515074256346  4.2524516129360830  1.4213652365872929
  2.7896108647870781  2.7896104256898999  2.7896108649675000
  4.2462337479156540  4.2462335992493525  4.2462336860312853
  2.8447253333234266  2.8446408893847575  5.6870200078849988
  4.2593577005365697  4.2593579425857611  7.1068267682630122
  2.8446408087619801  2.8447253694637471  8.5266335422968211
  4.2462337169582378  4.2462336600940747  9.9674199943724489
  2.8447253241602142  5.6870202415203597 -0.0019101272102989
  4.2553418919981425  7.1068267427576144  1.4213654292625664
  2.8446408327105090  5.6870202255409703  2.8447252115896036
  4.2593576630877967  7.1068269132514317  4.2593577526413560
  2.8419316892081854  5.6851604374837414  5.6852028900694282
  4.2621379131009940  7.1068266848083859  7.1068266139245475
  2.8419316839376165  5.6852027403872931  8.5284930116640538
  4.2593576476872848  7.1068267267248002  9.9542958629132077
  2.8446408898979207  8.5266332411184838 -0.0019946833817093
  4.2524515691176390  9.9612017280816048  1.4213653209165205
  2.8447255388576758  8.5266331901535501  2.8446407886762373
  4.2462335820507686  9.9674198304797414  4.2462335156466606
  2.8419317359943741  8.5284507504380489  5.6851603499150309
  4.2593576914356328  9.9542957225793600  7.1068267925532318
  2.8419316808426212  8.5284930118299851  8.5284509036495635
  4.2462336835122683  9.9674198273159487  9.9674198223131381
  5.6870202631688747 -0.0019946841470557 -0.0019103672288992
  7.1068267376027574  1.4213653079629407  1.4213653530911745
  5.6870201541176595 -0.0019101773325074  2.8447255372485865
  7.1068267306336512  1.4213652894239850  4.2553420796060966
  5.6851603873082812  0.0007990769800910  5.6852027489715793
  7.1068267494639086  1.4213653528531929  7.1068267768999966
  5.6852026961759403  0.0007992749573460  8.5284932755838430
  7.1068265527204399  1.4213652591580466  9.9583115964031315
  5.6870202150345168  2.8446407763306478 -0.0019947208099513
  7.1068268974490643  4.2553418026227288  1.4213654250799010
  5.6870202583905050  2.8447254572730869  2.8446409107551300
  7.1068267416171578  4.2593575371665837  4.2593577815506434
  5.6852027284688926  2.8419315063664805  5.6851602880471281
  7.1068267763314861  4.2621381724855638  7.1068268723805810
  5.6851603931118531  2.8419315121449227  8.5284510432418745
  7.1068267579263447  4.2593577118293879  9.9542956945059444
  5.6852025943495832  5.6851603128697441  0.0007989899877961
  7.1068269513662603  7.1068269057433326  1.4213652965489614
  5.6851604825016571  5.6852026316517517  2.8419317300141849
  7.1068267766954829  7.1068267818918729  4.2621381965510396
  5.6775692750715177  5.6775693772058178  5.6775693728812495
  7.1068269645911633  7.1068268909860830  7.1068267076114768
  5.6775692927289167  5.6775691071928271  8.5360841605393567
  7.1068267940380903  7.1068267835427186  9.9515154050070951
  5.6851605023456413  8.5284510872965367  0.0007990844336233
  7.1068268261605292  9.9583115836368776  1.4213652949492348
  5.6852026387945989  8.5284932336986667  2.8419315649516803
  7.1068268307607605  9.9542960043220710  4.2593576439419714
  5.6775692284430468  8.5360842232935337  5.6775692729959788
  7.1068268660744263  9.9515154474092409  7.1068268436296957
  5.6775692967025329  8.5360843872592280  8.5360842698964863
  7.1068266835341793  9.9542959492224128  9.9542958554530454
  8.5266332892332777 -0.0019102232964574 -0.0019946599729338
  9.9090557573245892  1.4213655690843352  1.4213653409627800
  8.5266334075841304 -0.0019948211173867  2.8446408754306240
  9.9612021524871874  1.4213654281483610  4.2524514837596881
  8.5284508332275788  0.0007990792569433  5.6851604650122267
  9.9583116718089499  1.4213654243905010  7.1068268406671624
  8.5284930704377206  0.0007990726738382  8.5284507649749788
  9.9612021679857801  1.4213655494729676  9.9612021434977045
  8.5266333706721991  2.8447255311164485 -0.0019101055925653
  9.9612019525369533  4.2524515279313135  1.4213653780731486
  8.5266333427812029  2.8446410696913134  2.8447253887331860
  9.9674199000390811  4.2462336265186185  4.2462336122042883
  8.5284930951959055  2.8419315388094484  5.6852026366048021
  9.9542958552661069  4.2593578820377065  7.1068269368130128
  8.5284508507806134  2.8419317337430305  8.5284931866695324
  9.9674198093969171  4.2462336697998735  9.9674199469972358
  8.5284933300233661  5.6852027368619238  0.0007991483828247
  9.9583116312808375  7.1068268074490550  1.4213654434750977
  8.5284509676717342  5.6851604568099878  2.8419315345448570
  9.9542958610409276  7.1068266725629972  4.2593577258726034
  8.5360843459220561  5.6775694756946544  5.6775694744240282
  9.9515154787553808  7.1068267246983901  7.1068267495315096
  8.5360842415678011  5.6775692482520874  8.5360843003572349
  9.9542958808792044  7.1068267586066529  9.9542958828584620
  8.5284507691101403  8.5284931319171431  0.0007991312346619
  9.9612020238912642  9.9612017824372039  1.4213654291464710
  8.5284932429764986  8.5284509966260220  2.8419314990898958
  9.9674198258146642  9.9674199759326765  4.2462336067822148
  8.5360841910962346  8.5360842017136136  5.6775694914849195
  9.9542958758689508  9.9542957506371685  7.1068268547821072
  8.5360842576575493  8.5360842158894421  8.5360841629512922
  9.9674199051921200  9.9674198177958679  9.9674198830072687
  2.7896105906888287  0.0531199232232535  0.0531199363617380
