Fe Re
 1.0000000000000000
    11.4067477562169071    0.0000000000000000    0.0000000000000000
     0.0000000000000000   11.4067477593975557    0.0000000000000000
     0.0000000000000000    0.0000000000000000   11.4067477625411033
 Fe  Re 
 126   2
Cartesian
  0.0522067881322940  0.0120931888258749  0.0119615122176226
  1.4258434517040453  1.4258434158801152  1.4258433923446467
  0.0120931190849500  0.0522066472202237  2.8397253851238728
  1.4456992988339947  1.4060508162088663  4.2793019302317905
  0.0023281069952217  0.0115265497546331  5.6949064310823472
  1.4257187223071597  1.4257187149130248  7.1292173037151905
  0.0115264881350014  0.0023281838286086  8.5635283049786821
  1.4060508196343100  1.4456992433779245  9.9791327223748851
  0.0119615301267123  2.8395938275359471  0.0522068225298945
  1.4456361880264779  4.2793019678190234  1.4059876866015897
  1.4467333597009169  4.2998705642330375  4.3000358537125232
  0.0001952237765774  2.8514035166340186  5.6539889392754770
  1.4132887648921324  4.2688033250468758  7.1268325872510863
  0.0039003165791478  2.8477393392651824  8.5578796215112281
  1.4258434122467341  4.2695974481908259  9.9888372342125749
  0.0023540077653403  5.6951315640574407  0.0114857344156536
  1.4259681746545738  7.1292173298931578  1.4259681084488367
  0.0002835664794307  5.6539889093819378  2.8514917925371250
  1.4131647458181551  7.1266988657561061  4.2688764936127859
  0.0019483317930760  5.6913433261214390  5.6914130158277638
  1.4258435190314225  7.1293249060187511  7.1291098582005095
  0.0007009290181642  5.7028844731570594  8.5558373292108314
  1.4383982073925050  7.1316021915477652  9.9896315010403853
  0.0114857651332669  8.5633031185981299  0.0023540356695766
  1.4059876788857451  9.9791327387213791  1.4456360832369748
  0.0039475711344138  8.5578795554334537  2.8477866741342037
  1.4258434454957569  9.9888037175512316  4.2696310507685320
  0.0006209407535124  8.5558023628129263  5.7029729256957742
  1.4385221347402335  9.9895581613425470  7.1317357204598544
 -0.0005622657323653  8.5542084495419815  8.5542623210960027
  1.4049534798256189  9.9583988193152955  9.9585640842750980
  4.2793018828119544  1.4456360809209903  1.4456992819678982
  2.8395938226188235  0.0119614903889104  2.7994801198206849
  4.2695974233566467  1.4258435036100290  4.2695974779147514
  2.8477393694944069  0.0039003458061483  5.7005550046603828
  4.2688033037097721  1.4132887849849036  7.1316022523580918
  2.8514034354685172  0.0001952426159492  8.6044458149614531
  4.2998706287184705  1.4467334090462385  9.9583987796832716
  2.8397254351753602  2.7994802426254770  0.0120932224705286
  4.2696309057986550  4.2696310483132880  1.4258433469552214
  2.7994802287398439  2.8397253838140424  2.8395937528759352
  4.2746065982131176  4.2671463291828369  4.2669666403750757
  2.8402011996819994  2.8493329866828532  5.6951315549698123
  4.2787657356043889  4.2787656640573024  7.1292173935579948
  2.8493329575320274  2.8402011360138619  8.5633030722516601
  4.2671464571225242  4.2746065380887579  9.9914681050013012
  2.8477866716465661  5.7005550952032653  0.0039477122574386
  4.2688764645057420  7.1317357501368601  1.4131647726983720
  2.8401603457234441  5.6949064381603289  2.8493588277414794
  4.2787374942405147  7.1292174616764692  4.2787374303145116
  2.8522491376487960  5.7041722718964909  5.7042263214673552
  4.2817654724107914  7.1303666719042660  7.1305160917471806
  2.8509860121688924  5.7025973144719107  8.5555501882621741
  4.2664034851832771  7.1323170306694896  9.9919113695139572
  2.8514916707827176  8.6044457967298662  0.0002835804923564
  4.3000359614470334  9.9585640827242585  1.4467334444737634
  2.8493587840441417  8.5635282528164574  2.8401603823087611
  4.2669666263665107  9.9912882158292167  4.2746065920615459
  2.8510659302116395  8.5554618458040146  5.7026323555023151
  4.2665232841643732  9.9920312835709613  7.1323170472797628
  2.8497384822844043  8.5670216979320664  8.5670912823979464
  4.2996346165324431  9.9588001009310894  9.9588001928511787
  5.6539888269866356  0.0002835545031312  0.0001952379793315
  7.1292173031726023  1.4259682296391409  1.4257188401618637
  5.6951315523775765  0.0023540371375996  2.8402011799382647
  7.1316021908226030  1.4383981951382756  4.2688033295664232
  5.7028844022972134  0.0007008465050500  5.7025972808869163
  7.1293248364917492  1.4258435038059178  7.1293248213151434
  5.6913433631412520  0.0019484182630258  8.5670216708797842
  7.1266989696517653  1.4131647849159801  9.9895582050899456
  5.6949064152374467  2.8401603656654806  0.0023281100041334
  7.1317356962880751  4.2688765402906048  1.4385221845789131
  5.7005550135504990  2.8477867096576026  2.8477394093669690
  7.1323171052980650  4.2664035175166051  4.2665232546802878
  5.7025972498425661  2.8509861091140918  5.7028844869829527
  7.1303666582059275  4.2817654410919292  7.1279187193050202
  5.7041723063868881  2.8522491051697214  8.5542084362302884
  7.1292173999444977  4.2787374201583930  9.9796972656156484
  5.7029729053545406  5.7026322919102421  0.0006209519897055
  7.1291098273642213  7.1291097801291237  1.4258435041898909
  5.7026323465683442  5.7029728403289228  2.8510659801037157
  7.1305160941068637  7.1280679101920370  4.2817654634941986
  5.6982035154701807  5.7001346554040069  5.7000796399942981
  7.1292173631613993  7.1292174003600239  7.1292173366258771
  5.7001347095619401  5.6982034764816207  8.5583551128543505
  7.1280680285784710  7.1305160787641562  9.9766692449654535
  5.6914130479502356  8.5670913808280833  0.0019484025614580
  7.1268324802367662  9.9896314333713754  1.4132887285625453
  5.7042262607675509  8.5542624307082384  2.8522492245009827
  7.1292173405382409  9.9796690556529857  4.2787656635285884
  5.7000795986942530  8.5582998959503556  5.6982034897397797
  7.1279186519548547  9.9766692403774631  7.1303666551197624
  5.7026883428351729  8.5557464607235545  8.5557464198187834
  7.1261176829775286  9.9919114345676423  9.9920312978337584
  8.5578796712987142  0.0039475666736957  0.0039002989833584
  9.9791327862553398  1.4059877091524975  1.4060508991241822
  8.5633031708607117  0.0114857753931667  2.8493328650189209
  9.9583987756048362  1.4049534592926161  4.2998705460712223
  8.5542083716007014 -0.0005622566036321  5.7041722983757461
  9.9895582548151047  1.4385221376808555  7.1266989381423951
  8.5558023869100293  0.0006209705881323  8.5554618391755657
  9.9888037277122326  1.4258434993060909  9.9888037021527385
  8.5635283366247883  2.8493587855394873  0.0115265444105139
  9.9585640792207037  4.3000358593689025  1.4049534549372968
  8.6044457777890084  2.8514916985772460  2.8514034272513165
  9.9588000906565703  4.2996345408331367  4.2996346064187589
  8.5670216897216864  2.8497385315720849  5.6913434372051626
  9.9920312269617657  4.2665232311236707  7.1261177846389137
  8.5554618594565319  2.8510660101975454  8.5558024287917558
  9.9912882147767217  4.2669666679744918  9.9838281262553945
  8.5542623186084619  5.7042262956127257 -0.0005622089053412
  9.9896314563206925  7.1268324707272512  1.4383982497108425
  8.5670913129529929  5.6914130475170159  2.8497385343014119
  9.9919114002373206  7.1261175668151830  4.2664034817953000
  8.5557464576402147  5.7026883343361421  5.7026883359410148
  9.9766692308230756  7.1279185873377084  7.1280681165239717
  8.5582998967701034  5.7000794973429327  8.5602312745461351
  9.9796690284256613  7.1292172934110543  9.9796690298950779
  8.5558373399748522  8.5555501563818375  0.0007010673209559
  9.9888372741084446  9.9888372183595866  1.4258434397370758
  8.5555501415966457  8.5558374117434717  2.8509860836483414
  9.9914680952690240  9.9838281230812775  4.2671464548440312
  8.5583551322662608  8.5602312419954707  5.7001347082188909
  9.9796971945171578  9.9796972097031862  7.1292173838397472
  8.5602311395639816  8.5583552201306361  8.5582999573767662
  9.9838280814872693  9.9914680718584972  9.9912882326835017
  2.8769054352208601 -0.0252184681944911 -0.0252184195900543
 -0.0252184996444765  2.8769055424723504  2.8769055324745634
