Fe Hf
 1.0000000000000000
    11.4012596525948258    0.0000000000000000    0.0000000000000000
     0.0000000000000000   11.4012596469920435    0.0000000000000000
     0.0000000000000000    0.0000000000000000   11.4012596511739055
 Fe  Hf 
 126   2
Cartesian
  0.0012121789859676  0.0134800760143186  0.0129259579039681
  1.4251575260480638  1.4251573694651283  1.4251575075637468
  0.0134800696588900  0.0012120554363680  2.8373890238935662
  1.5028721443562032  1.3478480237272721  4.3269843008689470
 -0.0005381185149486  0.0197757296486140  5.6841155373290118
  1.4250989741991327  1.4250990283481748  7.1257873089039832
  0.0197757912060759 -0.0005381432903390  8.5674591231893693
  1.3478480200178906  1.5028723037548355  9.9245902314079224
  0.0129260116649370  2.8368347938039680  0.0012122334988583
  1.5024669250248208  4.3269844751099500  1.3474426954342127
  1.5205841720145248  4.3703041648182213  4.3700870626390342
 -0.0037188942795165  2.8539155122035749  5.7357921581433891
  1.4283715142244653  4.2758187168585327  7.1188658778706158
 -0.0296748740040070  2.8798909710203060  8.5169073400150559
  1.4251574816763202  4.2690436179550151  9.9825310367275382
 -0.0005727506896308  5.6844561159945899  0.0196743909326626
  1.4252159240955298  7.1257873176235682  1.4252159608182067
 -0.0036006003768830  5.7357921079762084  2.8540337989944367
  1.4283618916234251  7.1188199137759680  4.2759208586672104
  0.0038706765567272  5.6886729281114974  5.6887901269967545
  1.4251574663164024  7.1258045331690747  7.1257700934479189
 -0.0031247196118960  5.7027569568032845  8.5442598162707348
  1.4219433306578551  7.1327085764134637  9.9757560293007828
  0.0196742807563016  8.5671183639229209 -0.0005726820560004
  1.3474427942977376  9.9245900973076946  1.5024669790686442
 -0.0295761447687580  8.5169073923872265  2.8799896457587795
  1.4251575206620766  9.9823158503290053  4.2692588366176931
 -0.0031346106513635  8.5441595317733299  5.7029326784642542
  1.4219530838030876  9.9756536937840377  7.1327544931956446
 -0.0274910985386300  8.5199608528200130  8.5200033063719030
  1.3297307951980528  9.8814875547158962  9.8812702163973398
  4.3269843178671517  1.5024670077141755  1.5028721847646460
  2.8368348478117142  0.0129259769084579  2.8491027640100111
  4.2690435389510126  1.4251574254196098  4.2690435194621505
  2.8798910137077582 -0.0296748683698819  5.7346671850966704
  4.2758186467331987  1.4283717079445164  7.1327086058050897
  2.8539155006815955 -0.0037189367567344  8.5157824437109753
  4.3703043938695076  1.5205842540526144  9.8814875811047198
  2.8373888783162573  2.8491029277005828  0.0134800615469388
  4.2692587313934434  4.2692587758205338  1.4251574954202026
  2.8491029146921125  2.8373889547134445  2.8368347434752654
  4.2613902050394072  4.2757267588588865  4.2756386283482231
  2.8306404424855516  2.8508877091417779  5.6844562996451842
  4.2702144159880682  4.2702143613415204  7.1257873249352039
  2.8508876433662071  2.8306405230485230  8.5671184578527679
  4.2757267277130886  4.2613902651387132  9.9759359686961577
  2.8799897726159003  5.7346672363116404 -0.0295761879824364
  4.2759207734631923  7.1327546085743165  1.4283619927267766
  2.8305391816002268  5.6841156288840384  2.8508530578411255
  4.2700233271528747  7.1257872655291870  4.2700233525884110
  2.8778059429738412  5.7315711600684907  5.7316137784249541
  4.2828967172647330  7.1374585022977124  7.1376451215943684
  2.8534397495235160  5.7073146630686749  8.5488175334480054
  4.2856612570554020  7.1490911953312164  9.9659008027637022
  2.8540339552371528  8.5157824692951998 -0.0036004392429781
  4.3700869988457729  9.8812702264361363  1.5205841935939943
  2.8508530939365491  8.5674590739840841  2.8305390429008339
  4.2756387114135226  9.9758477455648382  4.2613901184333205
  2.8534494429422277  8.5486418571826697  5.7074148483676375
  4.2856736575873562  9.9659134919685552  7.1490912711812582
  2.8464442880120129  8.5627844476944386  8.5629016820598292
  4.4079817937197534  9.8435927163927932  9.8435929261280180
  5.7357920316640909 -0.0036004452499836 -0.0037191046242130
  7.1257873167318690  1.4252159551263008  1.4250990044042322
  5.6844561926688435 -0.0005727714659405  2.8306406221880316
  7.1327086092384855  1.4219432716808149  4.2758185859430267
  5.7027569224001349 -0.0031248989611035  5.7073146343441250
  7.1258045599700592  1.4251574819004693  7.1258046707621769
  5.6886729022164149  0.0038706646674646  8.5627845281042472
  7.1188199855917418  1.4283619410708759  9.9756537131839469
  5.6841154814858017  2.8305391001125728 -0.0005381599827698
  7.1327546628321485  4.2759209007687993  1.4219530644896337
  5.7346671080037170  2.8799897917023372  2.8798909383338192
  7.1490912372531605  4.2856611512521736  4.2856737505109503
  5.7073148589591458  2.8534397410542862  5.7027569530351396
  7.1374583754121828  4.2828966981035803  7.1139295575307777
  5.7315711661432118  2.8778059515380279  8.5199609519710648
  7.1257873436420187  4.2700234198914133  9.9815512573322138
  5.7029328848136309  5.7074149237195089 -0.0031345172809816
  7.1257699186333818  7.1257699811990989  1.4251575078626246
  5.7074151353035774  5.7029328193336548  2.8534494638675190
  7.1376451323042822  7.1141160570905422  4.2828967498558619
  5.6989598637842604  5.7019856995858200  5.7018480864253540
  7.1257872582306243  7.1257872578834336  7.1257872477622337
  5.7019858020506735  5.6989597701657253  8.5497262598970174
  7.1141160170869737  7.1376451262359737  9.9686778539081491
  5.6887901395317142  8.5629016941085538  0.0038706541647070
  7.1188661332626593  9.9757560143937454  1.4283715465743343
  5.7316136457872338  8.5200033684808343  2.8778058456128606
  7.1257874104807373  9.9813601006063060  4.2702144223742300
  5.7018482450337542  8.5495885672212335  5.6989599312546444
  7.1139293585513803  9.9686779437145177  7.1374584824445266
  5.7363801403692696  8.5151943888713486  8.5151944386479776
  7.1024833446501363  9.9659007659046122  9.9659133156434514
  8.5169073229424850 -0.0295761218045511 -0.0296748198632825
  9.9245901763448838  1.3474428276217807  1.3478481248988348
  8.5671183876419743  0.0196743279511495  2.8508874219208051
  9.8814876640591951  1.3297306895526666  4.3703042609188900
  8.5199610483357997 -0.0274911168630825  5.7315712567097119
  9.9756536972034215  1.4219529536579527  7.1188200905840819
  8.5441594966542560 -0.0031345585838481  8.5486418373636965
  9.9823157560484947  1.4251573623483440  9.9823157408220489
  8.5674589318228627  2.8508530838034476  0.0197757189067092
  9.8812702402301902  4.3700870573842607  1.3297307039630746
  8.5157824740714698  2.8540339487846076  2.8539154692686495
  9.8435927660280367  4.4079817881188248  4.4079818432232623
  8.5627844899295287  2.8464442186775893  5.6886729128938880
  9.9659133917190346  4.2856737371473788  7.1024833668546190
  8.5486417158775616  2.8534495357025227  8.5441595448616159
  9.9758479032893987  4.2756386824254777  9.9901842855156318
  8.5200033903189016  5.7316136740747190 -0.0274911281552215
  9.9757560141456150  7.1188658809942131  1.4219433097123111
  8.5629016385607972  5.6887900525331236  2.8464442426487691
  9.9659008319610063  7.1024833067771889  4.2856610966271456
  8.5151943857823866  5.7363802214733663  5.7363801678362343
  9.9686779731682122  7.1139293834278474  7.1141160756471802
  8.5495887115243168  5.7018481218781316  8.5526146248735895
  9.9813600661013560  7.1257873231483488  9.9813601476559164
  8.5442599081227222  8.5488176955302730 -0.0031247719184025
  9.9825310405968732  9.9825310386838186  1.4251573940568449
  8.5488174554839240  8.5442598729673769  2.8534397245919236
  9.9759359543122645  9.9901843300077910  4.2757266376598206
  8.5497262600431103  8.5526146296787413  5.7019857499651945
  9.9815512798027548  9.9815512562066591  7.1257872859073288
  8.5526148099194934  8.5497264333177139  8.5495888953280055
  9.9901843161866655  9.9759359319554459  9.9758478219614659
  2.9510553397006607 -0.1007405345692211 -0.1007405785789448
 -0.1007404537637724  2.9510554450333184  2.9510553420103225
