Fe Pd
 1.0000000000000000
    11.4329815757019198    0.0000000000000000    0.0000000000000000
     0.0000000000000000   11.4250195065048192    0.0000000000000000
     0.0000000000000000    0.0000000000000000   11.4329815652771583
 Fe  Pd 
 126   2
Cartesian
  0.0306709994444477  0.0000001899418097  0.0306708568541247
  1.4291227505887603  1.4934382269071493  1.4291226142685169
  1.4628001990661041  1.4521502749359967  4.3216849054139788
 -0.0036523820732983 -0.0000602133863648  5.6746018999334096
  1.4291228326615859  1.4261557508021510  7.1456134530918511
 -0.0128027715066074 -0.0001719420996035  8.5661327046861953
  1.3954454589187522  1.4521502412355549  9.9695422310434445
 -0.0017580247568848  2.8691030923257981 -0.0019381587725078
  1.4291223715245165  4.2886940366826032  1.4291224630069090
 -0.0181324006816244  2.8572872036602357  2.8765237079259318
  1.4276704785593302  4.2921615174000909  4.3008294616552520
 -0.0071910471894405  2.8677625352517717  5.7186792537753064
  1.4291227483869544  4.3030463072369329  7.1456134902232638
 -0.0194035102120485  2.8769082999624631  8.5570249415949711
  1.4305752411657464  4.2921613843688977  9.9903974539224496
 -0.0057156283555282  5.7125095709610099 -0.0057160606050215
  1.4291224958090971  7.1363254429279799  1.4291227358236369
 -0.0095218418619822  5.7125097903654911  2.8677671666608098
  1.4279320500772350  7.1328311079533817  4.3005388549524799
  0.0032582539770044  5.7125268594027325  5.7180809237824572
  1.4291225300657813  7.1219894727269928  7.1456138660804669
 -0.0067236297035146  5.7125222053444400  8.5716155273238659
  1.4303134304876015  7.1328309285924361  9.9906882923228988
 -0.0019383387983334  8.5559168342697838 -0.0017579099291752
  1.4291232354326013  9.9315812265267258  1.4291219715867300
 -0.0182780116542635  8.5677318717508761  2.8763774830941755
  1.4626179099621268  9.9726563174942040  4.3212963414201209
 -0.0071281647811687  8.5572077464127574  5.7186496219922835
  1.4291225326749841  9.9981357672115188  7.1456135213748775
 -0.0193242193304501  8.5481469636032354  8.5571978930863093
  1.3956277945509181  9.9726567033115678  9.9699311989107962
  4.3212956415690265  1.4523626602766637  1.4626174681147799
  2.8275747694425353  0.0000000999155231  2.8275742647947015
  4.2888241231765099  1.4327627710261583  4.2887817854148507
  2.8710479208732935 -0.0001718636093865  5.7250941371927597
  4.2973118125803005  1.4351671441228036  7.1625568398811987
  2.8618977266234089 -0.0000600579766907  8.6166251279425143
  4.3347309982453650  1.4603405228289978  9.9567945531696846
  2.8763776899849640  2.8572871609395745 -0.0182782003611380
  4.3005388760727064  4.2921881455049444  1.4279317556020308
  2.8600034522194111  2.8691028212114444  2.8601839921667134
  4.3029006244682328  4.3020289153746409  4.3028488366693756
  2.8776487108263820  2.8769076187987861  5.7342020141701360
  4.3010137727901325  4.3028931479832737  7.1449635296687362
  2.8654365138310984  2.8677623187973031  8.5725480910123490
  4.3028626397859000  4.2871040411293251  9.9885082684164850
  2.8677674808279572  5.7125095317765897 -0.0095220574786367
  4.3008294666430640  7.1328578665946374  1.4276702574580400
  2.8639609845896743  5.7125095653714144  2.8639614275561356
  4.3028489985817027  7.1229905117932963  4.3029005681167041
  2.8649693849284681  5.7125223454229728  5.7196113724859643
  4.3010674082999891  7.1221872038613538  7.1449758311833991
  2.8549872453520084  5.7125273180153107  8.5731462245082941
  4.3027185097378924  7.1379150652238978  9.9883641227903492
  2.8765235715480895  8.5677323675235382 -0.0181321810977196
  4.3216848936259673  9.9728693935145216  1.4627996429291668
  2.8601835790391901  8.5559166407674674  2.8600035824241195
  4.2887816796493947  9.9922566211455095  4.2888244076149107
  2.8775694471053908  8.5481473986144501  5.7340289505258681
  4.2976827336023078  9.9898663024553116  7.1623908659948601
  2.8653735959979110  8.5572076112931814  8.5725773280973314
  4.3344323940351002  9.9646795267824686  9.9564959414530438
  5.6746017348183004  0.0000598070435778 -0.0036521375293944
  7.1456136250314390  1.4268835467999712  1.4291225132098722
  5.7250944286187435  0.0001717160439780  2.8710480972580705
  7.1623909116586422  1.4351531044375079  4.2976820852837676
  5.7190383422813582 -0.0000001887599126  5.7190383585688664
  7.1456134030805751  1.4379815959561046  7.1456136380278528
  5.7235810158031892  0.0000001038560733  8.5676460674433574
  7.1288362745586875  1.4351530582770045  9.9935444611781676
  5.7186497475249913  2.8678118656613227 -0.0071283481648069
  7.1456134606222230  4.3030302563307288  1.4291225774679290
  5.7340292272114670  2.8768721977645346  2.8775700730531448
  7.1449756076034214  4.3028318726435337  4.3010673273919204
  5.7218514676480732  2.8666056127751918  5.7219627751161353
  7.1456134788664762  4.3076261139472640  7.1456136823534671
  5.7393272444667121  2.8719972220422534  8.5518290537180111
  7.1462515660575976  4.3028318029570691  9.9901592790255034
  5.7180808364784683  5.7124924312685348  0.0032582032545669
  7.1456136827651120  7.1219736026684552  1.4291226767900376
  5.7196111509841874  5.7124969691970566  2.8649693241299992
  7.1449635696784632  7.1221263803899806  4.3010137125673928
  5.7117863268743641  5.7125097463266163  5.7117862370076109
  7.1456135764553199  7.1173935429041251  7.1456134614424318
  5.7209803440331788  5.7125098348305157  8.5702465272569217
  7.1462633257726038  7.1221259729340920  9.9902132787105398
  5.7186790395042939  8.5572569346302316 -0.0071911446326912
  7.1456136003122417  9.9988635661205638  1.4291227893939218
  5.7342021741472022  8.5481117070494790  2.8776489375233898
  7.1625568618380422  9.9898523972731788  4.2973119994148892
  5.7219626357697120  8.5584137875738673  5.7218515030617620
  7.1456135263238982  9.9870373224875202  7.1456136206115621
  5.7393982448268002  8.5530223485783328  8.5518995245658793
  7.1286702293278168  9.9898522477828333  9.9939147129008337
  8.5661324678450281  0.0001720500941974 -0.0128028787668813
  9.9699310956358751  1.4523629227609163  1.3956278097002224
  8.6166249849146990  0.0000600892753323  2.8618973759736015
  9.9564956740684281  1.4603404762931516  4.3344327027876455
  8.5676460289712573  0.0000000390975592  5.7235810146409660
  9.9939147395975478  1.4351671624192233  7.1286700602702249
  8.5721882767623043  0.0000000859746362  8.5721885998544938
 10.0024024164375298  1.4327625586936434 10.0024452226257150
  8.5571977815222393  2.8768721425861594 -0.0193244107764384
  9.9906879347191744  4.2921883591214502  1.4303133949652644
  8.5725771932872004  2.8678119285771535  2.8653740560733691
  9.9883643432920177  4.2871036303889989  4.3027186459123676
  8.5519001561507348  2.8719972301651651  5.7393977573108756
  9.9902134673986680  4.3028930782099133  7.1462635963713748
  8.5693756130138983  2.8666058028159576  8.5692645223562476
  9.9883268070728679  4.3020286227507647  9.9883779281539908
  8.5716154312122672  5.7124970667592772 -0.0067239541498302
  9.9903974811335061  7.1328583992450314  1.4305752900313489
  8.5731461501965889  5.7124925481873561  2.8549871222095784
  9.9885079957241327  7.1379156262139229  4.3028627157196562
  8.5702466670069430  5.7125096161745335  5.7209803179314491
  9.9901596727839372  7.1221874367790647  7.1462514957723702
  8.5794403754023936  5.7125098562961378  8.5794405876226350
  9.9883778506521494  7.1229909118771193  9.9883261550055575
  8.5570252607499064  8.5481115458406869 -0.0194029883462054
  9.9695417720761963  9.9728689978528191  1.3954451562438064
  8.5725481856922148  8.5572572629264414  2.8654364458054364
  9.9567941477366730  9.9646791538677206  4.3347316036366008
  8.5518293105450383  8.5530226984442255  5.7393270013984026
  9.9935445076379708  9.9898664194358648  7.1288357001259337
  8.5692642078168682  8.5584135222586166  8.5693752763669249
 10.0024454908800227  9.9922569467902314 10.0024024829897247
  2.8971085828671592 -0.0000003725538602 -0.0388632145723881
 -0.0388632673454566  0.0000002368954992  2.8971085104646650
