Fe Mo
 1.0000000000000000
    11.3811619667522450    0.0000000000000000    0.0000000000000000
     0.0000000000000000   11.3807161616378902    0.0000000000000000
     0.0000000000000000    0.0000000000000000   11.3811619654661111
 Fe  Mo 
 126   1
Cartesian
  0.0065713677868176  0.0142773406273244  0.0000711231671786
  1.4301359877998931  1.5017431890299557  1.4156078286024936
  0.0107358955098346  0.0088729535518449  2.8345493750098840
  1.4171617595177031  1.4222078756117753  4.2590134828767088
  0.0094716543619537  0.0038415255096243  5.6905744995854715
  1.4172351467740085  1.4221548990086705  7.1222297996838666
  0.0107410437141592  0.0088729059417930  8.5466073898420323
  1.4296826183605476  1.5017433384605359  9.9660072801837529
 -0.0467593849939259  2.8500040740502333 -0.0000689927740701
  1.4729533619374153  4.2079624804275708  1.3723236196560895
 -0.0073806355780710  2.8643386623258347  2.8527328482714265
  1.4209905997325862  4.2700285853758029  4.2692111068538994
  0.0028974845888555  2.8496457166820450  5.6906241437107798
  1.4209411300212700  4.2699795847426012  7.1119188204333241
 -0.0074425432294823  2.8643386612352901  8.5284907300884552
  1.4729667332600163  4.2079622616811037 10.0088248545988243
  0.0176029621819741  5.6790373720709066  0.0000240363191000
  1.4165370407430193  7.1258664641326019  1.4288519710112799
  0.0133421843395783  5.6746108023269368  2.8319448703167600
  1.4232140095297676  7.1146610264377008  4.2659722836410925
  0.0085172417507687  5.6869465037108196  5.6905639470634375
  1.4231848140123584  7.1145772256730675  7.1150756643585931
  0.0133456468083017  5.6746109037669807  8.5492133900969680
  1.4164383965668692  7.1258662995365816  9.9524085342502921
  0.0031622035782837  8.5346715540952172  0.0000490629822652
  1.3865059518278977  9.9141143401336453  1.4587907985472424
 -0.0092672126351405  8.5256384207846114  2.8545097660075540
  1.4241603157161165  9.9565525313794971  4.2596467285815836
 -0.0005717145006073  8.5323564291645297  5.6905238319564999
  1.4240733742174734  9.9564423056307323  7.1214541315086244
 -0.0092192718901568  8.5256382818777912  8.5266043969676257
  1.3864998773057629  9.9141143926129285  9.9223773254964183
  4.2608982563121218  1.5017432232181396  1.4151544707882533
  2.8453615273779440  0.0142773891268226  2.8387190614552007
  4.2733457264420958  1.4221550477399749  4.2589321181924715
  2.8452904458425872  0.0094516291191871  5.6905811080544897
  4.2734189553178332  1.4222078869612826  7.1221484659330825
  2.8452195312525119  0.0142774541614769  8.5424429857024329
  4.2604449674852978  1.5017431788920597  9.9655541323127537
  4.2176142752033474  4.2079625053416692  1.3723371679764351
  2.8452213941614430  2.8500040114932523  2.8920500160171003
  4.2696396981924618  4.2699795602548418  4.2692431175878163
  2.8452906294269322  2.8375801456212018  5.6905810469289122
  4.2695902511500190  4.2700285633971831  7.1119508528803816
  2.8453594334443304  2.8500040286189741  8.4891119525568364
  4.2176278177570703  4.2079625150390543 10.0088382597314745
  2.8452904998670423  5.7356163554121471  0.0000001766119091
  4.2741424092064308  7.1258663949042660  1.4287535572210683
  2.8453145324973113  5.6790372981950048  2.8276875311388641
  4.2673962352998123  7.1145769041203675  4.2660861810987445
  2.8452906511256231  5.6844189788085879  5.6905809806681038
  4.2673670257173049  7.1146609694369349  7.1151897003416176
  2.8452664883571055  5.6790374119501905  8.5534746298412880
  4.2740438525840050  7.1258664831472158  9.9523098221863471
  2.8452905748468025  8.5252347512060709  0.0000001124978838
  4.3040813853479261  9.9141140830100625  1.4587845579652918
  2.8453395921871296  8.5346714690788819  2.8421283939539861
  4.2665074873364386  9.9564423856343041  4.2597077212667172
  2.8452904534557124  8.5411269998177488  5.6905810389330487
  4.2664206443491643  9.9565525121398366  7.1215150642870295
  2.8452414573177269  8.5346714019716696  8.5390336161687141
  4.3040750634216547  9.9141142706062517  9.9223712506084230
  5.6840096316651625  0.0142773952746137 -0.0000711652785904
  7.1043041825552180  1.4222078992147946  1.4281284958138640
  5.6798399557158383  0.0088728800512709  2.8345545369880378
  7.1120940350274378  1.4231751346432697  4.2668832239381711
  5.6811093303306901  0.0038413935844401  5.6905873923661909
  7.1121734836549182  1.4231751708459428  7.1143583981228558
  5.6798451656485698  0.0088730639966824  8.5466125000015811
  7.1042226935561512  1.4221547377601897  9.9531065503573579
  5.7373403494552271  2.8500040896774470  0.0000691189405542
  7.1145015106913432  4.2700286804323708  1.4243000187991477
  5.6980235220515434  2.8643386355088380  2.8526713384485696
  7.1207966866898547  4.2762625419653428  4.2755098706586310
  5.6876837270911231  2.8496456657586284  5.6905380803292944
  7.1208003875745947  4.2762624901917174  7.1056554204550730
  5.6979616586018471  2.8643386926227570  8.5284290076500895
  7.1145335075548326  4.2699796724877084  9.9568125170444457
  5.6729780730417820  5.6790373223536159 -0.0000242051326902
  7.1112627460263598  7.1146611010478313  1.4220765817508050
  5.6772355408427257  5.6746108556977068  2.8319484215549897
  7.1107607249087827  7.0998277151288942  4.2654625367844403
  5.6820639780628106  5.6869465127911134  5.6905980108012812
  7.1107531171664844  7.0998276007968153  7.1156915770382954
  5.6772389693814089  5.6746108673042635  8.5492172108908235
  7.1113766513122654  7.1145769496681739  9.9590563275641983
  5.6874187937416183  8.5346714799997851 -0.0000492178302945
  7.1049372498910337  9.9565526167111571  1.4211301530006206
  5.6998002834885106  8.5256380947533597  2.8545576602301614
  7.1063148170339732  9.9643539179168616  4.2610485430902090
  5.6911527169751501  8.5323564504883063  5.6906383315166069
  7.1063389994456285  9.9643538025422771  7.1201378338645771
  5.6998481971483841  8.5256382629315546  8.5266524638239805
  7.1049982336264801  9.9564422374801289  9.9599449699642655
  8.5358715097553208  0.0094518806298384  0.0000000770477390
  9.9675200264053192  1.4221548812606792  1.4280552357667671
  8.5358649428290256  0.0038413428443498  2.8358186915935546
  9.9595691435835114  1.4231750181042311  4.2668035573762291
  8.5358715919867887  0.0017922836593509  5.6905809027083309
  9.9596489891795379  1.4231752593955140  7.1142789413622678
  8.5358779376995280  0.0038413516480609  8.5453430730251352
  9.9674389158293053  1.4222078998726457  9.9530334431425018
  8.5358715460160255  2.8375799330845997  0.0000001033475530
  9.9572092340532503  4.2699796882301300  1.4243493322076624
  8.5359146375084372  2.8496455144464963  2.8423930647412541
  9.9509425811804526  4.2762625221437114  4.2755064546597286
  8.5358714061383854  2.8411739279618984  5.6905810930108780
  9.9509461895005220  4.2762624925075094  7.1056520967749819
  8.5358281894911556  2.8496457156513184  8.5387689016399957
  9.9572412924886038  4.2700284694694721  9.9568621640023984
  8.5358715866688062  5.6844190368365162  0.0000000730513548
  9.9603661384255826  7.1145767409087792  1.4221056198660038
  8.5358545475856378  5.6869463807538905  2.8367731321499874
  9.9609899393087762  7.0998277194896495  4.2654701793381129
  8.5358713577417120  5.6926415164018396  5.6905809648032255
  9.9609821830285874  7.0998276112501735  7.1156994143732959
  8.5358883726704189  5.6869464301523278  8.5443886351497493
  9.9604804262947173  7.1146609859414784  9.9590853280064540
  8.5358714572348831  8.5411270337616401  0.0000001193713776
  9.9667446687744814  9.9564422937406807  1.4212171150653679
  8.5358142936633943  8.5323567501579713  2.8458621670557016
  9.9654039150891602  9.9643538598518262  4.2610242657805930
  8.5358714858567382  8.5379989924200306  5.6905810191793345
  9.9654281795363193  9.9643538367385709  7.1201135856709108
  8.5359287010653304  8.5323565433109874  8.5352996985925049
  9.9668057815297217  9.9565523616689262  9.9600318009094337
  2.8452905948695748 -0.0612896036805185  0.0000000736511556
