Fe Tc
 1.0000000000000000
    11.3808655266164074    0.0000000000000000    0.0000000000000000
     0.0000000000000000   11.3808655224945294    0.0000000000000000
     0.0000000000000000    0.0000000000000000   11.3808655224641431
 Fe  Tc 
 126   1
Cartesian
  0.0668508207183931  0.0150112483440041  0.0148193854839548
  1.3298114289357263  1.5154052226567907  1.5154050234545868
  0.0254571841200082 -0.0497663366347731  2.8198264783015792
  1.3741105772006432  1.4712788619675592  4.1964044906868896
  0.0056219934360987  0.0182819487681442  5.6779813890081519
  1.4298960455968448  1.4151128347895339  7.1251564033117187
  0.0127986993444181  0.0110162130177882  8.5502011939930966
  1.3913443199879232  1.4541667559290203  9.9196250288565118
  0.0253896472500483  2.8197593764569180 -0.0497664062642442
  1.3739377123352137  4.1964045132177201  1.4711052980338186
  1.3602900021319000  4.2043827321095364  4.2042185275876198
  0.0025998907185325  2.8427228751307725  5.7385349464830506
  1.4211878615408233  4.2715389881004935  7.1138080784002025
 -0.0088066089993466  2.8540653756326488  8.5261461252441251
  1.4298319089916338  4.2636282781056050  9.9608307239220935
  0.0057148004520661  5.6779444259078318  0.0183083966981096
  1.4301037497492761  7.1251563697783000  1.4153202997319350
  0.0024934072862725  5.7385348373036917  2.8426163204177710
  1.4210530041004643  7.1138175862571504  4.2716714280181316
  0.0060914920904577  5.6744745663425880  5.6744837260653620
  1.4184865351009572  7.1102467927584749  7.1103463802286386
  0.0023575711443041  5.6776555876602144  8.5399379334768017
  1.4286929878298968  7.1148661847721142  9.9689940043479730
  0.0128436090935860  8.5500084938036789  0.0109405714901873
  1.3910493335352212  9.9196251147974319  1.4538718483490154
 -0.0088490055409410  8.5261462908821919  2.8540230330102196
  1.4296994073795388  9.9608468003116748  4.2636006391850714
  0.0022972594172757  8.5399299373094575  5.6777291309537086
  1.4287684837068428  9.9687910194282505  7.1148718327071920
 -0.0050096180480796  8.5319968651438867  8.5320258047301802
  1.3923735264188479  9.9343052469275825  9.9343516470926208
  4.3064565102493519  1.4538718120357883  1.4541670619355989
  2.8302053329537928  0.0148195570651081  2.7783656333940931
  4.2652510189861923  1.4153841071300937  4.2636279995976425
  2.8208538704069182  0.0242752936028047  5.6642801677215315
  4.2570877392642190  1.4165234458615716  7.1148664956167931
  2.8440695337256297  0.0010947662024048  8.6026146218471862
  4.2917304110913106  1.4528428854629820  9.9343052416229529
  2.8303971715410334  2.7783657743840195  0.0150115173236341
  4.2652354617447514  4.2636011003427772  1.4155169513296892
  2.8949825110974303  2.8198265576367842  2.8197589093277649
  4.2704842909914635  4.2694670039441629  4.2693033573202968
  2.8269079499089944  2.8395017379657839  5.6779444561910042
  4.2681697046283027  4.2680617933045575  7.1109787646402021
  2.8342759466923515  2.8323728105378803  8.5500086581601877
  4.2585912693390204  4.2619771114009790  9.9675924947941343
  2.8209410094461154  5.6642801138017109  0.0243626616413284
  4.2572908437827754  7.1148718369369828  1.4164479210851992
  2.8269344306751449  5.6779813075952275  2.8395942534003713
  4.2681306310119309  7.1110455610954304  4.2680021932509380
  2.8217726629309268  5.6675331785293386  5.6675020257015287
  4.2596067802739803  7.1036317299480851  7.1036308962305910
  2.8402073990698149  5.6848317879838497  8.5401903441106235
  4.2514913721639855  7.1069061579930146  9.9744588503436855
  2.8441218661191461  8.6026143940226003  0.0011469369029913
  4.2917768060319936  9.9343514028905808  1.4528428774970872
  2.8342002352775206  8.5502009197252669  2.8324176250474933
  4.2584894202252457  9.9674905957341924  4.2619771743225741
  2.8401615840488335  8.5402042515991781  5.6849178808949876
  4.2516231980914458  9.9745905797992691  7.1069060732006992
  2.8430915471577061  8.5519096521870104  8.5519198647887436
  4.2844436790059328  9.9416381363940953  9.9416384945693874
  5.6234673985106740  0.0011468229917424  0.0010944288072347
  7.1009256151626410  1.4153202484790637  1.4151127168034023
  5.6760730886555741  0.0109404190620986  2.8323726048584632
  7.1122737694528197  1.4240286050555551  4.2715386542568554
  5.6858913103880928  0.0050087692722861  5.6848320248864104
  7.1157353352820225  1.4267297969252681  7.1102468763963103
  5.6741618203403084  0.0021247933597871  8.5519092811061057
  7.1112102126732823  1.4164480934703392  9.9687908293900005
  5.6758807509438043  2.8324174319263533  0.0110160643190647
  7.1122645580654957  4.2716715196809680  1.4241633100430553
  5.6999356970090487  2.8540232711286939  2.8540654351038950
  7.1119720293030273  4.2707044876831812  4.2708336710103403
  5.6861439402693952  2.8428590854057409  5.6776555828542934
  7.1155548105080593  4.2663816540347819  7.1104757992255259
  5.6940562185515828  2.8502261153977351  8.5319966579855340
  7.1150362232467357  4.2680021672751280  9.9579513861468900
  5.6858777327357037  5.6849178604828587  0.0050548716711100
  7.1158349087848638  7.1103463686429036  1.4267297562358647
  5.6861520749922105  5.6777293498943049  2.8429188740031939
  7.1156060090339155  7.1105269764672716  4.2663817838848432
  5.6821455732890582  5.6859873582781253  5.6859429212803621
  7.1211877325968596  7.1048940791623734  7.1048940022422089
  5.6880630899990425  5.6889870802921587  8.5380095709943120
  7.1224503485028308  7.1036310115539392  9.9664750056524554
  5.6741724611033257  8.5519201331372887  0.0021248392339592
  7.1112159145110274  9.9689940034487616  1.4165233092594682
  5.6940849839456895  8.5320257614784758  2.8502259651726427
  7.1151032840834674  9.9579118204113861  4.2680616038128667
  5.6880722347822719  8.5380186268861689  5.6889871257478291
  7.1224507719713168  9.9664752311388245  7.1036315101098744
  5.6945668151597877  8.5315149809747677  8.5315148150866236
  7.1191757009440586  9.9744586814092084  9.9745905706943390
  8.5618016323786392  0.0243625722901070  0.0242753045847236
 10.0296773853959245  1.4711054461238564  1.4712789031640241
  8.5481373785636965  0.0183085500926514  2.8395013836252527
 10.0218633652828117  1.4849262630527211  4.2043827466254760
  8.5585801574344007  0.0234436561415709  5.6675334672875310
  9.9544105912626257  1.4241632023965056  7.1138172143801430
  8.5411639270179283  0.0050549463258977  8.5402042768359632
  9.9624809070465563  1.4155169702655563  9.9608465455554978
  8.5481006993273780  2.8395943379207131  0.0182821182352443
 10.0216990732940339  4.2042186016735723  1.4849263338404854
  8.4875471167808900  2.8426165188682551  2.8427231774472705
 10.0137479118394932  4.2123337391114166  4.2123338864984392
  8.5515980416840147  2.8391248330717374  5.6744744153355970
  9.9553773673549362  4.2708337836215078  7.1141099724205663
  8.5483523656069877  2.8429190364147132  8.5399297013258018
  9.9566144063598916  4.2693034484998167  9.9555979900450779
  8.5585488720314533  5.6675017537348493  0.0234436117150019
  9.9545431607226540  7.1138080975539646  1.4240285094402154
  8.5516076599630448  5.6744836463129733  2.8391250015698191
  9.9552481840425244  7.1141097177617034  4.2707047301171750
  8.5564648446211482  5.6696171442821317  5.6696172221360479
  9.9597003128880210  7.1104757420902232  7.1105270447560578
  8.5400944541645121  5.6859426646846973  8.5439365644000560
  9.9580201938884532  7.1109788348040208  9.9579122723457107
  8.5412501074092901  8.5401906463804362  0.0050088498502916
  9.9624538114503185  9.9608305449818744  1.4153846264866481
  8.5484262323582936  8.5399381496583029  2.8428589716775168
  9.9567784757500846  9.9555977843545520  4.2694672734787673
  8.5401389664907850  8.5439365217904886  5.6859873367747973
  9.9580795646476368  9.9579513216468794  7.1110455333238924
  8.5370950913143577  8.5380098105466864  8.5380186629101438
  9.9641047196440180  9.9675922551705689  9.9674908477374728
  2.8205495521149397  0.0246672455809392  0.0246673412755361
