Fe Rh
 1.0000000000000000
    11.3868350671106047    0.0000000000000000    0.0000000000000000
     0.0000000000000000   11.3868350716380675    0.0000000000000000
     0.0000000000000000    0.0000000000000000   11.3868350662308782
 Fe  Rh 
 126   1
Cartesian
  0.0344072629552391  0.0137196774278503  0.0136945749228577
  1.3373947122504908  1.5093140732388233  1.5093140726694421
 -0.0020264797861413 -0.0458949408086293  2.8487321285976246
  1.3740148441876057  1.4728380295451498  4.2120152399089523
  0.0056545424608837  0.0139620807110916  5.6836162382988329
  1.4237774950220174  1.4225967708382681  7.1286189638760451
 -0.0068795693848246  0.0110119308460963  8.5363464002980951
  1.3983066113706191  1.4484441149602019  9.9358750479127380
 -0.0020234725211079  2.8487353887320230 -0.0458949482173809
  1.3738707027325612  4.2120150900375526  1.4726939250507851
  1.3623733868914438  4.2161169080349703  4.2160803837764078
 -0.0002689176927222  2.8470545718597662  5.7368622232510207
  1.4206356194472580  4.2791823023428286  7.1111435987245724
 -0.0207549855397458  2.8674932269210625  8.5199859243564102
  1.4236968709389664  4.2669364095929048  9.9602805845794684
  0.0057605036819737  5.6836193638574741  0.0140317144006291
  1.4241119847310770  7.1286189699375395  1.4229312334498512
 -0.0003457922977516  5.7368622966607594  2.8469776250628400
  1.4205128455355629  7.1111416398892775  4.2792423803322333
  0.0021497855889255  5.6784679008472363  5.6784727452804749
  1.4170188019187500  7.1071917226916481  7.1071972746778957
 -0.0018919358915766  5.6820761991094306  8.5394633069334329
  1.4215948617005698  7.1206632785283359  9.9664119017935189
 -0.0068018152415682  8.5362664904573418  0.0110271513716412
  1.3982647249961464  9.9358750362143873  1.4484021219479344
 -0.0207845285879015  8.5199859870291430  2.8674636996057061
  1.4236028479672220  9.9604759430345258  4.2668068802340908
 -0.0019122112156020  8.5394874313386850  5.6820827561265368
  1.4217435845339874  9.9661736039618525  7.1206790808296407
 -0.0184325550718417  8.5223604474731562  8.5223807060064107
  1.3992182069720178  9.9417313631577890  9.9417466365068368
  4.2976688139870260  1.4484022085135264  1.4484439521927113
  2.8329891407402621  0.0136947309572214  2.8123014770725154
  4.2732631690152960  1.4230118380805530  4.2669364488980683
  2.8265345044152395  0.0200895652912493  5.6722573275679098
  4.2671318923198855  1.4251138656189939  7.1206633759224713
  2.8427895039489952  0.0038962904502902  8.5719064895577031
  4.2917971585700041  1.4474905340178890  9.9417313747763778
  2.8330141041042900  2.8123015490248107  0.0137195971120833
  4.2730679650811068  4.2668069563712798  1.4231059360599758
  2.8926038212621630  2.8487322773593067  2.8487352751715411
  4.2750261379949812  4.2793519935116748  4.2791925014219316
  2.8326769991442307  2.8409484027834626  5.6836194172711716
  4.2732624989838168  4.2778613890345305  7.1095948912277791
  2.8356815895073448  2.8535105431090368  8.5362664321032504
  4.2705853331012982  4.2670419664262020  9.9630460288840617
  2.8266191539278287  5.6722571974007598  0.0201742030759443
  4.2673702254501542  7.1206790624277039  1.4249651589760279
  2.8327465733333015  5.6836162058828510  2.8410540662194359
  4.2732745023333019  7.1096798159310231  4.2779134455261438
  2.8250083852858325  5.6720152328598461  5.6720051719003255
  4.2632189943705008  7.1011792680397239  7.1012232400409054
  2.8408134640988956  5.6886805393366862  8.5462178120433716
  4.2618497990984867  7.1118136778197760  9.9715130080615975
  2.8428124122275347  8.5719063657804693  0.0039191539998320
  4.2918124026811260  9.9417466953814841  1.4474904246825402
  2.8356968951845354  8.5363464013961785  2.8535884122988602
  4.2704977581696193  9.9629585551544260  4.2670419300348525
  2.8408011800936244  8.5462542082542612  5.6887202461159649
  4.2620307830644633  9.9716940778371654  7.1118137082884170
  2.8421940909000756  8.5349771668099308  8.5349928677560101
  4.2791768534977530  9.9543670746456350  9.9543670442374825
  5.6616374763538797  0.0039191752044538  0.0038962781827596
  7.1049249114089976  1.4229312262013953  1.4225966408448039
  5.6972773588120678  0.0110271492757765  2.8535105131941774
  7.1224002915109823  1.4260731305075594  4.2791821925162319
  5.6873261022966481  0.0058952770133538  5.6886806447703986
  7.1263466441710221  1.4296899554078986  7.1071917896560333
  5.6985509485028318  0.0045147022604956  8.5349771878841700
  7.1128648375163026  1.4249651634586651  9.9661735795618736
  5.6971974551618167  2.8535884556770079  0.0110118249971840
  7.1224021009214411  4.2792423530318509  1.4261958987799623
  5.7135578807335881  2.8674637134652006  2.8674931707203997
  7.1217136881565839  4.2784940447658206  4.2786347293354456
  5.6940805344259955  2.8486006464952913  5.6820761546063068
  7.1253670963242435  4.2750833929428937  7.1081976404422882
  5.7111631700699670  2.8651413168725162  8.5223604109115865
  7.1238641124131554  4.2779134133646775  9.9602692990636843
  5.6872896452304431  5.6887202515543285  0.0059075823029609
  7.1263521461194967  7.1071972468040876  1.4296899536029255
  5.6940564187018001  5.6820827139667607  2.8486210430521823
  7.1253461311424511  7.1081768258507374  4.2750834218309848
  5.6900869703617536  5.6880636099582746  5.6880632889874070
  7.1330098356398981  7.1005340117292919  7.1005340056768596
  5.6958003674150604  5.6940384092002674  8.5377226467826155
  7.1323644374559514  7.1012232038484164  9.9703248542721639
  5.6985667078677213  8.5349928763261200  0.0045147168552264
  7.1128804374650070  9.9664118658553615  1.4251138910312877
  5.7111834052974402  8.5223807268104856  2.8651412257194258
  7.1239489465184462  9.9602814007040141  4.2778613750992731
  5.6958212211037322  8.5377435271715747  5.6940384342286077
  7.1323206731399358  9.9703248056150873  7.1011793617398382
  5.7107929152763708  8.5227509008578135  8.5227509139614153
  7.1217301659293488  9.9715130420084375  9.9716939785755301
  8.5612866203991960  0.0201741902454741  0.0200895751748692
 10.0215287933119637  1.4726938898731827  1.4728380400510011
  8.5499244747788694  0.0140316442434919  2.8409482951365117
 10.0174634192220324  1.4843352762541417  4.2161169350371663
  8.5615385954835830  0.0217004247898621  5.6720152143269988
  9.9543014601276703  1.4261959048050048  7.1111416922596256
  8.5448237468370021  0.0059075018324322  8.5462541892998889
  9.9667368627971200  1.4231059702810986  9.9604759200858268
  8.5499276683494365  2.8410542026315095  0.0139621953962642
 10.0174269568878298  4.2160804474371441  1.4843353907498922
  8.4966816479025677  2.8469775558802994  2.8470544906558595
 10.0172953569012559  4.2162485230674251  4.2162484469448067
  8.5550712512079308  2.8445590149291289  5.6784678957294625
  9.9550497392033570  4.2786348181878182  7.1118302717888575
  8.5514611474629341  2.8486209960565998  8.5394874282568782
  9.9541918252731847  4.2791925083307598  9.9585177243044605
  8.5615285934147707  5.6720052020942378  0.0217003490255326
  9.9543616318621471  7.1111435276000972  1.4260731247956555
  8.5550759541266981  5.6784726337976377  2.8445589091263428
  9.9549091150013798  7.1118301060889646  4.2784941222640436
  8.5621673309215893  5.6713765551611557  5.6713765106531957
  9.9584604068962541  7.1081977278660409  7.1081768716231650
  8.5454802000152448  5.6880633046870708  8.5434568175672325
  9.9556824581305587  7.1095948166796692  9.9602813713035623
  8.5448632267163074  8.5462177689263399  0.0058952649001616
  9.9666073586141639  9.9602806281648917  1.4230117274383229
  8.5514676965185004  8.5394633134118383  2.8486007050180615
  9.9543514129930806  9.9585177325941743  4.2793521117816615
  8.5454805507144442  8.5434568137966274  5.6880635369126411
  9.9556303396618233  9.9602693015088093  7.1096797912601017
  8.5395054336639618  8.5377226202174477  8.5377435409049838
  9.9665018747690155  9.9630460531461154  9.9629584542470084
  2.8237516972956525  0.0229569901695736  0.0229569091804414
