Fe Ni
 1.0000000000000000
    11.3712390179175191    0.0000000000000000    0.0000000000000000
     0.0000000000000000   11.3712390227606601    0.0000000000000000
     0.0000000000000000    0.0000000000000000   11.3712390190794839
 Fe  Ni 
 126   1
Cartesian
  0.0896161094305711  0.0630398935756316  0.0629366602687727
  0.0466930440185020  0.0449745954027180  2.7960040155171346
  1.4198903800884712  1.4228935787889985  4.3026293142740677
 -0.0021274214147816 -0.0034486468382695  5.6835549961160252
  1.4170646470674413  1.4256617131894969  7.1078861515958369
 -0.0072290858282568 -0.0014824560702325  8.5207845884397795
  1.4213346024540561  1.4215988505866688  9.9058566418928180
  0.0468057803911809  2.7961166581327190  0.0449745693386726
  1.4199161636126032  4.3026293835020226  1.4229192718876476
  0.0557078484549778  2.7871019049936594  2.7871019819386742
  1.4201431277722507  4.2549498300155326  4.2549499101357044
 -0.0028088830497008  2.8457451480781382  5.6854667428228920
  1.4218810653050906  4.2609641475519435  7.1026043293962973
 -0.0158455958213735  2.8586395275249443  8.5113235223279009
  1.4201567631053222  4.2483321776764571  9.9587225311912722
 -0.0020295272622827  5.6836318579442731 -0.0034225226677175
  1.4171479499589512  7.1078862375703444  1.4257451437305440
 -0.0029354177732953  5.6854667869371429  2.8456186175488729
  1.4218647557420518  7.1025865759861757  4.2609135109780496
 -0.0007980612656570  5.6849660275717406  5.6848604905733486
  1.4198592526713556  7.1015681027594955  7.1015674450239263
  0.0009820311500335  5.6843817254452391  8.5269648274176966
  1.4200642149667233  7.1092733898955043  9.9554262214999891
 -0.0073578308000911  8.5209460966455080 -0.0013757479627590
  1.4212108568294395  9.9058565396153142  1.4214751685634412
 -0.0158297083949956  8.5113234715885593  2.8586553372711125
  1.4202460113112354  9.9587820789248997  4.2482213148901229
  0.0010177729902513  8.5270444599727639  5.6842967104858078
  1.4200815815176624  9.9552710086176770  7.1092711970928715
 -0.0065500875615701  8.5216287878324515  8.5216424410798499
  1.4327045327245349  9.9726078285294726  9.9725524657243518
  4.3081921196964110  1.4214752378486861  1.4215987202900087
  2.7797698405583366  0.0629367327542749  2.7531937120277643
  4.2553262608470730  1.4226530408738731  4.2483322595549380
  2.8434645638725651 -0.0007625465468354  5.6829798002221157
  4.2586224616203152  1.4227455146332539  7.1092732183239509
  2.8403959301490365  0.0024927606115788  8.5325732911433150
  4.2414962579164310  1.4101051993364782  9.9726079071972844
  2.7798731738304907  2.7531935768881262  0.0630398062550952
  4.2552666369061365  4.2482213372455071  1.4225637062430483
  2.7978351694875312  2.7960040457128446  2.7961167601783279
  4.2505248300138438  4.2528088278477876  4.2528492849363033
  2.8462324262278438  2.8448392170057408  5.6836318733308362
  4.2624507905684244  4.2639215567063706  7.1031060462607165
  2.8441854651413876  2.8501676733539711  8.5209460982740737
  4.2440543461964557  4.2388688190772790  9.9699262681447234
  2.8435723328899472  5.6829797275764911 -0.0006547969621903
  4.2587778679610002  7.1092712053783842  1.4227281945730927
  2.8462583376083219  5.6835549951137274  2.8449371383357387
  4.2625515527110309  7.1030233095261677  4.2639234330938098
  2.8429226178273681  5.6850380119544353  5.6850654233742377
  4.2634576950456715  7.1042771125708004  7.1042221520502213
  2.8429045750067723  5.6831726343655129  8.5285246920746705
  4.2603224695435635  7.1124171244138941  9.9538097429708543
  2.8403169505289214  8.5325734100352459  0.0024137954134742
  4.2414409869361203  9.9725524450301197  1.4101051766911199
  2.8442921910178454  8.5207845274079812  2.8500388449368712
  4.2441225223854016  9.9699943824042094  4.2388687856575498
  2.8428855790242538  8.5284975577634476  5.6830025406341447
  4.2602390173375264  9.9537263320673564  7.1124171447308102
  2.8385137528380708  8.5257760778601845  8.5257460885012808
  4.2357968944417710  9.9782519281473903  9.9782519228310029
  5.6814753977887635  0.0024138771033019  0.0024927642785963
  7.1061626011279184  1.4257452293674144  1.4256616802481776
  5.6931026107415876 -0.0013757968678596  2.8501676113550425
  7.1114445283684518  1.4209286544613755  4.2609642131887666
  5.6855240711324839 -0.0000948197810569  5.6831725730507863
  7.1124813650572580  1.4229505363749615  7.1015680623649269
  5.6883026229733034  0.0042959961665754  8.5257760642656688
  7.1047776475074036  1.4227282507536101  9.9552709555796852
  5.6932641604992238  2.8500387295490381 -0.0014824336056647
  7.1114621864649035  4.2609135642317684  1.4209450475561991
  5.7027252171664458  2.8586554058682605  2.8586394477474197
  7.1109014680606544  4.2643708319170699  4.2644236095851449
  5.6870838003017745  2.8418276544963303  5.6843817664013052
  7.1094686831950353  4.2643227133997046  7.1046197085751501
  5.6924063947210470  2.8493598557275135  8.5216287602279941
  7.1110254558683987  4.2639234202968712  9.9514972233467436
  5.6855511389240965  5.6830025771678532 -0.0000758726514242
  7.1124807046799257  7.1015673952767040  1.4229504974544021
  5.6870043277363296  5.6842968289398605  2.8417920534238212
  7.1094290577847579  7.1045799973945050  4.2643227248429785
  5.6808667674673821  5.6791514761047850  5.6791677132117320
  7.1083869598806864  7.1056618457874672  7.1056618600989436
  5.6763338259018790  5.6772555050514164  8.5376962851508544
  7.1097716507047535  7.1042220923702297  9.9505910178322701
  5.6882727120520373  8.5257461837022923  0.0042959421848545
  7.1047754771147202  9.9554262827288653  1.4227454679582743
  5.6924199079420648  8.5216424353584994  2.8493598402093752
  7.1109426244889544  9.9515980715942849  4.2639216420143056
  5.6763525079062598  8.5377149997844022  5.6772554359569964
  7.1098266803420405  9.9505910639293802  7.1042770299598832
  5.6833908417337291  8.5306579701178187  8.5306580006389545
  7.1016315604741722  9.9538096833767167  9.9537263875092066
  8.5310689674765534 -0.0006547833740722 -0.0007625971194439
  9.9114194728758456  1.4229193456328655  1.4228936108068027
  8.5304169610222633 -0.0034226012906270  2.8448393196118231
  9.9590988840558285  1.4226666874353588  4.2549497755759651
  8.5289832951169853 -0.0001128845230050  5.6850379113319596
  9.9531351689358996  1.4209449850246916  7.1025865647883517
  8.5310462909835501 -0.0000757421601140  8.5284975500467564
  9.9658274093008341  1.4225636987019283  9.9587821293870054
  8.5304937427112364  2.8449370707627328 -0.0034486235997965
  9.9590989265283252  4.2549499315556432  1.4226667110392004
  8.5285820316381162  2.8456186183754664  2.8457451852653146
  9.9673978627616400  4.2466508911965111  4.2466508207044589
  8.5291884026235767  2.8436078110973875  5.6849659643307229
  9.9496780371373141  4.2644236612443969  7.1031473373051925
  8.5297520096955282  2.8417920164887023  8.5270444878557488
  9.9612399155727189  4.2528492568929437  9.9635239031969203
  8.5290108335142616  5.6850654668211895 -0.0001128941684608
  9.9530846182132606  7.1026042253233426  1.4209286397658687
  8.5290827233450823  5.6848604436201979  2.8436078364733488
  9.9496250616566098  7.1031472171199530  4.2643707347060174
  8.5356687544734466  5.6783799246249851  5.6783799364045899
  9.9497260094076072  7.1046197398615396  7.1045801382017917
  8.5348972634363474  5.6791676948372860  8.5331820074295504
  9.9501271029862703  7.1031060426940664  9.9515980362542216
  8.5308761843978633  8.5285246760592646 -0.0000948572201190
  9.9657165684268971  9.9587224749277308  1.4226529961052012
  8.5296670545675184  8.5269648519902645  2.8418276109385174
  9.9611994766640706  9.9635239363128552  4.2528088375808073
  8.5348810782588753  8.5331820305560342  5.6791514851261766
  9.9501252720210847  9.9514971996525592  7.1030233364073450
  8.5367932948007166  8.5376962213384218  8.5377149515422222
  9.9751799917587167  9.9699262650653235  9.9699943293336233
  2.7799036248636493  0.0629062989855364  0.0629060512110213
