Fe Os
 1.0000000000000000
    11.3962698478708866    0.0000000000000000    0.0000000000000000
     0.0000000000000000   11.3962698466093038    0.0000000000000000
     0.0000000000000000    0.0000000000000000   11.3962698398954139
 Fe  Os 
 126   1
Cartesian
  0.0810020441789626  0.0130571318891835  0.0129450408749461
  1.3635601186856783  1.4855073155227612  1.4855072514964620
  0.0054784364857171 -0.0474955255037309  2.8436183031442686
  1.3748363753491186  1.4744958439204414  4.2032776685662725
 -0.0025860094281811  0.0171764278504729  5.6864474603057822
  1.4307920998240555  1.4180056571544111  7.1296719908336836
 -0.0039703442007486  0.0104281196378475  8.5434074254564756
  1.4110818333090223  1.4381558192987320  9.9515610761913766
  0.0054491586542393  2.8435891108592237 -0.0474953966718478
  1.3745715084894949  4.2032777467094347  1.4742311742311744
  1.3595149619374436  4.2171340143561666  4.2170347825381951
 -0.0002933735726135  2.8494729428686583  5.7467362025042164
  1.4184488143491161  4.2795216101201436  7.1209577700075286
 -0.0099023108426284  2.8589918687535918  8.5372723016978309
  1.4326257682744268  4.2704783131905373  9.9757808342479315
 -0.0025011585970912  5.6864822704762172  0.0171986497186149
  1.4310617470710791  7.1296720525548469  1.4182754021414623
 -0.0004054882785210  5.7467362281373404  2.8493607096995004
  1.4183422050004730  7.1208337948226283  4.2795518660616567
  0.0003405757475388  5.6827033431691145  5.6826835420685144
  1.4150263470292204  7.1177925043839645  7.1177797874257624
  0.0009123438220437  5.6855450737998732  8.5498019178888249
  1.4315037783498639  7.1227247585653837  9.9829388774875660
 -0.0038821054809030  8.5432593273215485  0.0104222434207602
  1.4109116005451474  9.9515611460562781  1.4379855433071922
 -0.0099243709097424  8.5372722735786741  2.8589696929765256
  1.4324352365803183  9.9759300944678753  4.2703775713201679
  0.0008777149000153  8.5498326868600483  5.6855816626389624
  1.4316742148265922  9.9827185080940151  7.1227168863453860
 -0.0052632080521790  8.5425123380576551  8.5425236648872538
  1.4150745408873715  9.9641209800879160  9.9640260849417661
  4.2937761929004123  1.4379855797399164  1.4381558918967707
  2.8360103259784015  0.0129451086002977  2.7680654343597966
  4.2695564804545576  1.4164416378613549  4.2704783118404128
  2.8240907953486616  0.0248953100768777  5.6713059644976385
  4.2623983630326778  1.4175636537973191  7.1227247473280197
  2.8462355320011201  0.0028211217434943  8.6128080331621195
  4.2813112791197341  1.4339930858125325  9.9641210046886091
  2.8361224789002564  2.7680654196666090  0.0130571566069311
  4.2694071850886148  4.2703775783778566  1.4166321497291079
  2.8965627821847382  2.8436183026642055  2.8435890364788992
  4.2809585232784304  4.2779606354487587  4.2777734288998204
  2.8318688887103045  2.8515685708634955  5.6864823105241404
  4.2798221969089294  4.2764465436597554  7.1184597046045264
  2.8386452667377009  2.8529495694052049  8.5432594466478147
  4.2638993207289371  4.2689682746167019  9.9815886469765580
  2.8241721790327818  5.6713060652904614  0.0249766375721796
  4.2626188480287635  7.1227167585603226  1.4173931336389767
  2.8318911102359521  5.6864475538234309  2.8516536905135466
  4.2797926097382879  7.1185887093401075  4.2764955538677034
  2.8271076826404444  5.6768830210005703  5.6768756351015126
  4.2707281652164610  7.1113863985026375  7.1114740108740673
  2.8443426361637618  5.6924605478621864  8.5447243654494560
  4.2560529058093390  7.1156706676273780  9.9890849894175577
  2.8462463614801323  8.6128081326505992  0.0028318264434997
  4.2812160946858198  9.9640260440263191  1.4339929753784546
  2.8386393227829556  8.5434074288255228  2.8530378060429196
  4.2637487114944834  9.9814380403558900  4.2689682863886187
  2.8443147042781485  8.5447477758910857  5.6925389746711961
  4.2562522829515927  9.9892844191037451  7.1156706870454203
  2.8468902531568103  8.5448867255367205  8.5448808237511606
  4.2693381760297520  9.9759991184827683  9.9759990815887036
  5.6325291933667341  0.0028318193707864  0.0028211035536661
  7.1156653104590522  1.4182753619420139  1.4180057681667670
  5.7020778876039291  0.0104221725233914  2.8529495307614954
  7.1243795148359697  1.4306186101180047  4.2795215517552281
  5.7006129354374098  0.0047248433750927  5.6924604829465695
  7.1275574716514374  1.4340412601245538  7.1177924918575979
  5.7004564657158934  0.0021773994371067  8.5448867239647868
  7.1226204269495410  1.4173932974962367  9.9827185587896778
  5.7019298400564971  2.8530378224149557  0.0104280051832781
  7.1245034634063531  4.2795519362973238  1.4307253046430937
  5.7080651054149651  2.8589697314063178  2.8589918382491653
  7.1211327998970546  4.2773979788658716  4.2775099894658517
  5.6955354523960935  2.8481550662188746  5.6855452071607386
  7.1241891530666583  4.2718757961474525  7.1211221809797216
  5.7028135680547134  2.8543306047267603  8.5425123165841548
  7.1267485129396251  4.2764955882529314  9.9655447921232927
  5.7005895558828232  5.6925389267934534  0.0047528346053883
  7.1275447604790703  7.1177797053272185  1.4340410727482555
  5.6955045961209141  5.6855817171765732  2.8481897643639158
  7.1242152056870971  7.1211482103725068  4.2718759020662933
  5.6955069014564534  5.6945232756346096  5.6944936199540752
  7.1294252829540632  7.1159120259432145  7.1159120508289080
  5.6968688973929034  5.6974440917548197  8.5484726871355630
  7.1339509431617518  7.1114739454231248  9.9746091627156250
  5.7004505450151974  8.5448807841524665  0.0021772980981955
  7.1226125149320758  9.9829390029870577  1.4175637174527300
  5.7028249527256207  8.5425237788128303  2.8543307356349090
  7.1268776934392557  9.9655151556923922  4.2764465332194819
  5.6968645936978763  8.5484683800509629  5.6974440627441831
  7.1338634761203732  9.9746091023494685  7.1113864091174595
  5.7023445733303326  8.5429927038768945  8.5429927942610728
  7.1296666421483872  9.9890850076333280  9.9892844823037219
  8.5740313394031542  0.0249767303232443  0.0248953894231898
 10.0420595935669041  1.4742312622638916  1.4744958732320705
  8.5588548530441280  0.0171986149980111  2.8515685744984678
 10.0283025409436704  1.4895525317448035  4.2171339441684745
  8.5684616191860670  0.0219598280079069  5.6768829586760345
  9.9657853919926342  1.4307252625131364  7.1208338790013572
  8.5527983384475803  0.0047526827747403  8.5447477759016355
  9.9749597433697392  1.4166322367669584  9.9759299462312754
  8.5588898089878551  2.8516535145145920  0.0171764227864675
 10.0282034514692739  4.2170347950416129  1.4895525460214976
  8.4986009943068126  2.8493607709239503  2.8494729603124069
 10.0257060190176759  4.2196312548472212  4.2196312116177435
  8.5626538971582153  2.8487267973298427  5.6827034143547879
  9.9679393515303616  4.2775100091349563  7.1242045137682322
  8.5597557072466515  2.8481896932778721  8.5498326582546582
  9.9673767286129316  4.2777734081556655  9.9643787959753087
  8.5684543323541149  5.6768756415549202  0.0219598445900780
  9.9658157392741948  7.1209577121006822  1.4306186386624908
  8.5626339597549208  5.6826834580586851  2.8487268614650079
  9.9678271940485228  7.1242043818272824  4.2773980446072022
  8.5665669355648308  5.6787704091324160  5.6787704324123958
  9.9734614670635953  7.1211221623168459  7.1211481616500265
  8.5508140685375018  5.6944936515254483  8.5498303397848971
  9.9688907890354201  7.1184596452054025  9.9655151950952163
  8.5528767278384539  8.5447243596494680  0.0047247979885018
  9.9748590126601933  9.9757808453630474  1.4164416108476607
  8.5597922614212596  8.5498019079394005  2.8481551203189248
  9.9675638543792004  9.9643787393328314  4.2779606294582564
  8.5508436188196839  8.5498303729377501  5.6945232522947764
  9.9688418401929955  9.9655447420452568  7.1185886981785362
  8.5478932688452165  8.5484726672946802  8.5484683310932716
  9.9763690533848148  9.9815886122053712  9.9814380097432291
  2.8224889658249297  0.0265784570652335  0.0265785858155904
