Fe Au
 1.0000000000000000
    11.4076110650304194    0.0000000000000000    0.0000000000000000
     0.0000000000000000   11.4071429306294565    0.0000000000000000
     0.0000000000000000    0.0000000000000000   11.4076296953214591
 Fe  Au 
 126   1
Cartesian
 -0.0003326325339601 -0.0041766950766780  0.0005101639550082
  1.3804394846097714  1.4464919569713153  1.4713658944623522
 -0.0186643488595537 -0.0032226343275374  2.8705700759868029
  1.4149772537924876  1.4462563774282668  4.2771826400870445
 -0.0111705377719440  0.0007122415152289  5.7031331130022327
  1.4157781953481772  1.4423283330309962  7.1243075073479361
 -0.0194947619958566  0.0004314257093930  8.5390770221158565
  1.3832757556920239  1.4829946636302447  9.9590487592597672
  0.0316286039396228  2.9096176550171200  0.0507706532662652
  0.0219075580500984  2.9300712779914879  2.8300553754324329
  1.4228559333606905  4.2907866594647572  4.3266116806966854
 -0.0125563235639602  2.8630647410447123  5.7026292080926062
  1.4204462631176491  4.2901780608413844  7.1175626316630494
 -0.0311521706507649  2.8805476608495186  8.5269078115196706
  1.4184386166532525  4.2844136267112587  9.9376227594094946
  0.0448027452607250  5.6564017698906550  0.0475896480832599
  1.4169318908516606  7.1713874636808521  1.4353383333107825
  0.0416946508370804  5.6517110371248700  2.8102204685674899
  1.4185362028817357  7.1040778052773943  4.2767866531926808
  0.0010425070019629  5.7045857923881842  5.7057045706899565
  1.4190199037853173  7.1096133934290773  7.1174039040675448
 -0.0134514313408328  5.7035404436682722  8.5422909274059862
  1.4135332441013486  7.1192039656037043  9.9824468124894175
 -0.0189410006422579  8.5472421196154773  0.0002128056785830
  1.3784874557910249  9.9406983016370649  1.4734574376081235
 -0.0354416128217400  8.5284752287692971  2.8872494207855111
  1.4135941951977966  9.9712691661633492  4.2745573018611998
 -0.0123790072608200  8.5407111287101074  5.7028972859377189
  1.4132447400101653  9.9715028791652518  7.1240466237700240
 -0.0356900551833369  8.5229907350770606  8.5201575377116558
  1.3753699992666817  9.9374523126477872  9.9352086035862825
  4.3003591041761773  1.4829036386196124  1.4685562912027466
  2.8513764609849512 -0.0040976954327094  2.8522427706751237
  4.2744900580490768  1.4501232654962928  4.2719503633609293
  2.8502169624432296 -0.0007831397957497  5.7023757222901708
  4.2833015752791361  1.4377617889443490  7.1268625433436812
  2.8483056507549165 -0.0030011619982636  8.5636141704487692
  4.3092704038773038  1.4772969820202784  9.9501624519579526
  2.7958225113991384  2.8978042298618134  0.0560452163449276
  4.3217234187051314  4.2844712691070734  1.4335936126543882
  2.8008283225850787  2.9095491194139211  2.8202814639944744
  4.2709689330850003  4.2895383334541846  4.2771371327607968
  2.8537151710338802  2.8599964868404770  5.7049781932280519
  4.2744655942831082  4.2898723223974029  7.1207512350024817
  2.8534587696495755  2.8629020415388546  8.5404929409648709
  4.2736411654354436  4.2831908789806246  9.9860481659150668
  2.8068032248556545  5.6668839029280091  0.0451318714801043
  4.2772272571721954  7.1192965813917892  1.4382191218989513
  2.8042904648501454  5.6565014934201994  2.8072417797496638
  4.2688347345890723  7.1014694638942100  4.2731356753368193
  2.8546416509265726  5.7059956843122093  5.7052697862113337
  4.2804853795188249  7.1135980882894998  7.1186790005174814
  2.8523980922816081  5.7067526004218134  8.5451235692103005
  4.2729869686599882  7.1144201613136335  9.9864647986033397
  2.8504939150062185  8.5742414283451236  0.0014633879667131
  4.3242350474520439  9.9377758828981371  1.4766371749397555
  2.8517045087340600  8.5472985589937611  2.8710496667006775
  4.2877841999885025  9.9713791673767904  4.2807034573170863
  2.8501587497625298  8.5437604622834709  5.7026694634395367
  4.2868461698487570  9.9714809094674290  7.1225984060651992
  2.8501741033398966  8.5401868491753739  8.5369624517395515
  4.3239776015214453  9.9396639851299291  9.9356149795445781
  5.6958441240355366 -0.0030416655547472  0.0035086779210076
  7.1352754324990437  1.4424966939331689  1.4358878032819971
  5.7204725270034347  0.0004853301481299  2.8714129271208964
  7.1415284992861130  1.4404521573371714  4.2862562513709141
  5.7114650904042952  0.0066636408991794  5.6987825813403035
  7.1435851825795833  1.4390888988133090  7.1160235986762874
  5.7222357382759865  0.0050868701554956  8.5373240592075543
  7.1326394251017611  1.4375833374555260  9.9759784857475857
  5.7191222412591793  2.8627414502766597 -0.0014009408811564
  7.1419987349594063  4.2900687215406359  1.4314930059633479
  5.7324689252479848  2.8805140737198878  2.8831304000636901
  7.1413318690334204  4.2901914181859437  4.2821811008674926
  5.7133011984281605  2.8668691095128085  5.7056328949722621
  7.1436693692406807  4.2931056085974184  7.1158916338077534
  5.7345612512377127  2.8857139192120282  8.5249994215060401
  7.1386797154942814  4.2899097877145218  9.9850648138750184
  5.7144596762234103  5.7066339675004114 -0.0005515492772181
  7.1420174564630514  7.1095560290982736  1.4329071148386561
  5.7172004319374619  5.7036275021464142  2.8653114029700637
  7.1449220222879353  7.1075850707556203  4.2891642601755384
  5.6994715238244114  5.7013657162802902  5.7024058061127940
  7.1467988515960892  7.1088290320210872  7.1127519265230639
  5.7157075261363666  5.7020517538268169  8.5438218672961153
  7.1409168273308072  7.1136532783941098  9.9790973451648988
  5.7225186018066090  8.5401229933599456  0.0018257114505533
  7.1354613604355777  9.9717277544944078  1.4387914611239649
  5.7393396116993749  8.5231191272562441  2.8875566083174240
  7.1438256307610786  9.9743838562388820  4.2898891291082215
  5.7104082834237069  8.5343308186874953  5.6972698180208683
  7.1459557703720344  9.9716696348364575  7.1135307770075631
  5.7344692638839785  8.5166897012764302  8.5250866502384106
  7.1370156563062270  9.9712868462585345  9.9728827038580654
  8.5571727943435896 -0.0007057590491054  0.0016879318652160
  9.9823393344621500  1.4461489335114917  1.4370644784383768
  8.5563982788940898  0.0006641657927764  2.8630652689934450
  9.9822113769758918  1.4502637326086001  4.2772375497582988
  8.5619510601068125  0.0092858249477250  5.6975535457111430
  9.9732982670137957  1.4404504533516613  7.1179662863557160
  8.5608126893060366  0.0066280056080774  8.5480857331237896
  9.9876494215909695  1.4502702595347936  9.9852278831108112
  8.5545857765715123  2.8600476229453511 -0.0020041705194341
  9.9330249458930577  4.2907569673009078  1.4290605482247092
  8.5567826091048698  2.8629773164480818  2.8643306278981697
  9.9817229109621159  4.2918604720169098  4.2777622623751688
  8.5568625805946681  2.8547196579291825  5.7025740728347358
  9.9772885438243080  4.2902345946797071  7.1181262229239231
  8.5539355849994756  2.8668939083107685  8.5461810016895434
  9.9823479468857403  4.2894934418645443  9.9885174779663632
  8.5542798262934543  5.7059938514004784 -0.0026703087885114
  9.9827194266940129  7.1040548516232542  1.4333234797629766
  8.5537930555735766  5.7044586916820519  2.8508935971184006
  9.9842825501743064  7.0956026693530090  4.2752033930466942
  8.5587936627710981  5.6979904339038683  5.7007230461834686
  9.9703085498012278  7.1075614717866147  7.1145851122638817
  8.5571135844689703  5.7013630720992632  8.5601509641130846
  9.9865213104211126  7.1013995306594797  9.9907500857724845
  8.5569142123021642  8.5437996467090134  0.0017885412279732
  9.9849943119712261  9.9710931105561631  1.4381264388156647
  8.5565387327839577  8.5406723524614456  2.8642395794193058
  9.9719260581903217  9.9746540644803776  4.2876285029428622
  8.5643102389672929  8.5465851629690892  5.6951754302866826
  9.9695797002460100  9.9743450087341454  7.1157346366819167
  8.5622961600281862  8.5343156922169943  8.5491548987467354
  9.9788926909831872  9.9714459831722841  9.9716732255107221
  2.8482340930005856 -0.0171548260782365  0.0035034884988919
