Fe Co
 1.0000000000000000
    11.3750456642214690    0.0000000000000000    0.0000000000000000
     0.0000000000000000   11.3726155167312086    0.0000000000000000
     0.0000000000000000    0.0000000000000000   11.3750456693318824
 Fe  Co 
 126   2
Cartesian
  0.0455354331961875  0.0041730793062634 -0.0000129868458115
  1.4316349521466187  1.4215770467479398  1.4121266043428800
 -0.0080733476041864 -0.0065883668184390  2.8518513315634451
  1.4252180066963045  1.4215556690208691  4.2522172550459771
  0.0009974907059278  0.0017570702629172  5.6875370482198457
  1.4252178241939006  1.4215983293449359  7.1228284455077260
 -0.0080898999293281 -0.0065882667001441  8.5232106346902548
  1.4316349165216984  1.4215768362242258  9.9629191729427973
  0.0455355147296316  2.8389805516200446  0.0000129753073938
  1.4256515570674926  4.2444523429485468  1.4181051681030570
 -0.0080896891917696  2.8497422082938275  2.8518348518853309
  1.4217954880852715  4.2656194158910079  4.2618096306079627
  0.0009974734198214  2.8413967110313600  5.6875084597583374
  1.4217663838207510  4.2655862447114261  7.1131950003755566
 -0.0080733031257619  2.8497420705225411  8.5231944470580832
  1.4256558084832343  4.2444522268671907  9.9569359081916708
  0.0032212680289082  5.6836197731128939 -0.0000313937384782
  1.4230761712437408  7.1078846652909462  1.4206852268035850
 -0.0039091309144946  5.6939930674289254  2.8476591041941250
  1.4194267302178196  7.1079413364774018  4.2707983646197789
  0.0027851755172999  5.6842460903929268  5.6875262024115560
  1.4194263922540962  7.1078281669433085  7.1042469899018181
 -0.0038976076466075  5.6939926680085025  8.5273747681563083
  1.4230762390103635  7.1078849286936672  9.9543604314235328
  0.0032212252325425  8.5321495402538936  0.0000314217249727
  1.4256556331740384  9.9713172732745772  1.4181101144497752
 -0.0038975432027726  8.5217768149800754  2.8476711559797567
  1.4217661475541274  9.9501832620869681  4.2618507507369250
  0.0027852187216843  8.5315233397325727  5.6875194057574721
  1.4217953289052212  9.9501500987171809  7.1132361064690652
 -0.0039095666878704  8.5217767856316211  8.5273865372315338
  1.4256514611745637  9.9713170812926837  9.9569400853065773
  4.2558878725282785  1.4215767946581830  1.4121265176936046
  2.8437483160416757  0.0041733554028675  2.7982260242060306
  4.2623051878991509  1.4215979693366709  4.2522169099258242
  2.8437613850676944  0.0001103286519707  5.6875227563657678
  4.2623049547411442  1.4215558007434330  7.1228288214491302
  2.8437744141507952  0.0041732395311562  8.5768195022200082
  4.2558882486342755  1.4215767206549008  9.9629190568962454
  4.2618666027700147  4.2444521211847928  1.4181098270393913
  2.8437746043065601  2.8389805387840323  2.7982259855181648
  4.2657566616332083  4.2655862775516393  4.2618504686544982
  2.8437613461992752  2.8430434051207851  5.6875229938331469
  4.2657273817872818  4.2656194439109987  7.1132362501409965
  2.8437486524550932  2.8389806882869006  8.5768199030556822
  4.2618713989396104  4.2444520534472368  9.9569402853543050
  2.8437613478925514  5.6479445802750812  0.0000001396818343
  4.2644466740630627  7.1078846762027554  1.4206853018158401
  2.8437298440369339  5.6836199396992866  2.8405400656489475
  4.2680964379716366  7.1078282515873736  4.2707985160338788
  2.8437612485480699  5.6855491612950448  5.6875228408724459
  4.2680962682766257  7.1079412371796495  7.1042471611777138
  2.8437930293010099  5.6836199896518433  8.5345057224721010
  4.2644466352553740  7.1078849197369811  9.9543601697368729
  2.8437612141424489  8.5678249795215393  0.0000000789142155
  4.2618712774082370  9.9713168492161124  1.4181054272579452
  2.8437929960485522  8.5321494282037413  2.8405399399698790
  4.2657272354479172  9.9501501057855695  4.2618096928992024
  2.8437613300037934  8.5302200071137371  5.6875228380589977
  4.2657565936882209  9.9501831718380540  7.1131952311749238
  2.8437299821080226  8.5321493259869001  8.5345056149544281
  4.2618669800666273  9.9713169080121649  9.9569355313770078
  5.6419874172785640  0.0041731242560162  0.0000128191273824
  7.0959784192965829  1.4215558345640609  1.4185437022385001
  5.6956126593556977 -0.0065881293163788  2.8518349432582917
  7.1157860892036036  1.4215767786488478  4.2720245161534152
  5.6865255107213182  0.0017568682360940  5.6875083200706893
  7.1157858716476756  1.4215769482953386  7.1030209429001863
  5.6955962685515065 -0.0065881897656144  8.5231944560275750
  7.0959784136051676  1.4215982292544693  9.9565020939470230
  5.6419871914321247  2.8389808082947541 -0.0000129521934655
  7.1055711032367679  4.2656192781530144  1.4219660649359198
  5.6955961741579761  2.8497420083278935  2.8518513427380481
  7.1130841185522149  4.2679871451815821  4.2692902446703256
  5.6865252284439247  2.8413967312084605  5.6875372099405883
  7.1130515587818817  4.2679872269848431  7.1057228145578577
  5.6956125439545957  2.8497420944627252  8.5232108008273322
  7.1056123194103620  4.2655862173057439  9.9530506903144840
  5.6843015872186369  5.6836199767802782  0.0000315772505389
  7.1145599935734802  7.1079410951249082  1.4243348630203325
  5.6914202482506395  5.6939925984294772  2.8476710550475484
  7.1111607329342776  7.1078846890634182  4.2673997421592178
  5.6847374560033712  5.6842461899725301  5.6875195094699986
  7.1111610628466977  7.1078846331229455  7.1076459373963532
  5.6914322783716189  5.6939929124894348  8.5273864221164697
  7.1145601332893520  7.1078279700230702  9.9507108952989185
  5.6843014934227964  8.5321494346069677 -0.0000314875031857
  7.1056122841376395  9.9501829239750581  1.4219953316123874
  5.6914323233438520  8.5217765504102481  2.8476590104123658
  7.1130513159350750  9.9477823280009563  4.2693228336949867
  5.6847375339051451  8.5315232657371549  5.6875261050377182
  7.1130841938040215  9.9477822257257440  7.1057557251694847
  5.6914203071790883  8.5217768195823105  8.5273748695801554
  7.1055708820842449  9.9501498525749970  9.9530798086729657
  8.5312844869026438  0.0001105453427050 -0.0000000301789627
  9.9665903044556536  1.4215979891640587  1.4185435500608048
  8.5312985567078297  0.0017569841032669  2.8427639957735629
  9.9467824636855333  1.4215769080976164  4.2720247098953337
  8.5312842808337024 -0.0011085552591449  5.6875228285994694
  9.9467826028470885  1.4215770014920315  7.1030211553961262
  8.5312699378673305  0.0017569166889067  8.5322817129363617
  9.9665898125078822  1.4215556761444319  9.9565022218331816
  8.5312843076283418  2.8430435570671957  0.0000000710226107
  9.9569566199338588  4.2655863373915359  1.4219950225025431
  8.5312698433609722  2.8413969217050536  2.8427639061123902
  9.9495170012026772  4.2679872940888224  4.2693229904336052
  8.5312844641650383  2.8442626166400715  5.6875227660155208
  9.9494842984530578  4.2679871952515196  7.1057556765363117
  8.5312986236243145  2.8413969479829677  8.5322815806917980
  9.9569975386447425  4.2656195878784873  9.9530797840701446
  8.5312840287821032  5.6855492413154716 -0.0000001523598648
  9.9480084646304565  7.1078282922802973  1.4243348038818431
  8.5312875230231509  5.6842459157627481  2.8409761532494500
  9.9514076820995800  7.1078847291050016  4.2673994793302068
  8.5312842642024087  5.6864643050610617  5.6875229721572333
  9.9514074409066371  7.1078848267908858  7.1076461825961967
  8.5312809197256083  5.6842461014329233  8.5340695752879512
  9.9480084335187655  7.1079414291199203  9.9507110087242321
  8.5312843254609820  8.5302201114374530  0.0000000262247583
  9.9569975763348282  9.9501502106682267  1.4219658291664976
  8.5312806778285104  8.5315233242917401  2.8409760242047932
  9.9494844184524638  9.9477823941138759  4.2692898500590122
  8.5312841119614262  8.5293050092362481  5.6875229597942560
  9.9495171565472642  9.9477822322144789  7.1057229508006108
  8.5312876021266675  8.5315233681259404  8.5340696638227218
  9.9569562903581588  9.9501831254636404  9.9530504412808369
  2.8437610867693897  0.0142660680514567  0.0000001242270924
  2.8437611704113182  2.8288882413177041  0.0000000646422195
