Fe Re
 1.0000000000000000
    11.3876086466976059    0.0000000000000000    0.0000000000000000
     0.0000000000000000   11.3876086492642994    0.0000000000000000
     0.0000000000000000    0.0000000000000000   11.3876086461087436
 Fe  Re 
 126   1
Cartesian
  0.1158629156450574  0.0521332496185071  0.0523585897571013
  0.0555152234349703  0.0407282256335778  2.7913492329914176
  1.4310266793022726  1.4160829342566283  4.3069165716215876
 -0.0027854100012486  0.0011549537167456  5.6894286658871396
  1.4231652455042214  1.4236619420561247  7.1181662987752512
  0.0064958483820225 -0.0056460301503169  8.5412138117384622
  1.4025030180322955  1.4444870600525856  9.8985571974500655
  0.0555527681968297  2.7913869727142293  0.0407283244852885
  1.4308192834729758  4.3069166662373570  1.4158754349568976
  0.0553869071841148  2.7915152425825824  2.7915154320335449
  1.4182037283489324  4.2582255728118810  4.2582593900500054
 -0.0029392415640389  2.8498997669338113  5.6923684411160185
  1.4181416471170303  4.2627612607608230  7.1174446840082428
 -0.0029221597716241  2.8499279868116787  8.5363105135101058
  1.4336643878210167  4.2563455849435101  9.9819798971155382
 -0.0026332853474180  5.6894171267971414  0.0012257073772026
  1.4232402716545682  7.1181663158232924  1.4237371208868121
 -0.0029976547103675  5.6923683539180292  2.8498415034669420
  1.4181783005808930  7.1175057836549467  4.2624759491537878
  0.0004734620066010  5.6933364781563860  5.6932320010095907
  1.4172876158330356  7.1186987121195422  7.1186217902461566
 -0.0007741747050378  5.6899111644356655  8.5404759053743255
  1.4276072066924350  7.1195524307826155  9.9742797143663999
  0.0062575826872256  8.5410008555165398 -0.0055775707507457
  1.4024149854442700  9.8985571551049247  1.4443992263784871
 -0.0030255755301400  8.5363105006543645  2.8498243918125721
  1.4334654317299236  9.9820157024526530  4.2563720096379036
 -0.0007309088113376  8.5404688282880237  5.6899301714338586
  1.4277349380072881  9.9741435748962903  7.1195639046876833
  0.0071027415585970  8.5489900889767014  8.5490557310786972
  1.4236475085157712  9.9606324880518819  9.9609333686578090
  4.3359536294552194  1.4443993245683484  1.4444869815289341
  2.7947686827460529  0.0523585861972534  2.7310392308979967
  4.2525309113934107  1.4132378015573110  4.2563456337149415
  2.8428974945497081  0.0038164974088836  5.6901183681764085
  4.2602312646354203  1.4192951007410601  7.1195523924095721
  2.8438328211114614  0.0029926423887968  8.5480210602026059
  4.2735774993751363  1.4232547667003206  9.9606325403434166
  2.7945435993325662  2.7310392858447776  0.0521333502427653
  4.2524951953135641  4.2563718955030243  1.4134368296028899
  2.8061739375971628  2.7913493687126802  2.7913867901425449
  4.2574316376788595  4.2537379572385268  4.2536414721669731
  2.8456763264456990  2.8495354992634043  5.6894172467676754
  4.2749881235305756  4.2654222695234845  7.1179418125101241
  2.8524796725000425  2.8406448090472800  8.5410006645832564
  4.2404859537529038  4.2467503362505417  9.9940584210216148
  2.8430857448082278  5.6901182278499114  0.0040045685047417
  4.2603673445164718  7.1195638411039583  1.4191672303844391
  2.8457471587658465  5.6894287731115245  2.8496875088255944
  4.2749936445217731  7.1180812387350541  4.2654959399317782
  2.8466169441817422  5.6927506513074038  5.6927775009147350
  4.2743939056186608  7.1182456248377672  7.1182138785584694
  2.8474562488359672  5.6890706915718248  8.5396906352961128
  4.2558114442800816  7.1236401113060470  9.9785364556051004
  2.8439094402303629  8.5480210748540753  0.0030692359531385
  4.2738783523284525  9.9609334264853757  1.4232549043882869
  2.8525481188991173  8.5412138580605212  2.8404063219757956
  4.2404524317172614  9.9940246688645953  4.2467503419930992
  2.8475577559150445  8.5396932532805820  5.6890203828489119
  4.2559743717499101  9.9786993761015754  7.1236402236305523
  2.8506967159758032  8.5530346836538840  8.5531181328019521
  4.2210509079938756 10.0134598247649613 10.0134597028613630
  5.6864897922150845  0.0030693686482469  0.0029926387397087
  7.1163445488234229  1.4237369586510003  1.4236620109774347
  5.6935101133224242 -0.0055773302683210  2.8406444328968878
  7.1170660807742898  1.4287603414974104  4.2627611408755088
  5.6948201612362297 -0.0005541291139446  5.6890706519573886
  7.1158888451815798  1.4296145444623722  7.1186987311627945
  5.6813927074636457 -0.0037946014231815  8.5530348624057666
  7.1149468655730113  1.4191673169213335  9.9741434162934866
  5.6932969477079460  2.8404064026237497 -0.0056460480317932
  7.1170051216301795  4.2624759918521686  1.4287240755527553
  5.6982004699410362  2.8498244973435041  2.8499277231121645
  7.1192333082812471  4.2692596316769187  4.2692779175291049
  5.6940347280382380  2.8476762030076883  5.6899111811318930
  7.1150834789229140  4.2654159425266300  7.1193794105561636
  5.6854552195230568  2.8397994467151131  8.5489900223632862
  7.1164296442647608  4.2654960119328189  9.9595171585220648
  5.6948175607609697  5.6890205182129083 -0.0006556056241390
  7.1158120270985830  7.1186218233804910  1.4296145584190296
  5.6940420567315142  5.6899302617386818  2.8476330126987448
  7.1151314406292032  7.1194272887218215  4.2654158849436090
  5.6873406179669734  5.6877843755894180  5.6877333795741460
  7.1081220534729574  7.1263888513085210  7.1263888730277589
  5.6837004530661179  5.6872741752823464  8.5507429320417536
  7.1162652474173891  7.1182139409619971  9.9601169061302421
  5.6814761799968201  8.5531181640925169 -0.0037945765960437
  7.1149585862495872  9.9742794992616890  1.4192949978768516
  5.6855206498874571  8.5490556760574741  2.8397993332103355
  7.1165690354815956  9.9595225810254444  4.2654223137320955
  5.6837679319625893  8.5508105978061533  5.6872740867279532
  7.1162967975319225  9.9601169655686359  7.1182455669266256
  5.6692783846915340  8.5652324986887880  8.5652323900588172
  7.1108705763073674  9.9785364976989239  9.9786993759722797
  8.5443924231532904  0.0040046372885286  0.0038163731108021
  9.9275940915627654  1.4158755426197578  1.4160829169332021
  8.5450934139294930  0.0012258039989202  2.8495353554087224
  9.9762513916119193  1.4286984667381717  4.2582256367151849
  8.5417332458236412  0.0002851894532466  5.6927507393965699
  9.9720348003609161  1.4287239644432277  7.1175055993059271
  8.5454903027313751 -0.0006556494600511  8.5396933116757054
  9.9781387656448377  1.4134367233940277  9.9820157108029814
  8.5450820136319638  2.8496875786876092  0.0011551652303498
  9.9762852394713342  4.2582594244129552  1.4286982818306169
  8.5421424021253305  2.8498413164610983  2.8498997874535799
  9.9794999579404742  4.2550106647777959  4.2550108269570597
  8.5412790583979277  2.8464287153884706  5.6933363027527184
  9.9652511272309248  4.2692780208477989  7.1152776540495752
  8.5445806241416804  2.8476331162952788  8.5404688043860251
  9.9807730493014191  4.2536414380050172  9.9770792382975344
  8.5417600763012729  5.6927773897181062  0.0002853535183963
  9.9717494124584665  7.1174448218839403  1.4287602996968862
  8.5411743380494745  5.6932317905334644  2.8464288759424679
  9.9652326782788059  7.1152775570007840  4.2692596674643584
  8.5427143838093080  5.6917964411837261  5.6917965057721647
  9.9690948745966654  7.1193794094648490  7.1194272046127995
  8.5467264099393194  5.6877333752792492  8.5471700187630919
  9.9690886172317246  7.1179417604007460  9.9595223623468865
  8.5454400709856344  8.5396907223015130 -0.0005540775412131
  9.9781652514373711  9.9819799576366499  1.4132378696372752
  8.5445997254419925  8.5404759448598764  2.8476760993619008
  9.9808694170954801  9.9770793258603714  4.2537379737522150
  8.5467774971474704  8.5471701209702236  5.6877845209722047
  9.9690146444222609  9.9595172723325014  7.1180811032482376
  8.5472366440322922  8.5507429656374025  8.5508106646926496
  9.9877603784343876  9.9940583709541446  9.9940247523643038
  2.7988921607418344  0.0480099476617993  0.0480099619950206
