Fe V 
 1.0000000000000000
    11.3702956094806904    0.0000000000000000    0.0000000000000000
     0.0000000000000000   11.3689202318102680    0.0000000000000000
     0.0000000000000000    0.0000000000000000   11.3702956185834854
 Fe  V  
 126   1
Cartesian
  0.0192702710210204  0.0000957328729068 -0.0393414355735027
  1.3648690912821957  1.3602835465747014  1.4774602721422729
  1.3738472341036849  1.3622173386618983  4.2023021360885542
  0.0006763454177878 -0.0000760157223796  5.7277955639983702
  1.4241007873115854  1.4224342237319247  7.1143819416772454
  0.0026272591075627 -0.0000315591574354  8.5330093254054997
  1.4109778770781021  1.4305175552777827  9.9378138197514190
  0.0046243285025031  2.8250621690101911  0.0149156963476536
  1.4258712289204243  4.2577495933598284  1.4166657386787098
 -0.0060184420611732  2.8888354163447461  2.8485962223455794
  1.4240717943756009  4.2676369220656776  4.2692393226865013
  0.0007611787028848  2.8267718268519144  5.6719888070359055
  1.4198022996922246  4.2657053035546797  7.1030724516040449
 -0.0037697963779863  2.8385607508783686  8.5246559987539463
  1.4207834429847752  4.2575782139609464  9.9510724146398495
  0.0021886802451636  5.6844607500615361  0.0113807269722098
  1.4259082053813039  7.1111705035069610  1.4167026598070629
  0.0012710827735473  5.6844600878607281  2.8413027958622163
  1.4241385126813275  7.1013518510934430  4.2691390832287075
  0.0033827209881064  5.6845093468637202  5.6761368374037717
  1.4197818239216586  7.1031683450523619  7.1031301885137577
 -0.0001282532970504  5.6845009622938338  8.5294870402762708
  1.4206943887689931  7.1114327533201358  9.9511937256976566
  0.0045774973077401  8.5438356264499031  0.0149185190800561
  1.3651135541045225 10.0086367640232368  1.4777048609398979
 -0.0060220906953193  8.4800849147225730  2.8485922998735091
  1.3738431418449579 10.0066699630803839  4.2025000861573965
  0.0007229171887782  8.5421467005808633  5.6719927966326935
  1.4242042983728220  9.9460716377933078  7.1144757870344124
 -0.0039074428370890  8.5303556536236051  8.5246985166595000
  1.4108903603854892  9.9384345533741083  9.9377720383756873
  4.2750974637265919  1.4304856331211495  1.4316834655753272
  2.8819153050493647 -0.0000957136763189  2.8233034965298893
  4.2639957283574397  1.4213814521619277  4.2608534923904280
  2.8282793483886359 -0.0000765986557614  5.6753159203162040
  4.2630824835513650  1.4196893859830648  7.1092037300277253
  2.8371736374558445 -0.0000901147327087  8.5437087536029939
  4.2730398212338274  1.4295897966725497  9.9397733090907909
  2.8248862441196954  2.8038431117428040  0.0176176141898151
  4.2616757736667630  4.2574873751846285  1.4218794928637377
  2.8276553254775694  2.8250846780393464  2.8379964377627238
  4.2613761758953270  4.2643623169696676  4.2649525077056980
  2.8227693077231919  2.8222470319425983  5.6677851229024370
  4.2551822478165686  4.2586950706623083  7.0963705625372597
  2.8381410071442508  2.8353046675713598  8.5322503280204440
  4.2536997573918525  4.2523501010917615  9.9592554189142497
  2.8365465222402815  5.6844601831316188  0.0060274199407177
  4.2617969774925193  7.1113420185573339  1.4217904248544577
  2.8311932380273483  5.6844591727886291  2.8403851479868476
  4.2614653939125979  7.1045531110590474  4.2648927480100198
  2.8376914117436325  5.6845141841340352  5.6803106407691706
  4.2552628387608795  7.1102750064850975  7.0963279658160792
  2.8392788180133310  5.6844704304285765  8.5297918114500479
  4.2536140024722666  7.1165700824629381  9.9591699225542829
  2.8249564428810090  8.5650771582558889  0.0176876206494275
  4.2750556248518539  9.9384026699194763  1.4315959712951156
  2.8276580966742348  8.5438582278657353  2.8379496320116484
  4.2639862825984993  9.9473952167553534  4.2609349914894352
  2.8228178849985319  8.5466168724590634  5.6678562409555315
  4.2632679579401058  9.9493217569874073  7.1092421965312305
  2.8381711641567464  8.5335472661419800  8.5322732794824407
  4.2730962728803217  9.9393303552745973  9.9398296547939342
  5.6691609416268935  0.0000902450961245  0.0054003028945784
  7.0983937354953106  1.4228485860580355  1.4183696279286611
  5.6798601205548964  0.0000316530103407  2.8399467905608069
  7.1050524640232124  1.4235521914395906  4.2700017334727027
  5.6833679869243126 -0.0000089966877714  5.6766606394312387
  7.1096215445967959  1.4206858248602339  7.1032514783083229
  5.6839233626186676 -0.0000000281582505  8.5289459808060251
  7.1036272740904662  1.4195985511618812  9.9496016274921963
  5.6805963358468006  2.8353729198395667  0.0044029048905461
  7.1097392028230626  4.2657518636069716  1.4227919697042231
  5.6881711258119347  2.8385646176914836  2.8464812159834900
  7.1068569991841919  4.2621491622662671  4.2623009322907883
  5.6828502154858729  2.8379645459925391  5.6803967834650431
  7.1139334829019560  4.2543472910254341  7.0989235959294330
  5.6887927067456543  2.8455262650293260  8.5240139166217741
  7.1165415205354714  4.2586453173756720  9.9576066868552484
  5.6830778313046011  5.6844498490074358  0.0032951762830901
  7.1097970884577535  7.1032149280926262  1.4227714699872971
  5.6833826564079253  5.6844192668720028  2.8427023233557587
  7.1068772359716315  7.1067079384188370  4.2622599936365777
  5.6812258276988707  5.6844583286962784  5.6825743646218356
  7.1139457891299793  7.1145730863486092  7.0989359821042646
  5.6847209617557768  5.6844600604825066  8.5281484811347994
  7.1164990527899992  7.1102250994066747  9.9576873319810364
  5.6806193809331820  8.5336154433614766  0.0044328638700993
  7.0984875627483426  9.9464860230346961  1.4184731758896385
  5.6882133794086949  8.5303594219249685  2.8463437764328137
  7.1049990010079673  9.9453202422196760  4.2699175527851247
  5.6829156982972702  8.5309116093446562  5.6803835725030174
  7.1096180854297195  9.9482344395701805  7.1032480409304402
  5.6888557096922536  8.5233941072263821  8.5240768850397579
  7.1036657487187425  9.9492308276504087  9.9497870397606025
  8.5375535867202466  0.0000766282019573  0.0142945997192761
 10.0103692952380872  1.3622504162977511  1.4687306463136576
  8.4850740330675638  0.0000759315267959  2.8418975463604270
  9.9996167716512385  1.3657509313839058  4.2133921762122393
  8.5395620641136958 -0.0000000492132435  5.6733075428690265
  9.9429518323843187  1.4235998358788597  7.1078705711878953
  8.5362087818089094  0.0000090208769726  8.5295014773827180
  9.9519346816890604  1.4215250196299738  9.9488832358548525
  8.5450131855503280  2.8223034981403061  0.0197561026585442
  9.9437302754897452  4.2675684290124245  1.4184352382159524
  8.5408767094101474  2.8267734663587358  2.8418509109777017
  9.9470213036374062  4.2659652766744278  4.2657926581486159
  8.5468838269598013  2.8206511451301575  5.6660083122397484
  9.9506095758877873  4.2622123199515594  7.1059922897055303
  8.5324858343231043  2.8380086124337875  8.5299538108598902
  9.9479766911524390  4.2643672136253956  9.9514041943820075
  8.5325589505755435  5.6844058454573849  0.0048824149297159
  9.9436300388827785  7.1012833181886510  1.4185021086814180
  8.5367325963383891  5.6844108187798268  2.8391912415559823
  9.9470768285875621  7.1029549410260104  4.2658480718039202
  8.5314445073440446  5.6844600118271407  5.6814250050882089
  9.9505684318044825  7.1067712346131833  7.1060126185996682
  8.5302952549118896  5.6844620029225608  8.5316437759263195
  9.9479168020266862  7.1045579910516778  9.9514934572528535
  8.5450844423704382  8.5466731178359598  0.0198045163024264
 10.0105674077205240 10.0067029195785437  1.4687266304406885
  8.5408806756054627  8.5421483118224266  2.8418126661450378
  9.9994772146514954 10.0031692720077476  4.2132528091436949
  8.5468610498428994  8.5482689538216992  5.6659857589849745
  9.9428677005330712  9.9453680055703160  7.1078169033260901
  8.5324728751279810  8.5309556027594926  8.5300194214909730
  9.9520159380257525  9.9475385594192236  9.9488738688508978
  2.8478609391511802 -0.0000000778876531 -0.0052871047186536
