Fe Co
 1.0000000000000000
    11.3633255965397897    0.0000000000000000    0.0000000000000000
     0.0000000000000000   11.3648612203287378    0.0000000000000000
     0.0000000000000000    0.0000000000000000   11.3633323204717716
 Fe  Co 
 126   1
Cartesian
  0.0401426046615580 -0.0032088168260663 -0.0032898605041989
  1.4251392780351777  1.3704085767288861  1.4155866378484885
  0.0003601567881889 -0.0037073281625488  2.8405207845675413
  1.4227293240356420  1.4312336484001733  4.2407078347212321
  0.0009822235204948  0.0010398885182059  5.6815586960855207
  1.4235288224554046  1.4261429427878496  7.1106974941352137
  0.0016539757994446 -0.0010353943090429  8.5253250851795421
  1.4277959020198521  1.4184431605797685  9.9624802785445787
  0.0609093925272614  2.8898184323757521  0.0533720751891800
  0.0596683917586210  2.9062754007144282  2.7812081552999390
  1.4209079293325388  4.2655262627698649  4.3034704213818564
  0.0025784515828887  2.8366091185832971  5.6840224715292837
  1.4200144552392802  4.2651691705318191  7.1003059191920634
 -0.0047190502772444  2.8460779796544085  8.5163799437860703
  1.4218401844504673  4.2557367823951537  9.9073472821645634
  0.0521630081190663  5.6308576434584454  0.0545861611432049
  1.4235637959764444  7.1566197038761592  1.4171752208427399
  0.0574785399278769  5.6313243999020033  2.7834142686430079
  1.4185927909945051  7.0905159268766198  4.2523777667853375
 -0.0023823148972036  5.6846324701284248  5.6833791444107495
  1.4185713491647343  7.0912328028404907  7.1001533307334004
  0.0011077976888035  5.6830541856958838  8.5255498172507362
  1.4210630614511726  7.1012236126453381  9.9580664510259904
  0.0005289642867065  8.5316633170353828 -0.0027676881533462
  1.4278331295378812  9.9512252498093225  1.4130277065029515
 -0.0088179036605180  8.5207164311289656  2.8495913007439477
  1.4227148653199342  9.9456554762343750  4.2448181436532577
  0.0027912054063851  8.5258238854683377  5.6821754254668049
  1.4221704114120677  9.9455519925124829  7.1091753246481151
 -0.0054671154681572  8.5172648683994954  8.5162881358792522
  1.4242928762742575  9.9489430549425979  9.9559068027930611
  4.2419389058582171  1.4183578733834119  1.4130494019186297
  2.8440927725288363 -0.0031230870558686  2.8004642807044617
  4.2406468284492593  1.4377584800470418  4.2364287528884379
  2.8396374167452283  0.0007056115226983  5.6802682699595346
  4.2534882053079182  1.4234916830965281  7.1106013754195310
  2.8409933256079896 -0.0012514688234323  8.5698365720699190
  4.2409606593516980  1.4333914650962996  9.9630137736996591
  2.7879065058501578  2.8557023687360306  0.0530414636792734
  4.2968306856050740  4.2557883071653722  1.4191071035976404
  2.7875193230206374  2.8898444001701131  2.7799174021102893
  4.2489237018686135  4.2636539209137805  4.2516563849576361
  2.8423533815667130  2.8392324789884951  5.6836791642003464
  4.2513146537022672  4.2639303807890734  7.1011883011239512
  2.8411309304270311  2.8334182231123313  8.5290622980846216
  4.2449728593057481  4.2548902691871477  9.9591618569576870
  2.7836559063761470  5.6283831136012266  0.0572798987156430
  4.2461085890192090  7.1013374170681622  1.4197915335015521
  2.7862583320486030  5.6309565177769256  2.7886823565532759
  4.2453228066936877  7.0832433293245458  4.2453987944769462
  2.8428906620614631  5.6849195664011969  5.6833983040159639
  4.2571812907505269  7.0952958077786361  7.1011781666249094
  2.8410329931966642  5.6837126965479223  8.5229682957352608
  4.2407735139934246  7.0908335173404247  9.9634276202164624
  2.8454979765843484  8.5739289636031195 -0.0046073762787856
  4.2481625579053359  9.9489811396645855  1.4164999270750569
  2.8434476385725893  8.5316625166288826  2.8403789222858458
  4.2556690781239892  9.9455452641108266  4.2497414316406612
  2.8399142208386094  8.5231333916820251  5.6817120822207903
  4.2580474921775870  9.9452110287303448  7.1091409603525513
  2.8395987217019623  8.5266563238633619  8.5263972944019777
  4.2537005415727149  9.9454664201583984  9.9504083453618772
  5.6342024823075514 -0.0012998995225425 -0.0002007193927794
  7.0935203859751779  1.4261716665888637  1.4172659018283718
  5.6789175044883144 -0.0010205098735008  2.8392174891041639
  7.1039868143803675  1.4288452753562746  4.2585160132223097
  5.6739053764530052  0.0091469052658777  5.6744431015647399
  7.1047926466962164  1.4263018951501980  7.0993028821657482
  5.6730211436282598  0.0077222780688157  8.5311993005722524
  7.0935116693823144  1.4235144444192309  9.9506471346755774
  5.6750027198519586  2.8333094960880252 -0.0001740716330520
  7.1038027865683473  4.2651885235375548  1.4208310038897054
  5.6878135945513728  2.8461282715236829  2.8457158330911554
  7.1007652579220197  4.2614819942883377  4.2515663696542942
  5.6774069661349209  2.8401452206151521  5.6822065097109329
  7.1024397438894971  4.2618637962147456  7.1017129278112545
  5.6864376886788692  2.8512873778815111  8.5177613349318495
  7.1029823804265400  4.2638526014122435  9.9528570809733470
  5.6811543033579737  5.6835517325007796 -0.0002551623997078
  7.1039959170137097  7.0912909056957343  1.4222120928725692
  5.6786418975383173  5.6831828837374685  2.8396754815455982
  7.1018526007474128  7.0966208635184502  4.2568205921351243
  5.6804676552878099  5.6803592314394491  5.6807779589190188
  7.1033301724122833  7.0983565814601839  7.1008401341759324
  5.6789821604584327  5.6802020660007617  8.5251508947476466
  7.1029215253040148  7.0952135755641841  9.9470116138282254
  5.6777753266282236  8.5266490173789506  0.0012021072471485
  7.0949966888936480  9.9455508559738224  1.4186018140394576
  5.6878609748573945  8.5173772490934585  2.8463047449793177
  7.1052744611545187  9.9431247716955315  4.2628954817141311
  5.6715691538653150  8.5175855112953869  5.6741819144752137
  7.1058131110535827  9.9425854577984136  7.0984181996000419
  5.6810092162348305  8.5074701055667337  8.5231909253377065
  7.0950538547005184  9.9452094836444420  9.9461063345306684
  8.5238558231517825  0.0007739748955556  0.0011912325842456
  9.9634478945357383  1.4312886422157380  1.4180451653447161
  8.5226317228026129  0.0010151536215990  2.8398258530704688
  9.9610756215231593  1.4442383846257403  4.2431638647800440
  8.5314138329086564  0.0113492902688404  5.6727600482287697
  9.9456006814974725  1.4288639064180837  7.1002549540665880
  8.5296965653301875  0.0091749729171599  8.5302556904171070
  9.9677726293749913  1.4377399428433899  9.9635546165101161
  8.5205039174974679  2.8393298322554790 -0.0016355346968171
  9.9006663885449075  4.2654120119973822  1.4199483035539409
  8.5201203049339096  2.8365146985427274  2.8381632206487422
  9.9574443914905615  4.2602359930797924  4.2467090683177728
  8.5236707870630557  2.8440096340969299  5.6804471394357146
  9.9526002585352771  4.2614877515379765  7.1034145623882905
  8.5219694301207500  2.8401244477859833  8.5267043050485860
  9.9525587336646488  4.2636432833288467  9.9552408550559353
  8.5207661826735830  5.6849449609004035 -0.0019819758897840
  9.9518377155645616  7.0904304788450077  1.4222082194102257
  8.5207519216770429  5.6845521393864660  2.8432859204658989
  9.9604486333746465  7.0842504801767383  4.2436707533741620
  8.5250060582471132  5.6786762464744749  5.6792028077675285
  9.9473418319730929  7.0966082940815802  7.1023307357352756
  8.5233306341030293  5.6803329983010178  8.5237519109061459
  9.9587060882429732  7.0832548824424535  9.9588449525685725
  8.5225212304388762  8.5231483923931251  0.0009275597979190
  9.9593060645886755  9.9456258685378298  1.4181544097017851
  8.5219209428105405  8.5257722654102341  2.8379922556438628
  9.9445488186686131  9.9433557500534206  4.2595503807811026
  8.5306135368849088  8.5138051739761060  5.6735723911830052
  9.9413112311920351  9.9431114533318627  7.0988871794785000
  8.5299800846547686  8.5175478209591695  8.5325924332660126
  9.9543962502236631  9.9454734100203641  9.9485157886341167
  2.8450840279670206 -0.0085497611320959 -0.0042429785245151
