Fe Co
 1.0000000000000000
    11.3584081708784321    0.0000000000000000    0.0000000000000000
     0.0000000000000000   11.3865465163030226    0.0000000000000000
     0.0000000000000000    0.0000000000000000   11.3584081697813186
 Fe  Co 
 126   1
Cartesian
  0.0527275212913788  0.0061193732567645 -0.0000397638539709
  1.4839536271047413  1.4701096458514062  1.3557901342417844
  0.0235741324981903  0.0170713114422128  2.8159948015111986
  1.4233158217008075  1.4202592262826672  4.2480136206522827
  0.0070185885964495  0.0063132136501706  5.6792238108851301
  1.4233421552123273  1.4202014678289092  7.1103747538628967
  0.0236067679682332  0.0170713900304418  8.5423800883682794
  1.4838116463151574  1.4701101174205413 10.0027588662093549
 -0.0355535569018476  2.8513960499135984 -0.0000311353117100
  1.4690591271368842  4.2172450957239187  1.3705237705671067
  0.0072606826685230  2.8546978256352236  2.8323407492108146
  1.4168264205102357  4.2746119902309205  4.2619792960596268
  0.0128768709726745  2.8433160538213214  5.6791790145307308
  1.4167874662205671  4.2745060712002916  7.0964079945864906
  0.0072614775103046  2.8546977777451228  8.5260664232059149
  1.4690783154372904  4.2172450854928538  9.9878654967996798
  0.0110836076857252  5.6864526073840134  0.0000237850216678
  1.4130050904439155  7.1289466406992315  1.4266357800645633
  0.0170133879571100  5.6776487805908138  2.8225652746716601
  1.4172727944845620  7.1130446007773527  4.2649110009672446
  0.0024791754847027  5.6859255731803584  5.6791720857787231
  1.4172131305305415  7.1129589901226566  7.0934419828830713
  0.0170366224319590  5.6776490141253628  8.5358193865882317
  1.4129662308495774  7.1289467984032733  9.9318114160619864
  0.0069435789177350  8.5403299118494331  0.0000466019595094
  1.4203447705414192  9.9557271923719597  1.4193211271383372
 -0.0088712532952734  8.5307536258946755  2.8484805272164513
  1.4203654196748334  9.9624594374895086  4.2517841862575381
  0.0004304162538435  8.5429062479798965  5.6791599151650516
  1.4202978208247359  9.9624193937568553  7.1066025026705697
 -0.0088785677471433  8.5307536915047084  8.5099349570119092
  1.4202807720242832  9.9557270782504421  9.9391504654808465
  4.1953924004953889  1.4701094246150861  1.3556484934037811
  2.8395620831122272  0.0061193403366763  2.7868747033543833
  4.2558617991447454  1.4202014669755139  4.2480340536856298
  2.8396022765003863  0.0060640980885386  5.6792040359345624
  4.2558885406548885  1.4202593990136314  7.1103945294446058
  2.8396417524063371  0.0061196071059577  8.5715332827486783
  4.1952506114914723  1.4701099795587820 10.0026175500784440
  4.2101258244792392  4.2172454180852359  1.3705425030504916
  2.8395707288155139  2.8513961283954607  2.8751553462103421
  4.2624163934173733  4.2745062552395003  4.2620007160696476
  2.8396019066057132  2.8473054680188783  5.6792041488111673
  4.2623773149201352  4.2746119652580541  7.0964290058326425
  2.8396329450362590  2.8513959829509319  8.4832528981285122
  4.2101449053679296  4.2172452554027453  9.9878845037785702
  2.8396018817884281  5.7424050615927049  0.0000001694136447
  4.2662378288212626  7.1289467513687450  1.4265967253126866
  2.8396256237008752  5.6864531342930675  2.8285187361554627
  4.2619908660650898  7.1129590120947146  4.2649663355464789
  2.8396022597434283  5.6848285550198758  5.6792041117042480
  4.2619311186889659  7.1130450989253848  7.0934970200827649
  2.8395783613225496  5.6864529842375777  8.5298894353123398
  4.2661988874664560  7.1289468717776572  9.9317724872627799
  2.8396019400221428  8.5775965544449271 -0.0000000552940466
  4.2589229166103033  9.9557269338648560  1.4192573587522934
  2.8396484960709736  8.5403299284406309  2.8326586067218056
  4.2589066751094018  9.9624188824897413  4.2518057611807585
  2.8396019850930747  8.5409019934777799  5.6792040475003196
  4.2588387148627120  9.9624592156943255  7.1066238519134259
  2.8395553254552608  8.5403299353220312  8.5257496703692670
  4.2588597744100056  9.9557265148823468  9.9390867903442661
  5.6264766315136967  0.0061195389265644  0.0000395377214198
  7.0876156204612517  1.4202592013581989  1.4162862476596205
  5.6555971866383601  0.0170714275796843  2.8160281902677511
  7.0995200462617012  1.4270114170649431  4.2599073712854665
  5.6721853088633907  0.0063133596123079  5.6791842745247960
  7.0995091659382688  1.4270112910138875  7.0984901537387470
  5.6556302395377163  0.0170712677576025  8.5424130705826116
  7.0876358333973482  1.4202015936134667  9.9421483655954841
  5.7147573695921041  2.8513961086831201  0.0000310327348766
  7.1015814377682895  4.2746120640792977  1.4227753928260829
  5.6719424678328600  2.8546978590648311  2.8323415003114802
  7.0985120111801168  4.2653131141755463  4.2588692883955277
  5.6663270014755867  2.8433162940337877  5.6792295064290617
  7.0984715207393752  4.2653131351897358  7.0994982943125837
  5.6719437503637389  2.8546977120061654  8.5260679287029806
  7.1016027183022290  4.2745060023125809  9.9355940184068601
  5.6681205080079362  5.6864528307349298 -0.0000236165119285
  7.1045128067496321  7.1130448646176037  1.4223290101220412
  5.6621673824411776  5.6776491226831549  2.8225887251320918
  7.0953266001282254  7.1058333658631812  4.2557454203032332
  5.6767251054564056  5.6859255147588321  5.6792361046021176
  7.0953477322148766  7.1058335679923950  7.1026838304199771
  5.6621906431021110  5.6776489252184730  8.5358426831660275
  7.1045679079615294  7.1129588615853425  9.9360193121467351
  5.6722605850524221  8.5403298781095263 -0.0000465153610421
  7.0913864043477028  9.9624593305855278  1.4192367482434565
  5.6880826526444181  8.5307537637001030  2.8484734756056689
  7.0943971432667006  9.9735800039690901  4.2548500355155889
  5.6787733585040092  8.5429060607504468  5.6792484367739204
  7.0944522302240225  9.9735799314920826  7.1036128268027907
  5.6880754266642573  8.5307538405452341  8.5099274359158041
  7.0914077564472180  9.9624190111504749  9.9391035883743974
  8.5188061103637214  0.0060640561963202 -0.0000001999975356
  9.9499762872290560  1.4202012853466186  1.4162598661786394
  8.5188256921713279  0.0063134679652294  2.8325834229726086
  9.9381031233065098  1.4270112995252560  4.2599180277480073
  8.5188063407537307  0.0065899974758650  5.6792042467960719
  9.9380924688312504  1.4270112072891605  7.0985012469016011
  8.5187865287268636  0.0063132957261241  8.5258246529038715
  9.9499966886163005  1.4202592680274342  9.9421216388013605
  8.5188062184413020  2.8473055659438402  0.0000001792526511
  9.9360094830150398  4.2745059051620702  1.4228144111326124
  8.5187806058571560  2.8433162258756521  2.8267250494706238
  9.9391407414886022  4.2653128853435387  4.2589099456128743
  8.5188060611608094  2.8448710400295494  5.6792044302823559
  9.9391004653600437  4.2653128149162463  7.0995387417606750
  8.5188315741699192  2.8433162545296709  8.5316832127589564
  9.9360310239284928  4.2746120669583965  9.9356330685687304
  8.5188059901088522  5.6848287554180725 -0.0000000151615884
  9.9330441175657409  7.1129590549194539  1.4223889280356248
  8.5187741717954921  5.6859258427594677  2.8371231174761014
  9.9422649762356645  7.1058333152055200  4.2557240785440094
  8.5188059174365733  5.6838988180697285  5.6792040840297249
  9.9422856869400764  7.1058334989366356  7.1026626669130275
  8.5188381989256730  5.6859254109975677  8.5212852451157790
  9.9330990838433255  7.1130448189648074  9.9360789947228660
  8.5188061465287888  8.5409021281736468  0.0000002322480606
  9.9462043571268097  9.9624190471159775  1.4193044636044849
  8.5187621265550266  8.5429058888956106  2.8391715141162801
  9.9431601550993953  9.9735801041245704  4.2547950793168585
  8.5188060504534793  8.5432690861548863  5.6792042896162549
  9.9432149945665564  9.9735800265705823  7.1035581102918774
  8.5188505926872704  8.5429061927978633  8.5192367941212890
  9.9462262046943994  9.9624590399898700  9.9391717210850725
  2.8396022591876933 -0.0655007624337240  0.0000008377243029
