Fe Zr
 1.0000000000000000
    11.3871374331146225    0.0000000000000000    0.0000000000000000
     0.0000000000000000   11.3871374267466656    0.0000000000000000
     0.0000000000000000    0.0000000000000000   11.3871374260761087
 Fe  Zr 
 127   1
Cartesian
 -0.0323807638848095  0.0000003147836676 -0.0000001457217294
  1.3215971401824342  1.5251871919331788  1.5251871810236970
  0.0157235526217657  0.0000002943623980  2.8310610628384616
  1.4224019107422963  1.4244419598908811  4.2559709753964281
 -0.0039661982910757  0.0000003367194340  5.6935686146209781
  1.4223419944052098  1.4243823969351219  7.1311666440524526
  0.0157233912387359 -0.0000002092964591  8.5560762371046213
  1.3215972008059211  1.5251872590907198  9.8619502414955136
  0.0157233136940047  2.8310611674225927  0.0000002540860157
  1.4223418963382513  4.2559707863609120  1.4243821594771540
 -0.0293577445207783  2.8761420463664304  2.8761418471780380
  1.4247747464135423  4.2684762375602157  4.2684590362183048
 -0.0063475163624291  2.8531319651325067  5.6935689150747182
  1.4247754371944583  4.2684589204553429  7.1186612636930642
 -0.0293575555663522  2.8761418504359306  8.5109953638735956
  1.4224017617746270  4.2559709354133188  9.9626954383814272
 -0.0039661001096330  5.6935685628049377 -0.0000000122428848
  1.4224021338551018  7.1311666422050415  1.4244422968816803
 -0.0063475486261055  5.6935687602145153  2.8531320831723437
  1.4247750493259934  7.1186783922806445  4.2684760263821069
  0.0027614344087503  5.6935686466870257  5.6935684329386742
  1.4247754983328358  7.1186615185421074  7.1186787374156948
 -0.0063477464367775  5.6935686869515614  8.5340053983714874
  1.4223420276092149  7.1311666429475968  9.9627552737145422
  0.0157231276973098  8.5560761364368538 -0.0000001267392197
  1.3215973678715998  9.8619505359975754  1.5251870704101387
 -0.0293575505667989  8.5109954686139453  2.8761417907915754
  1.4223422104850880  9.9627551400829049  4.2559706475095540
 -0.0063475919826724  8.5340053286812232  5.6935688101542894
  1.4224018815444148  9.9626952899372512  7.1311667273271695
 -0.0293574924052769  8.5109954512782515  8.5109954157592593
  1.3215970659743181  9.8619499876145476  9.8619501229464728
  4.3719714468176720  1.5251871837235862  1.5251869724327671
  2.8467841101825213  0.0000000765140513  2.8791651323419987
  4.2712265342208715  1.4243826281862368  4.2559709964843648
  2.8467845013374302  0.0000002100511679  5.6935690266628978
  4.2711664464977321  1.4244423179726171  7.1311666746338567
  2.8467841695815519  0.0000001246990977  8.5079719873612163
  4.3719717967505423  1.5251872417714583  9.8619501829028202
  2.8467843019396968  2.8791649323214115  0.0000001028519045
  4.2711667567135612  4.2559706776969159  1.4244420945817271
  2.8467844334086951  2.8310612448144421  2.8310610290786777
  4.2687934674183161  4.2684588029201640  4.2684762565709677
  2.8467843700299382  2.8507503371046843  5.6935688107929634
  4.2687931791486431  4.2684761523340509  7.1186784332689639
  2.8467844621860521  2.8310612420962076  8.5560762959967498
  4.2712265640021627  4.2559707511811142  9.9627552467880296
  2.8467842374707697  5.6935688251720045 -0.0000000555611836
  4.2712266519775506  7.1311667949621587  1.4243823862708713
  2.8467842571010769  5.6935689886842109  2.8507506349053329
  4.2687937228424877  7.1186616310758648  4.2684589348934887
  2.8467842972666113  5.6935686205966638  5.6935687822019458
  4.2687934881499086  7.1186786176323169  7.1186611799370176
  2.8467844212962552  5.6935686903623859  8.5363867080674058
  4.2711668199780632  7.1311667419137557  9.9626952024067101
  2.8467842173602618  8.5079725692228862 -0.0000001050030257
  4.3719716635285648  9.8619502842950428  1.5251872701022204
  2.8467844926414281  8.5560761475764462  2.8310613165198024
  4.2711668232527797  9.9626955296512492  4.2559706507371073
  2.8467841967510408  8.5363870376960804  5.6935688133551974
  4.2712264707839385  9.9627548792885072  7.1311669963802800
  2.8467844690644917  8.5560761770060498  8.5560760974787691
  4.3719713332813086  9.8619504170634151  9.8619501168972032
  5.7259496883697976 -0.0000001415518137  0.0000001694047449
  7.1027552983839559  1.4244421686070434  1.4243823475941997
  5.6778455633678817 -0.0000000697731452  2.8310613564563916
  7.1152603467831508  1.4220093114948824  4.2684592579077369
  5.6975350458478591 -0.0000001913455483  5.6935686138381341
  7.1152430598112488  1.4220090649213453  7.1186611133464073
  5.6778454063567274  0.0000000578317176  8.5560763477903059
  7.1027551504460087  1.4243822034031899  9.9626952563544773
  5.6778456672512805  2.8310613480442610 -0.0000002583694318
  7.1152438235284228  4.2684758693447344  1.4220089526612776
  5.7229262284303921  2.8761421713449655  2.8761420553103854
  7.1300155550775441  4.2832311110398482  4.2832313632403061
  5.6999162249239550  2.8531319269406885  5.6935685407577905
  7.1300155876034443  4.2832314071608337  7.1039062058587596
  5.7229263398324610  2.8761419365140113  8.5109957119489437
  7.1152606551444242  4.2684588559321917  9.9651282028759454
  5.6975348558940420  5.6935688868008603  0.0000000881362869
  7.1152604325099063  7.1186783913973155  1.4220093030471903
  5.6999162232204252  5.6935691600560521  2.8531319011864023
  7.1300153289085610  7.1039062728002245  4.2832312362373592
  5.6908074881350075  5.6935685996879846  5.6935686999076411
  7.1300156153087437  7.1039060768681948  7.1039060208294789
  5.6999164582964363  5.6935688167860334  8.5340055351429420
  7.1152432969527677  7.1186613678994046  9.9651280366478368
  5.6778453791205346  8.5560761632150122  0.0000001505972931
  7.1027551903628288  9.9627550761351689  1.4244419639537498
  5.7229261329747700  8.5109950260562570  2.8761420886085141
  7.1152434128514441  9.9651283320114477  4.2684762127308939
  5.6999162706021780  8.5340051626639877  5.6935687836057882
  7.1152602528800122  9.9651284339745292  7.1186785048865211
  5.7229262253903235  8.5109952848510506  8.5109956276454106
  7.1027552357981092  9.9626953072661131  9.9627550593119487
  8.5403527627203548  0.0000001083316353  0.0000000529337520
  9.9779509384120697  1.4243821976882638  1.4244419581674261
  8.5403531465280107 -0.0000001802767829  2.8507504076090147
  9.9654626959292223  1.4220092727595051  4.2684763222018010
  8.5403531343897967  0.0000001900618002  5.6935684457365285
  9.9654455520579006  1.4220089785743557  7.1186783848528128
  8.5403531087627496 -0.0000000602840756  8.5363870370884616
  9.9779509450521644  1.4244421268517899  9.9627550414567292
  8.5403527987316625  2.8507501701052740  0.0000003068136271
  9.9654453790737865  4.2684588747301797  1.4220089686795077
  8.5403529691916411  2.8531319554913463  2.8531320667607920
  9.9506906827858366  4.2832310770177822  4.2832311161180288
  8.5403528709482739  2.8440229963136936  5.6935684676392224
  9.9506904666763241  4.2832310127263744  7.1039059806959948
  8.5403530860986230  2.8531320778343296  8.5340054099626244
  9.9654630559718811  4.2684760763764311  9.9651283512838535
  8.5403532679459300  5.6935685420607935 -0.0000000388323245
  9.9654628037037529  7.1186612726709653  1.4220092405886628
  8.5403529769350488  5.6935686573814746  2.8440230427852473
  9.9506906375612765  7.1039062396204740  4.2832312414913316
  8.5403532574176886  5.6935686019480274  5.6935688002972293
  9.9506907468698351  7.1039061004403878  7.1039062166993769
  8.5403531059467674  5.6935685490795551  8.5431146403544496
  9.9654456320060856  7.1186786185365758  9.9651283140109346
  8.5403530469021529  8.5363868885257617 -0.0000002043512952
  9.9779509412650018  9.9626951903972341  1.4243823545258445
  8.5403530028465848  8.5340052215855788  2.8531320044097077
  9.9654456209305788  9.9651283714704935  4.2684588898438047
  8.5403530469547704  8.5431146300541094  5.6935686199024573
  9.9654628779226648  9.9651282219863351  7.1186616875415885
  8.5403530955414020  8.5340054149911815  8.5340056746574025
  9.9779509472748682  9.9627550557666922  9.9626949471817472
  2.8467847314917103 -0.0000000360617471 -0.0000000185975352
