Fe Re
 1.0000000000000000
    11.4170276388104277    0.0000000000000000    0.0000000000000000
     0.0000000000000000   11.4170276490548570    0.0000000000000000
     0.0000000000000000    0.0000000000000000   11.4170276460965585
 Fe  Re 
 126   2
Cartesian
 -0.0086259812056356 -0.0227350200767819 -0.0231149117002096
 -0.0119171187547897 -0.0162878450533789  2.8667779033298766
  1.4255245072533842  1.4293695194914446  4.2236562314606525
  0.0032933252198697  0.0080189748122262  5.7073892732482197
  1.4360846907595075  1.4181736579869506  7.1420233718643571
  0.0104812987485201  0.0070815384520764  8.5729224156731174
  1.4040136973116981  1.4498634414179927  9.9812731973501148
 -0.0125209322417832  2.8661740238354803 -0.0162876907962995
  1.4248872751719779  4.2236565230338314  1.4287323644383820
 -0.0378417768399281  2.8920986619492846  2.8920986520090723
  1.4208356749007907  4.2785743936276388  4.2786314132337733
  0.0024557723251013  2.8519985938776986  5.7119641921912274
  1.4213101290279586  4.2877597449094491  7.1372245727680035
  0.0047343521937662  2.8495295066665238  8.5636122775699697
  1.4340353595991966  4.2712099062946471 10.0004034378142421
  0.0032470564844028  5.7075893907728652  0.0077398059145214
  1.4360832431477131  7.1420233539890692  1.4181722244089661
  0.0022582456592360  5.7119642526485670  2.8518011437788666
  1.4211136051172339  7.1370809918551288  4.2876481506998187
 -0.0051838079350469  5.7101934061397079  5.7102762219215331
  1.4193943485195064  7.1329238035611473  7.1328285756290253
 -0.0058800541282194  5.7075210765689590  8.5606270511406173
  1.4348683158905631  7.1365668297471441  9.9931463167010151
  0.0105042781571100  8.5729461460437317  0.0069069325279541
  1.4043933698632480  9.9812732447845800  1.4502432363926023
  0.0047274276756361  8.5636122536993131  2.8495226661972830
  1.4342099899225449 10.0003805114729580  4.2712337477451756
 -0.0057629993902299  8.5606455308513478  5.7075255015734063
  1.4351474573078637  9.9931924222602060  7.1367668556190322
 -0.0067476230251183  8.5645279077021552  8.5644012731959602
  1.4108407637430478  9.9779820797004444  9.9773781477669470
  4.2900113070571289  1.4502431595652476  1.4498634535800456
  2.8769918999729849 -0.0231148749165308  2.8628828532583062
  4.2708810975290081  1.4202215544295731  4.2712099081169548
  2.8453020986106243  0.0089563328730761  5.7021327600081442
  4.2781382941181452  1.4193885875455925  7.1365668001216100
  2.8564980256940031 -0.0016039615212629  8.6204997356413191
  4.2939063245678311  1.4434161696545440  9.9779820382239883
  2.8773716613376354  2.8628829036991981 -0.0227348712555540
  4.2709040623446217  4.2712337354336301  1.4200469146456733
  2.8705445406271495  2.8667778151425480  2.8661738774706667
  4.2881328831429819  4.2797548008791280  4.2796280890197318
  2.8465170292391360  2.8510098060704094  5.7075893825271526
  4.2872653811083508  4.2835290651845250  7.1366350842845794
  2.8473499842019487  2.8437526792015566  8.5729461288631654
  4.2766509601347167  4.2805438475448074  9.9946266316830332
  2.8453005994946690  5.7021327999592284  0.0089548095495602
  4.2780920824035658  7.1367668700004732  1.4191094809988045
  2.8462379167411589  5.7073892122031413  2.8509636736614450
  4.2871483709678522  7.1366306503783932  4.2835105233510751
  2.8619909584860266  5.7113275258302174  5.7112323192107626
  4.2865692599508094  7.1338799324560824  7.1339626151024182
  2.8600751876892572  5.7069315809090106  8.5563963779419794
  4.2789295831609264  7.1321918805982412  9.9921575319652725
  2.8558608282739386  8.6204999200917598 -0.0022410332743545
  4.2933025416287567  9.9773782333255454  1.4434161876881741
  2.8471752687055636  8.5729223999476201  2.8437756231467213
  4.2766578992266888  9.9946335726301250  4.2805438167050927
  2.8602716969918931  8.5565078834044179  5.7070750418399525
  4.2791270231179368  9.9923549627236579  7.1321918544968739
  2.8605497152852104  8.5655246008362340  8.5655816697683811
  4.3192271768106183  9.9520573398601702  9.9520573396277072
  5.6507847550583721 -0.0022410616030178 -0.0016039576571151
  7.1292612234112678  1.4181721593234733  1.4181736855064835
  5.6983384654231513  0.0069069132829182  2.8437526628936527
  7.1340600031091537  1.4329467338506192  4.2877596220210537
  5.7148881462571612 -0.0058183098960438  5.7069315060011645
  7.1384560265430883  1.4348624807373123  7.1329237344583163
  5.7057028777279495 -0.0062928235271344  8.5655246482118130
  7.1345176792075646  1.4191095224709416  9.9931924531780467
  5.6983621751170972  2.8437756470465536  0.0070816049488190
  7.1342035403419350  4.2876481229122509  1.4331433345604150
  5.7076722556645345  2.8495224676875330  2.8495294488237781
  7.1365647529477503  4.2830263255246912  4.2829695540813040
  5.7106575401847861  2.8601369162935160  5.7075209683213544
  7.1345375061769163  4.2793074281746657  7.1368193777549429
  5.7068833238149717  2.8610044940309125  8.5645278923057973
  7.1346538712689496  4.2835105278656469  9.9841361757284641
  5.7147766647574887  5.7070750396404888 -0.0060147922427265
  7.1383608114128370  7.1328285382056533  1.4348625361899872
  5.7106390017981585  5.7075253437091158  2.8600199090109677
  7.1344652446862220  7.1367469948364768  4.2793074606784183
  5.7064358127538872  5.7074090132191611  5.7073367346116068
  7.1388119682546005  7.1324724823735730  7.1324725267781837
  5.7101547665183672  5.7094363744191501  8.5611865224876791
  7.1374046719560065  7.1339626758099337  9.9847154736890609
  5.7057598735151869  8.5655817123964173 -0.0062927360570364
  7.1347178168844501  9.9931462797960222  1.4193886322908502
  5.7067566584756086  8.5644012080566032  2.8610045146397090
  7.1346494954640720  9.9840191716242845  4.2835290180498218
  5.7100980931090550  8.5611297396611956  5.7094363018586574
  7.1373218877117628  9.9847154265656748  7.1338798494400475
  5.7202134225690475  8.5510712580789257  8.5510712328926513
  7.1390926527229155  9.9921575300435119  9.9923550051073171
  8.5691517569732731  0.0089548159497940  0.0089563039663085
 10.0476283518826719  1.4287323304813619  1.4293695437444265
  8.5636952612886539  0.0077398150250791  2.8510097184014267
  9.9926531035368900  1.4334212057208697  4.2785743785460539
  8.5600522495645084 -0.0077340790950604  5.7113274930156033
  9.9836363879970964  1.4331432417544687  7.1370810576380537
  8.5642094599976808 -0.0060148645389551  8.5565080221006582
 10.0000508559871051  1.4200468872507428 10.0003804984100579
  8.5638953480915347  2.8509635753915417  0.0080190117377832
  9.9927101467787178  4.2786314317094361  1.4334212554283838
  8.5593203908949498  2.8518011163795909  2.8519986093866407
  9.9781997268246130  4.2930848231894494  4.2930848328041433
  8.5610083423932739  2.8594407226631402  5.7101933732426851
  9.9882581336993184  4.2829696445402101  7.1347197427613107
  8.5637591730127909  2.8600199023624344  8.5606455381926452
  9.9915296512622547  4.2796281742552846  9.9831516375001321
  8.5599571032667860  5.7112323182785909 -0.0077339239663957
  9.9835248266489991  7.1372246312343597  1.4329468257702553
  8.5610911413123727  5.7102762046731641  2.8594408051461069
  9.9883149139228848  7.1347197569789138  4.2830264237613536
  8.5596009729639135  5.7116834254180615  5.7116835167795115
  9.9919770735981697  7.1368192868633029  7.1367469782138571
  8.5638754297949653  5.7073368255567916  8.5648487424948474
  9.9877554076199626  7.1366351141024378  9.9840191996600556
  8.5643530211347816  8.5563964386315643 -0.0058182832564265
 10.0000746317717564 10.0004034225717344  1.4202215494980659
  8.5637635636443914  8.5606270025221107  2.8601369750579617
  9.9916563280288049  9.9831516182832196  4.2797549204203307
  8.5639477617968200  8.5648487051130147  5.7074091424462328
  9.9877739955446199  9.9841362253618726  7.1366307598621104
  8.5618481616415902  8.5611864583527257  8.5611297234606880
  9.9907406874945917  9.9946265945915158  9.9946336386681889
  2.8911092713999347 -0.0368524175650162 -0.0368523705211364
  1.3902760840916457  1.4639806193532401  1.4639807092263852
