Fe Ag
 1.0000000000000000
    11.4096810061959069    0.0000000000000000    0.0000000000000000
     0.0000000000000000   11.4096810004495843    0.0000000000000000
     0.0000000000000000    0.0000000000000000   11.4096809981947374
 Fe  Ag 
 127   1
Cartesian
 -0.0098725377268027  0.0000000213291610 -0.0000000194236001
  1.3886319878418869  1.4637882367416113  1.4637882318975048
 -0.0307629310892120 -0.0000000417013688  2.8831830249054731
  1.4157298145455315  1.4367123121782468  4.2791295708182817
 -0.0091687832189747  0.0000000164176128  5.7048404517239266
  1.4157079296012347  1.4366904204007565  7.1305516418255230
 -0.0307628289747803 -0.0000000333793220  8.5264978801081117
  1.3886319781714305  1.4637882068953054  9.9458926478508740
 -0.0307628538396688  2.8831830847993407 -0.0000001096436653
  1.4157078895334607  4.2791295464797887  1.4366903736359580
 -0.0292271579393103  2.8816474402044192  2.8816473221462302
  1.4188881338156876  4.2926580131865775  4.2926968025162182
 -0.0080444620295454  2.8604646943120096  5.7048404241460666
  1.4188880944635982  4.2926967007055472  7.1170230779374135
 -0.0292270679778343  2.8816472842304259  8.5280336248149933
  1.4157298047253293  4.2791294169587832  9.9729687571027963
 -0.0091686025811788  5.7048405939435520 -0.0000000378135265
  1.4157298392012425  7.1305515327181244  1.4367123311015033
 -0.0080445184953367  5.7048404981882213  2.8604647372636061
  1.4188879497982392  7.1169843406661633  4.2926578875240970
  0.0019759382568409  5.7048404823589962  5.7048405240181426
  1.4188881937559112  7.1170230703359945  7.1169842742899210
 -0.0080446165080447  5.7048405135156788  8.5492161233657029
  1.4157078785830939  7.1305515119524339  9.9729906481791044
 -0.0307627426386120  8.5264978882346352 -0.0000000196148617
  1.3886319522472141  9.9458928254061725  1.4637883128908276
 -0.0292270312025538  8.5280335605357109  2.8816473957667434
  1.4157079965152373  9.9729905755378674  4.2791295416636883
 -0.0080445158335178  8.5492161531288975  5.7048404739525944
  1.4157297909251747  9.9729686593435822  7.1305514216533501
 -0.0292272136965534  8.5280336886919059  8.5280335835077281
  1.3886320356235886  9.9458928243473839  9.9458927096798515
  4.3162086285294121  1.4637883076799618  1.4637881763437155
  2.8524202206268079 -0.0000000302462163  2.8622928153352949
  4.2891325318126476  1.4366904694629155  4.2791294687199839
  2.8524202737878479  0.0000000173494653  5.7048404037566947
  4.2891107146698255  1.4367122984802581  7.1305515586407449
  2.8524202752045307  0.0000000388121335  8.5473882610767475
  4.3162085472356058  1.4637882417641350  9.9458926871790858
  2.8524202227613866  2.8622928160916645 -0.0000000259390353
  4.2891106554248442  4.2791294894739265  1.4367123780134843
  2.8524202278639135  2.8831830739402129  2.8831830553216862
  4.2859524786540435  4.2926966929822337  4.2926578688147154
  2.8524202837763402  2.8615889850374980  5.7048405011177472
  4.2859523763334444  4.2926578944380491  7.1169842605487217
  2.8524201749002764  2.8831831210743100  8.5264979115590904
  4.2891325557195970  4.2791293487851458  9.9729905457197621
  2.8524202572866311  5.7048404261201835  0.0000000484211034
  4.2891325893359653  7.1305516020164150  1.4366905005065314
  2.8524202190744825  5.7048404934444985  2.8615889291895753
  4.2859523479509738  7.1170229942664189  4.2926968925925602
  2.8524202096509463  5.7048403893685133  5.7048405027714955
  4.2859523956365475  7.1169842238002490  7.1170231601229199
  2.8524203131819710  5.7048405038092938  8.5480919754779841
  4.2891106517754150  7.1305515655642342  9.9729687600457524
  2.8524202557406300  8.5473881851295701 -0.0000000110379829
  4.3162085805839761  9.9458927766139986  1.4637883018479318
  2.8524201643573766  8.5264979233590985  2.8831830270170333
  4.2891107562103903  9.9729687302749852  4.2791295621836465
  2.8524202132502197  8.5480920675623615  5.7048404340475152
  4.2891325847842330  9.9729905830656786  7.1305515517753673
  2.8524202683696465  8.5264978942313228  8.5264979477512490
  4.3162084950047142  9.9458927786824969  9.9458927723361938
  5.7147130054428024  0.0000000466827450  0.0000000147085286
  7.1315497439501279  1.4367123495015599  1.4366904690594995
  5.7356032821841429 -0.0000000489255459  2.8831830013611452
  7.1450782014629128  1.4335321921844657  4.2926967145529549
  5.7140092059019931  0.0000000038477956  5.7048404406024567
  7.1451170345585462  1.4335321612396776  7.1170230430578769
  5.7356032699275064  0.0000000192941899  8.5264979811597623
  7.1315497162189008  1.4366903419303407  9.9729687378663563
  5.7356033376474747  2.8831830914103667  0.0000000317396730
  7.1451170137577780  4.2926579071477260  1.4335320513141971
  5.7340675253513069  2.8816472752705287  2.8816474268312331
  7.1441554404787659  4.2917350625185957  4.2917350588602972
  5.7128850901281849  2.8604647930099398  5.7048405426505386
  7.1441553392208874  4.2917351713914202  7.1179458889978555
  5.7340675667363428  2.8816472931823749  8.5280337322300923
  7.1450781791137032  4.2926967044853566  9.9761488672318457
  5.7140093218899821  5.7048405124159984 -0.0000000246346127
  7.1450781145362665  7.1169843250440934  1.4335321733515600
  5.7128850382876148  5.7048405395899087  2.8604648366733065
  7.1441553886560083  7.1179458539459839  4.2917350754258585
  5.7028645145854622  5.7048405108348632  5.7048404569254911
  7.1441552730024647  7.1179458526559714  7.1179458289780424
  5.7128851186756622  5.7048405152299413  8.5492161420414892
  7.1451169625900661  7.1170231020044312  9.9761488650146877
  5.7356033354501319  8.5264979291295386  0.0000000089695142
  7.1315497396497154  9.9729906097088055  1.4367123301079396
  5.7340676382382112  8.5280336801637038  2.8816472578698464
  7.1451169954230869  9.9761488696538070  4.2926578719744946
  5.7128851198356330  8.5492162101599067  5.7048405586769855
  7.1450781295640091  9.9761487792225783  7.1169842294507513
  5.7340676092938825  8.5280336256430900  8.5280336395491805
  7.1315496812565558  9.9729687021338584  9.9729906041500982
  8.5572606960350246 -0.0000000158823679 -0.0000000977499590
  9.9829717801511908  1.4366904100343751  1.4367123054650983
  8.5572607438401960  0.0000000055582509  2.8615890785548252
  9.9694044918170217  1.4335321154738083  4.2926578938426854
  8.5572607199172008  0.0000001168189158  5.7048404855922046
  9.9694433086374641  1.4335321575443731  7.1169842675565640
  8.5572606645934481 -0.0000000095235105  8.5480920281431860
  9.9829718104202581  1.4367122956935054  9.9729906239653712
  8.5572607133448599  2.8615889531627192 -0.0000001125039333
  9.9694434198788926  4.2926966925348875  1.4335322136915793
  8.5572607676829300  2.8604647613337981  2.8604648452862098
  9.9703661625943685  4.2917351634059218  4.2917350600364115
  8.5572607527614490  2.8504442979790166  5.7048405002293467
  9.9703661015787812  4.2917351985188574  7.1179458195603384
  8.5572606912216784  2.8604648144652232  8.5492161974587120
  9.9694045553887030  4.2926578888729754  9.9761488841257684
  8.5572607878895255  5.7048405093986467 -0.0000001034197269
  9.9694045943214569  7.1170231596017945  1.4335321518603061
  8.5572607665477953  5.7048405258016857  2.8504442884725454
  9.9703661266283472  7.1179460118485602  4.2917351885735675
  8.5572607769600921  5.7048405548080874  5.7048405068411840
  9.9703662770528734  7.1179459098727369  7.1179458856203661
  8.5572607236214910  5.7048405277005987  8.5592367365259001
  9.9694432403603610  7.1169842764166198  9.9761488876090496
  8.5572607752702083  8.5480919761215350 -0.0000000123772651
  9.9829718046699849  9.9729687501554025  1.4366905228066948
  8.5572607349604226  8.5492161778628013  2.8604648339188170
  9.9694433580922226  9.9761489093096571  4.2926968101499856
  8.5572607808849668  8.5592367057414318  5.7048404730516014
  9.9694045502388100  9.9761489210603838  7.1170231153574530
  8.5572606240834581  8.5492161305533347  8.5492162063103372
  9.9829718210676148  9.9729906131217803  9.9729686861364772
  2.8524203479248875 -0.0000000491856246 -0.0000000484792920
