Fe Au
 1.0000000000000000
    11.4096289377827667    0.0000000000000000    0.0000000000000000
     0.0000000000000000   11.4072315358532084    0.0000000000000000
     0.0000000000000000    0.0000000000000000   11.4096289369469339
 Fe  Au 
 126   1
Cartesian
 -0.0110615058442994  0.0000111542263193 -0.0198597851300323
  1.3370723963888471  1.4010985820174970  1.5151794949243018
  1.3790994484584238  1.3843609615876555  4.2482563098087720
 -0.0107450037910988 -0.0000145363349440  5.7453411977266944
  1.4176722984434744  1.4355434206073709  7.1281168473473002
 -0.0180977602478064 -0.0000032867260488  8.5421933368909944
  1.3827666487871808  1.4730581509343352  9.9360731596392640
 -0.0182451548698824  2.8592723131316191  0.0134450053207053
  1.4209930464194136  4.2822474122467149  1.4313351913454524
 -0.0271531030915687  2.9135025970528483  2.8795000381838971
  1.4199628214902658  4.2890613951809922  4.2940269625710048
 -0.0140180427767828  2.8520427356393245  5.6926194517670217
  1.4163190573821127  4.2884718156126853  7.1194395998525950
 -0.0336351962276500  2.8766649521117498  8.5275545009008145
  1.4132616791477031  4.2827353302925575  9.9743972188300241
 -0.0133480034183951  5.7036292003467430  0.0090838694629187
  1.4210721466840224  7.1249841210157792  1.4314143878031229
 -0.0112569497385745  5.7036157224963340  2.8636642139697654
  1.4200206820126269  7.1179298510965925  4.2938984311934298
  0.0029970602724754  5.7035773777378882  5.6975365886954323
  1.4162501310282982  7.1187696450587774  7.1192754537905127
 -0.0155350794867052  5.7036594534650922  8.5440002817030543
  1.4131393060749078  7.1245589766799817  9.9745903166424430
 -0.0183372432877207  8.5481136734887482  0.0134273745149988
  1.3372276775929754 10.0061327936697442  1.5153347965698056
 -0.0270928564643962  8.4937289321451068  2.8795602692076230
  1.3789918953846234 10.0230395108759520  4.2481632422612687
 -0.0140015645822100  8.5552409087501164  5.6926232869237188
  1.4178376834384929  9.9712503113400253  7.1281302103024826
 -0.0336952347552701  8.5305803104095883  8.5275946480120215
  1.3828226207961858  9.9342883198440521  9.9360968566010825
  4.3259391354097430  1.4729430783188056  1.4695844384179628
  2.8722670271871449 -0.0000111317762833  2.8634687441483369
  4.2887589445492926  1.4378013350097236  4.2845234823648486
  2.8457286853491630  0.0000067332640323  5.7048217380465367
  4.2875819011226071  1.4357304512871583  7.1283043989710304
  2.8509173833324133  0.0000077327724074  8.5789380844755669
  4.3204021555500853  1.4690978805387542  9.9418302868716619
  2.8408339182052242  2.8362126369600671  0.0116601630640605
  4.2874458689685886  4.2826725351329857  1.4392680357232275
  2.8389797900220546  2.8591177456187635  2.8707444603940302
  4.2849804917868948  4.2887233670387062  4.2910147673059216
  2.8385182828812625  2.8503764480385816  5.6945992470257663
  4.2799569669912891  4.2851257861894094  7.1135440490035222
  2.8483424022969075  2.8669459101082864  8.5419049745930735
  4.2861114787497891  4.2795195742052572  9.9760740508521462
  2.8526185162194926  5.7036157971214179 -0.0002113369755176
  4.2876388651702513  7.1244962869316666  1.4391454907953201
  2.8433231155238867  5.7036023313897628  2.8657551901557432
  4.2850612525529250  7.1185856158067784  4.2910253004163108
  2.8481038130733358  5.7036600070661514  5.7015724975154063
  4.2800117912158866  7.1220386822133834  7.1135286168423857
  2.8476266750435077  5.7036202596644552  8.5474341838994050
  4.2859620598449517  7.1277119430315707  9.9759245906025278
  2.8407471905916246  8.5710189594950812  0.0115732844321209
  4.3259629060491775  9.9341734977683558  1.4696405844458145
  2.8389623373658370  8.5479592726814726  2.8706522950859470
  4.2886346326034133  9.9694266398027072  4.2845636370029352
  2.8384626073634656  8.5568613123666477  5.6944914057712586
  4.2877458971591977  9.9716556374621668  7.1283022134510095
  2.8483247302697201  8.5402189418721282  8.5417852180916611
  4.3202059206614347  9.9381335831418571  9.9416339316436595
  5.6830981460028687 -0.0000078250718577  0.0014899183147342
  7.1339060136692396  1.4359812350450820  1.4345694656999650
  5.7198429209782207  0.0000033840377420  2.8705049505944915
  7.1397378849835134  1.4349886308519326  4.2926483268884548
  5.7136475475197566  0.0000173033300163  5.6982883098011863
  7.1451453354360250  1.4306376954025366  7.1170533591916891
  5.7218808121388935 -0.0000000272383204  8.5401553734750966
  7.1337340193880765  1.4355758298635384  9.9742900989234702
  5.7202509246533015  2.8670125679864755  0.0040823762973890
  7.1427606932472791  4.2884618843009417  1.4361570693063894
  5.7344413060004982  2.8766512264571853  2.8861022086369768
  7.1473003418547822  4.2919412638364296  4.2937750994658845
  5.7160427864092052  2.8598705509705575  5.7019271937296958
  7.1566265129624069  4.2839427286033755  7.1054462281492485
  5.7386896450651381  2.8824987226823984  8.5233496822344286
  7.1485076614075647  4.2851928671708794  9.9820242580470033
  5.7146021020144140  5.7036112731896900  0.0047805457507912
  7.1425968007145038  7.1187596522226277  1.4360882901564940
  5.7180357793723058  5.7035719209834568  2.8679421499033189
  7.1472887822051767  7.1152099808827423  4.2937812193241047
  5.7039026490915683  5.7035836263916506  5.7016315739184220
  7.1565900049376490  7.1232889359126608  7.1054098111495501
  5.7221380328213538  5.7036156772511717  8.5398981155882865
  7.1484920691524367  7.1221057446081524  9.9820791316978230
  5.7201311854420034  8.5402856026734373  0.0040648128537744
  7.1339192113852041  9.9716881741549290  1.4347347367009466
  5.7344817709493334  8.5305667322856333  2.8860422801674224
  7.1397410478819339  9.9721909506833928  4.2924909149972805
  5.7160140019930736  8.5473217097430805  5.7018860850858095
  7.1449829185121247  9.9765939677142779  7.1168908261342194
  5.7386863995017503  8.5247329845963886  8.5233465458213580
  7.1337317988265019  9.9715012060371020  9.9744544502470127
  8.5572145947253198 -0.0000066774211121  0.0066784876175422
 10.0138727950352457  1.3841920915071506  1.4734152419201882
  8.5166949527735625  0.0000146309470685  2.8631523164613522
 10.0312228249603876  1.3790647704253693  4.2308453115050169
  8.5718656574054304  0.0000001100785720  5.6901702876167066
  9.9695455554181489  1.4350405731086175  7.1222951056798944
  8.5637478824572764 -0.0000173126624601  8.5483887692438074
  9.9774725039437655  1.4378048157258407  9.9734014454086015
  8.5675447455884957  2.8503704195232640  0.0139446992822647
  9.9681375999600537  4.2893016513283140  1.4323867111777984
  8.5694130661527161  2.8519906631676966  2.8664087439231998
  9.9692095740910496  4.2946662407439593  4.2927652726179861
  8.5775376143131421  2.8293419719343338  5.6845387321994405
  9.9682551095070355  4.2920211657029661  7.1147475215997389
  8.5601500299114210  2.8599097460586127  8.5460223257713395
  9.9710108257769576  4.2886457704138241  9.9769747118136429
  8.5604636982594968  5.7035715375122882  0.0043033865842906
  9.9680091446271000  7.1181701490518385  1.4324444160579781
  8.5644996669401490  5.7036541890710293  2.8494104491602257
  9.9692709005352853  7.1125654855527989  4.2928265658975784
  8.5635447293462690  5.7036157318692986  5.6984913072017296
  9.9682610770087159  7.1152904921070839  7.1147358528068434
  8.5604046342549207  5.7036478259107364  8.5581335013681592
  9.9710214206211774  7.1185080166681400  9.9770556889973321
  8.5674369896830260  8.5568553526107074  0.0138891544642792
 10.0137798475961173 10.0228707024138135  1.4733077115369750
  8.5694167042213589  8.5551886729609556  2.8664252498366722
 10.0311908918484729 10.0281666050911209  4.2308134019724610
  8.5774973553885996  8.5778895896055651  5.6844986889387341
  9.9693879516335340  9.9722428439392168  7.1222984829142746
  8.5601088235215599  8.5473609835802282  8.5459934334720469
  9.9775126607438605  9.9694302346794164  9.9732772113826176
  2.8561304563643439  0.0000000647073904 -0.0037230793693434
