Fe Re
 1.0000000000000000
    11.3925567375116419    0.0000000000000000    0.0000000000000000
     0.0000000000000000   11.3815882845012180    0.0000000000000000
     0.0000000000000000    0.0000000000000000   11.3925567325856409
 Fe  Re 
 126   1
Cartesian
  0.0188619856392822 -0.0000733232456325 -0.0410309969529128
  1.3659914030205733  1.3609254877019092  1.4813366198461579
  1.3785378192222735  1.3568281257098855  4.2116587066312476
 -0.0060307012389132 -0.0000589148540307  5.7423823033545602
  1.4307613988654000  1.4161203877355077  7.1304371254426284
 -0.0015281668529550  0.0000609919800775  8.5479791672089593
  1.4007235297047360  1.4379497432977648  9.9425420461233980
  0.0051731209322024  2.8231713143604846  0.0129071619718253
  1.4387710231669946  4.2621251765997021  1.4092824360176441
 -0.0039391554815055  2.8876761857948101  2.8520100263644514
  1.4214438364941360  4.2706122026084081  4.2755026253806863
  0.0015056831275754  2.8297897012668054  5.6855748374853308
  1.4169083060590906  4.2688948481646642  7.1206422900673161
 -0.0006138126900245  2.8404563518689767  8.5435593272643207
  1.4293772007122811  4.2586875126029140  9.9784001322806510
  0.0005449458978891  5.6908250274506882  0.0100777205163265
  1.4388567862706640  7.1194630517826978  1.4093681564182470
  0.0026629788659571  5.6907940751520405  2.8454762193666214
  1.4215237169958987  7.1107982495457236  4.2752320432416067
  0.0030832475880334  5.6908553892818166  5.6880918642851199
  1.4168822072918092  7.1128218760588826  7.1204828854594400
  0.0010866132523365  5.6908558401995304  8.5491782841309210
  1.4293226230019491  7.1229595657540141  9.9785002979598421
  0.0051831839473385  8.5585228693683231  0.0128058224750155
  1.3668025463838687 10.0206628186411120  1.4821478583094931
 -0.0038708266662263  8.4939120548971818  2.8520783669763743
  1.3784342770581988 10.0250615263835829  4.2116539718338730
  0.0014458623703003  8.5519336897129143  5.6854247406882115
  1.4308434641147345  9.9652030293346527  7.1305261347802817
 -0.0006938022201834  8.5411806863266992  8.5435945961677877
  1.4007230307947069  9.9437210466465800  9.9425260161312181
  4.2981698300077618  1.4378671498158957  1.4474161067200424
  2.8891701061868162  0.0000733122759564  2.8292772909849178
  4.2719424026988202  1.4216903057979235  4.2727318344863301
  2.8321006495895693 -0.0000877481227821  5.6877913630751973
  4.2676845737172311  1.4171938259781942  7.1223096500030874
  2.8504048768586610 -0.0000595827703476  8.5855787730401438
  4.3042957162842264  1.4498747978786948  9.9363509642810008
  2.8328477717050942  2.7722595778563317  0.0151948430559801
  4.2621956176386853  4.2586287077250731  1.4188165567544402
  2.8353334009865181  2.8230653576724269  2.8429559238513309
  4.2745841377855562  4.2664186055715838  4.2708530387779060
  2.8251359015410502  2.8282316135190064  5.6816126695979907
  4.2671766875014372  4.2610739465418446  7.1142981544404806
  2.8425889604635732  2.8324082986319707  8.5535068577268234
  4.2574584386746670  4.2544833119921650  9.9832634188706120
  2.8457177614031415  5.6907941619148898  0.0024214396402989
  4.2622957087588507  7.1229007911247653  1.4187618860783784
  2.8380614646609388  5.6907632528736913  2.8475941716080726
  4.2746640482770184  7.1151691266828800  4.2709813650883115
  2.8445626554650789  5.6908373376472161  5.6923096982242818
  4.2672657322178136  7.1204133967208509  7.1143113273639766
  2.8433127439783448  5.6908123361642380  8.5478000500693678
  4.2574325066062642  7.1271049459470337  9.9832374790785785
  2.8329442460438199  8.6093288836953192  0.0152913577169085
  4.2981537849100144  9.9436385707172459  1.4474154648604867
  2.8352321253965491  8.5584170072118066  2.8429660403301922
  4.2718086394454406  9.9597303280439391  4.2728069035924952
  2.8250670509679150  8.5533929972569211  5.6816701458388321
  4.2677891835144841  9.9645181798452747  7.1223864916163437
  2.8426505863825176  8.5490591272168945  8.5535493268018818
  4.3043450234260243  9.9317135583833291  9.9364002034783443
  5.6551172346250640  0.0000595399141390 -0.0022657001480476
  7.1101697317083161  1.4163852720578076  1.4172956870736653
  5.6927167439271322 -0.0000608763497926  2.8496672622109163
  7.1170335417425461  1.4334629263199372  4.2786616454998141
  5.6977108053376408 -0.0000048552730293  5.6883902313681771
  7.1224688866634152  1.4295629230439373  7.1183699854044189
  5.6912271690000189  0.0000000066959611  8.5494687752037439
  7.1183095145809574  1.4170701010999820  9.9729067029524749
  5.6871465971085877  2.8325291909016013  0.0054885104547005
  7.1202130019985663  4.2687663582532966  1.4312569421926216
  5.6971011908282483  2.8404074604161678  2.8488328570975066
  7.1199582233151757  4.2696011373716667  4.2711638269008967
  5.6930904311579553  2.8445139550262932  5.6935435357400017
  7.1299575753743643  4.2649072964974319  7.1107639508083924
  5.7012211310305281  2.8505846777447634  8.5394469224184206
  7.1263845823903260  4.2611749371199350  9.9734302141667666
  5.6928959073771797  5.6907759493052676  0.0048264513979653
  7.1200536108994008  7.1126934078585080  1.4312308799645481
  5.6915175448097601  5.6907325128083910  2.8470525170182941
  7.1198860332594416  7.1118500985162170  4.2711840943983637
  5.6898018810241275  5.6907211528695560  5.6932127919290476
  7.1299319839979995  7.1166810242697744  7.1107383023331820
  5.6943723803522621  5.6907941514547824  8.5463235632492154
  7.1263978079799921  7.1205143240888438  9.9735192365901675
  5.6871890573649475  8.5491800250490790  0.0055502776167835
  7.1102588725314337  9.9654678560453327  1.4173777784427635
  5.6971365314500009  8.5411319631728073  2.8487529556315159
  7.1170686624206088  9.9480630636783438  4.2784295156368266
  5.6930992684707604  8.5370302815762091  5.6934862545893212
  7.1223259656885487  9.9520253661226015  7.1182269876009778
  5.7012490744334201  8.5310035902535901  8.5394747329966432
  7.1183863717350677  9.9643944005276985  9.9730112904607093
  8.5529046238796980  0.0000876833682757  0.0160385780406341
 10.0290419919158023  1.3565267517609474  1.4697049261616730
  8.4983136214427919  0.0000589072173539  2.8541698243400058
 10.0150774489178431  1.3784977887933600  4.2258160067087189
  8.5576868415954390 -0.0000000696264856  5.6830090695601916
  9.9622663452715816  1.4335251905387905  7.1236272136317726
  8.5523057399179532  0.0000049494628846  8.5429850664975273
  9.9678890528920032  1.4218579652363275  9.9688872943111360
  8.5590257839482824  2.8281953361302890  0.0230721417123536
  9.9654639196200883  4.2707900005737027  1.4266155339449289
  8.5552710994362933  2.8296545487653533  2.8466932703855745
  9.9671964366080772  4.2712333295871474  4.2734673390516837
  8.5637380387107029  2.8297065867791686  5.6770030853975459
  9.9695117859042046  4.2697382286213879  7.1208098734626546
  8.5472096506375248  2.8445580325900965  8.5475966233528009
  9.9697146282665194  4.2664191371074702  9.9660319001843511
  8.5483862131852337  5.6907509319374121  0.0035765639618412
  9.9651933201809975  7.1109759968268191  1.4266953849183199
  8.5526039962086067  5.6907328559444634  2.8450558965704671
  9.9672285809536874  7.1103549043181307  4.2734994528340167
  8.5493424257008304  5.6907941284082471  5.6913534294418939
  9.9695320599541120  7.1119871735308937  7.1207375711055123
  8.5474830978382670  5.6908671593979916  8.5508941032450831
  9.9698429073309196  7.1151696922741507  9.9661118940816085
  8.5590832304943820  8.5533566359446542  0.0230033183784171
 10.0290372750028034 10.0247601514907831  1.4696013808361372
  8.5551210558607700  8.5517985653178155  2.8466335157252902
 10.0148799487660760 10.0030905588101131  4.2256184217174351
  8.5636927532747027  8.5518817123680773  5.6769578518261161
  9.9620342617619873  9.9481254707097264  7.1236623528262246
  8.5471524580305651  8.5370744300758989  8.5476054530173933
  9.9679641431305033  9.9598979779172385  9.9687534975816714
  2.8794175123969707 -0.0000002283030307 -0.0312785568186060
