Fe Tc
 1.0000000000000000
    11.3869235577493697    0.0000000000000000    0.0000000000000000
     0.0000000000000000   11.3869235606382837    0.0000000000000000
     0.0000000000000000    0.0000000000000000   11.3869235628689740
 Fe  Tc 
 126   1
Cartesian
  0.0978207317139273  0.0340900125397327  0.0343493191978116
  0.0684977978752467  0.0401811671732086  2.7780311317756317
  1.4355791234205362  1.4112379849398899  4.3048567175802246
  0.0028905122907351  0.0003432785010515  5.6874328875632862
  1.4262776704896765  1.4203515726591605  7.1236130234500123
  0.0104795812369704 -0.0074425231210958  8.5527115903236854
  1.3891802536865441  1.4577370641448004  9.8855222917426548
  0.0686997733299027  2.7782330309899499  0.0401811395205964
  1.4354927511079871  4.3048568344005478  1.4111517242075411
  0.0567019078116468  2.7900288091203929  2.7900288746052704
  1.4207624303767823  4.2574877571594198  4.2574493484242506
 -0.0000968381366118  2.8469184180575038  5.6909881142650578
  1.4217914362258324  4.2636281719218054  7.1157889775470462
 -0.0108226116494710  2.8577508925347601  8.5288430033163252
  1.4305824645222864  4.2591994772443993  9.9781493018750300
  0.0030166254998175  5.6874069653573809  0.0004240394075482
  1.4263792971202087  7.1236130142056382  1.4204531924661610
 -0.0001875454897632  5.6909881137725247  2.8468276372464492
  1.4218045127504746  7.1159323573114674  4.2634290139347817
  0.0059577516644514  5.6928912521730863  5.6927763248681602
  1.4213176115801103  7.1173045296964812  7.1173261589890284
 -0.0007769239433856  5.6903517977039346  8.5389844290386510
  1.4293911289294423  7.1222039814463241  9.9750022783086685
  0.0102415874565784  8.5523920614263549 -0.0074171940402597
  1.3889936658146145  9.8855223971390149  1.4575506237895695
 -0.0110200178849727  8.5288430557492347  2.8575535786107196
  1.4304119964846278  9.9781507265041238  4.2591456661949261
 -0.0007428309441431  8.5390032625611649  5.6903643459415338
  1.4294186569359271  9.9748379986608384  7.1222111352004775
  0.0025489213202231  8.5424875757645289  8.5425828330041984
  1.4091926631387819  9.9512407273663719  9.9515564269593710
  4.3481319499577875  1.4575506543018129  1.4577371503593253
  2.8126408269586438  0.0343492702000182  2.7489101629531074
  4.2555051966479338  1.4161484233458457  4.2591993944866111
  2.8446926680288818  0.0018148501050507  5.6902769484696982
  4.2586522656206851  1.4173398003517854  7.1222039956686158
  2.8426613360346860  0.0040901819183887  8.5862150685868066
  4.2820980550596497  1.4375381697354110  9.9512407141055785
  2.8123816528586993  2.7489101050633726  0.0340900882819553
  4.2555036619960935  4.2591457207922234  1.4163189011684798
  2.8065498480760724  2.7780310409244886  2.7782330004696334
  4.2548186019524126  4.2536780259101246  4.2536533406031429
  2.8463068560552638  2.8437144067176106  5.6874069856843361
  4.2732826619607636  4.2674711988558540  7.1158199549190950
  2.8541479939907068  2.8364893044994619  8.5523920636428059
  4.2480210119262809  4.2558583567639765  9.9856349115513687
  2.8449158773281229  5.6902769182957460  0.0020382349911670
  4.2588165137917997  7.1222110783231862  1.4173122650029970
  2.8463876757624837  5.6874329405107860  2.8438404648914428
  4.2732298722299396  7.1159315612452119  4.2674269414105463
  2.8470197991090687  5.6921269425417442  5.6921209327391447
  4.2710668072175544  7.1177437407625170  7.1176002177355340
  2.8475015528089691  5.6904752264458178  8.5424794974950462
  4.2552360490166050  7.1247437043713351  9.9782695032065547
  2.8426408151126363  8.5862150773072745  0.0040694076474303
  4.2824136592840212  9.9515564552343356  1.4375382478271583
  2.8541734665919933  8.5527114607761892  2.8362513654524570
  4.2480195287795954  9.9856334539981741  4.2558584440859404
  2.8475662398682182  8.5424902150292503  5.6903922571982806
  4.2553849607398622  9.9784183914728839  7.1247437503768865
  2.8505617162483770  8.5604705522191082  8.5605436409793487
  4.2280403935641573 10.0056140944252849 10.0056140060859580
  5.6474393739553452  0.0040692627760192  0.0040900744231488
  7.1100413963162259  1.4204532072787517  1.4203515825834458
  5.6812623530455468 -0.0074171607417731  2.8364893742966446
  7.1178655098482944  1.4249393611750856  4.2636281180174844
  5.6911749556935325 -0.0007706681033328  5.6904752341981917
  7.1163282759268363  1.4254131989906418  7.1173046368690986
  5.6731108281951013 -0.0038308069248595  8.5604706580364507
  7.1114432649713839  1.4173122942116532  9.9748379490509276
  5.6809429578825332  2.8362513109729051 -0.0074425173121853
  7.1177221547158087  4.2634289573011461  1.4249263708261874
  5.7048114226152453  2.8575535419808333  2.8577509408512665
  7.1216279577084380  4.2707567531596720  4.2707770149093820
  5.6946699970045209  2.8475078423824960  5.6903517107990300
  7.1168101822951488  4.2663121951246348  7.1167700303919332
  5.6910716497743232  2.8441819842859295  8.5424874584402524
  7.1177229040041885  4.2674270298836623  9.9604245726486802
  5.6911642716439319  5.6903922406594569 -0.0008352743054242
  7.1163498494217503  7.1173262282658030  1.4254132056188002
  5.6946511273732039  5.6903644254029073  2.8474736848866100
  7.1168844199125791  7.1168443221973634  4.2663122491960976
  5.6827481782195779  5.6878806385908671  5.6878023773213222
  7.1090733718851098  7.1245809526627744  7.1245810634058540
  5.6847632087585698  5.6899617682300869  8.5488154698755032
  7.1159106574210336  7.1176003016779728  9.9625877107174485
  5.6731839064520964  8.5605436347294450 -0.0038308364364560
  7.1114504705421053  9.9750022506810652  1.4173397885189714
  5.6911669354401191  8.5425828131277939  2.8441820344077335
  7.1178345004976586  9.9603718950397493  4.2674711355481909
  5.6848388643548180  8.5488912667396022  5.6899617264664526
  7.1160541943945246  9.9625876688523221  7.1177436890246373
  5.6713347387428081  8.5623197456864322  8.5623196567304873
  7.1089107712875315  9.9782694650966768  9.9784184060333612
  8.5433775110642181  0.0020382373371959  0.0018148815209720
  9.9287978088556610  1.4111517790198687  1.4112379868132054
  8.5462473888089985  0.0004239900225475  2.8437143560995790
  9.9762051520102073  1.4259684869938292  4.2574878288045532
  8.5415334472218376 -0.0002888514581902  5.6921269637632577
  9.9702254310197329  1.4249264392327310  7.1159323209210346
  8.5432622345729072 -0.0008353116435461  8.5424901657043737
  9.9745087142598070  1.4163188449381328  9.9781507816620518
  8.5462214999839521  2.8438404223168123  0.0003434352378042
  9.9761666623704599  4.2574492146287550  1.4259684348262780
  8.5426664320598000  2.8468276591974080  2.8469183858600946
  9.9798707308889512  4.2537837172933264  4.2537838057377977
  8.5408781803254215  2.8407731097056512  5.6928912660468649
  9.9628976720977942  4.2707769789919059  7.1120265331076942
  8.5432900311207014  2.8474736986672564  8.5390032690157174
  9.9799763321246768  4.2536533514038091  9.9788358384610945
  8.5415274278210180  5.6921209021197470 -0.0002889059076942
  9.9700263078161591  7.1157889854290159  1.4249394900373373
  8.5407631281518803  5.6927762295553670  2.8407729960577552
  9.9628775162930463  7.1120266448977389  4.2707568240847626
  8.5430186788061846  5.6906358579166270  5.6906358510998869
  9.9673421191563421  7.1167700354797363  7.1168442031833470
  8.5457738819963716  5.6878022814560296  8.5509061699015501
  9.9661833270838578  7.1158199174447674  9.9603718227465823
  8.5431792166241554  8.5424794106024002 -0.0007706503033522
  9.9744550441274829  9.9781493021134722  1.4161484339329173
  8.5433026988845633  8.5389845131460298  2.8475077656876131
  9.9800011024637332  9.9788357607931903  4.2536781040795848
  8.5458521550017164  8.5509061727472542  5.6878806000315381
  9.9662273598170312  9.9604245400281393  7.1159315798337701
  8.5436926868424390  8.5488156051585449  8.5488912190601472
  9.9777961717107448  9.9856349045856341  9.9856333326897850
  2.7876906915188933  0.0590403010955821  0.0590401724218498
