Fe Cu
 1.0000000000000000
    11.3713121179240524    0.0000000000000000    0.0000000000000000
     0.0000000000000000   11.3722782035471859    0.0000000000000000
     0.0000000000000000    0.0000000000000000   11.3713326555115870
 Fe  Cu 
 126   1
Cartesian
  0.0143070137644993 -0.0038722733917809 -0.0017251616322927
  1.4268018523999355  1.3730570637266704  1.4158003115549527
 -0.0136043238496032 -0.0049644593884747  2.8564865882638637
  1.4202492790685182  1.4327057058462209  4.2387271831069420
 -0.0003396371479356  0.0010344196826491  5.6839589534480544
  1.4209744253703309  1.4295751651339319  7.1199012522380860
 -0.0142903158002223 -0.0008843025423945  8.5176057971550403
  1.4302526338524586  1.4218620976848921  9.9744270523299665
  0.0486337311515581  2.9041822728718483  0.0538442275489204
  0.0561545985296865  2.9058786707700368  2.7866403135235980
  1.4234109496024638  4.2721521145465378  4.3074259562850452
  0.0063340258892150  2.8373490253047531  5.6867344955024972
  1.4212155552552648  4.2732884986879647  7.1004507226939380
 -0.0078413923173909  2.8514798371953138  8.5200715159008524
  1.4225756155357443  4.2539295255813636  9.9135612291268895
  0.0534289040857121  5.6366825036548853  0.0500287428319940
  1.4190252148902889  7.1588637900393781  1.4237170859414150
  0.0587295360011586  5.6330485770804763  2.7841059313756285
  1.4194494379014246  7.0884404523505626  4.2592991824327466
 -0.0028218516906580  5.6869803914264256  5.6876286034232164
  1.4195539453497226  7.0915903187319644  7.1002199554706467
  0.0029667112757183  5.6860717500821636  8.5320692047209672
  1.4172078992559334  7.1120041203505302  9.9586709121619723
 -0.0106347881039272  8.5277557913572455 -0.0000657694264732
  1.4310541446815868  9.9692439533830530  1.4118809792558293
 -0.0118667505998744  8.5261725764345382  2.8546549888442270
  1.4204454814721972  9.9492678811004787  4.2450955123907752
  0.0050382058810567  8.5327680801415315  5.6854660378371733
  1.4195149579998796  9.9488669109361112  7.1174314919539752
 -0.0099827907012825  8.5190087179022917  8.5174379759393819
  1.4286210760297480  9.9583106225843192  9.9584808854437448
  4.2395823887331545  1.4219640715299922  1.4125628091596358
  2.8445683964024187 -0.0037567951562548  2.8284936887439520
  4.2484128342433332  1.4408240941460781  4.2358688288894228
  2.8410571297148346  0.0010043026157796  5.6826584288582014
  4.2599495824233262  1.4264242886578988  7.1200859949658240
  2.8416202143747173 -0.0001559753945616  8.5436277351442040
  4.2350317164531468  1.4281478035722350  9.9789442666633512
  2.7822696061885752  2.8975969937669048  0.0607474387702091
  4.3007382972979142  4.2538651288178242  1.4201462836003462
  2.7889874949411921  2.9040932531550747  2.7941991879045727
  4.2513297800897139  4.2698728256794221  4.2581425720159007
  2.8436667971362208  2.8403643201589261  5.6874353333679055
  4.2544260376959722  4.2705694559488352  7.1036124577802582
  2.8418539897451196  2.8489349726086908  8.5221549336597437
  4.2490075537355079  4.2501970748223590  9.9648945397667497
  2.7861191412287942  5.6361936550660854  0.0567953264151163
  4.2553158739973913  7.1120115768983192  1.4258986534170908
  2.7926849449391384  5.6367167479753251  2.7895554093607839
  4.2487275558185251  7.0833327273008191  4.2536758734705664
  2.8454329627220942  5.6887775423137779  5.6890088290040666
  4.2606086053326262  7.0954476473738213  7.1009203565504171
  2.8438672879842684  5.6883993844081742  8.5284452586062613
  4.2494044654842131  7.1030193068814187  9.9650576693315411
  2.8429324740852246  8.5439084249993424 -0.0000092844637676
  4.2555768473422173  9.9584500083154115  1.4143032720202378
  2.8428383821613039  8.5277816301240765  2.8536543702850965
  4.2628922915242660  9.9486987452147400  4.2502575146263011
  2.8410109880290060  8.5275860678633322  5.6854227829738697
  4.2633666701756070  9.9494394433703324  7.1180316338147511
  2.8415583322646176  8.5174915673245231  8.5179499134731032
  4.2558726995489415  9.9585442912137818  9.9582568356664449
  5.6703384506840031 -0.0001458390033342  0.0012386821607476
  7.0943665568116421  1.4294055131191872  1.4219998973608765
  5.6965553380362195 -0.0008275809454327  2.8571413628851121
  7.1139960530729196  1.4310912327630227  4.2668565581137763
  5.6801753484855748  0.0086699351832042  5.6787187272932433
  7.1140352773528193  1.4279944115441672  7.1000933788968332
  5.6927094550682238  0.0072136427045959  8.5215229406451645
  7.0939867410897008  1.4266205981741540  9.9543677516034474
  5.6919513325324278  2.8487790631362997  0.0011166354777881
  7.1136699865402795  4.2732963297086712  1.4216585587000721
  5.6940584975644031  2.8514499796726644  2.8507718649458718
  7.1039930202618944  4.2613498698402248  4.2532911952533006
  5.6789069184312719  2.8400813538113883  5.6874469451609224
  7.1057161617522633  4.2629627261396870  7.1084773607738194
  5.6922697292533693  2.8551707060014690  8.5219271630231717
  7.1104508572709140  4.2704728218161829  9.9597763192353490
  5.6856675626137099  5.6882038484200148 -0.0010254452522422
  7.1139566377020458  7.0916520745565661  1.4232482009404390
  5.6821150392665594  5.6860866575196010  2.8398347945791591
  7.1058155262971194  7.1021227183552149  4.2583132665845822
  5.6858855684343474  5.6831749894717358  5.6841463590995165
  7.1068770613820238  7.1031848948769021  7.1073057297233886
  5.6801872807459413  5.6831779630767771  8.5339419663263119
  7.1130993539139693  7.0953884417242010  9.9536035438407389
  5.6961367161696428  8.5174745782144718  0.0013597997142487
  7.0967078456445867  9.9487172369511150  1.4230493177963699
  5.6967250755093746  8.5191789228537296  2.8528152027325548
  7.1155746479838262  9.9493378997886897  4.2712113500458271
  5.6744080369474936  8.5247372796151897  5.6783599366216047
  7.1171008697713303  9.9487440242915302  7.0971418957418697
  5.6896441858776390  8.5110098013635103  8.5245118097781134
  7.0960977534637113  9.9496688664949779  9.9506341861926710
  8.5314376550472755  0.0010721399557748  0.0017296927569580
  9.9753902168224826  1.4328680433001253  1.4223114702282231
  8.5302286392253102  0.0010268240470994  2.8431375929749145
  9.9615642499551775  1.4453392375010230  4.2526699689951588
  8.5373313109243139  0.0122581171198347  5.6768420423488370
  9.9472082206181653  1.4310928433976546  7.1003081523134117
  8.5354361377342087  0.0086462154883566  8.5340195739461180
  9.9784423378162472  1.4405583829497226  9.9656739714954448
  8.5268079974868787  2.8404417750090034 -0.0011029149650015
  9.9066854313120363  4.2720916744811390  1.4192695299452791
  8.5274256163128364  2.8372480252858798  2.8362877893058012
  9.9653579565447181  4.2620639399634932  4.2487674436567717
  8.5292830202891690  2.8480754484768092  5.6848525958227434
  9.9607958696731327  4.2614240568185160  7.1101916716056612
  8.5267823767793196  2.8400908658675865  8.5352558609438329
  9.9560640479631690  4.2699925169923825  9.9628353880471003
  8.5251093235963697  5.6888464927140800 -0.0025940252558319
  9.9549139125349697  7.0883167028715093  1.4233922786714397
  8.5264990428133167  5.6868739293834896  2.8456807774321091
  9.9696340558973962  7.0890861278094546  4.2444778042812299
  8.5307823364375732  5.6815138731970434  5.6833916520108403
  9.9557984301184899  7.1021198438889526  7.1083546113312526
  8.5299612350897611  5.6831762778577035  8.5283902347873006
  9.9604045267160579  7.0834034104526360  9.9654682112973099
  8.5287762223271617  8.5276396414002846  0.0018273296536511
  9.9690331803560728  9.9493892708912881  1.4225630197787265
  8.5286437136679734  8.5327384528369521  2.8377350885003323
  9.9455793315007792  9.9491834918196087  4.2685004006743537
  8.5368509878065293  8.5164456909679451  5.6772911582300871
  9.9429749989171832  9.9492737797669033  7.0985521501765225
  8.5357867781064112  8.5247241124793209  8.5397953960164745
  9.9639712614151943  9.9483906594139579  9.9515328919005501
  2.8426510157010112 -0.0154767263696589  0.0001153210383086
