Fe Pt
 1.0000000000000000
    11.4399712830496441    0.0000000000000000    0.0000000000000000
     0.0000000000000000   11.4399712867874879    0.0000000000000000
     0.0000000000000000    0.0000000000000000   11.4399712844234678
 Fe  Pt 
 126   2
Cartesian
  0.0075080627294078 -0.0190266114924102 -0.0186723289702274
  1.4299966906544455  1.4299961187573307  1.4299961352258630
 -0.0190266395150192  0.0075078551527571  2.8786650503807896
  1.4505424718907436  1.4094793894095525  4.2962681926205093
 -0.0016617940319437 -0.0107466476704221  5.7314590769666749
  1.4297405881685681  1.4297405727220052  7.1499821160600074
 -0.0107466331602664 -0.0016617381141140  8.5685050375160348
  1.4094790523401384  1.4505427018853208 10.0036957869522212
 -0.0186721946537723  2.8790197248888356  0.0075077765557120
  1.4505136286342346  4.2962683338433365  1.4094500643734373
  1.4497708931728313  4.3256422638006438  4.3255121684775482
 -0.0037967981030882  2.8639161656678511  5.7062272499621747
  1.4300945036726804  4.3010129586330752  7.1387984689116157
 -0.0195259545859300  2.8794686609890507  8.5611594027261830
  1.4299964920037962  4.3036985962760070  9.9962656183116305
 -0.0016205675185159  5.7314665218136183 -0.0106973293622120
  1.4302522395153046  7.1499820513859262  1.4302521923033928
 -0.0039235010821353  5.7062270394395416  2.8637896145334141
  1.4297749856479849  7.1386110364766058  4.3012191071088957
  0.0028902528641570  5.7278038345268119  5.7278637926474882
  1.4299964078380434  7.1500579785520220  7.1499062784312750
 -0.0068883822190102  5.7163889595774515  8.5735795631581908
  1.4298984788562361  7.1611657013784029  9.9989511231077852
 -0.0106973722907865  8.5684975598753326 -0.0016207138140373
  1.4094501674168216 10.0036960045307790  1.4505134698860127
 -0.0194759720977289  8.5611595688048201  2.8795187275151641
  1.4299965360796225  9.9965566092563751  4.3034077487057454
 -0.0068477889699865  8.5735779051355987  5.7163897930539314
  1.4302177990678289  9.9987451180040559  7.1613528216516356
 -0.0225986854350580  8.5594128791903881  8.5594451773947196
  1.4102218850716974  9.9744516038530513  9.9743215642931968
  4.2962683699364197  1.4505135277597978  1.4505425321712524
  2.8790193225477663 -0.0186725157133704  2.8524848930482949
  4.3036985518390853  1.4299965434411350  4.3036987183744477
  2.8794684692935646 -0.0195260083836728  5.7388046969460751
  4.3010130134166316  1.4300943802371369  7.1611658428666933
  2.8639162637015372 -0.0037967761304894  8.5937369459589732
  4.3256424632084878  1.4497707248063689  9.9744519815959514
  2.8786651212566099  2.8524847475089810 -0.0190266149202151
  4.3034077130729704  4.3034077171465084  1.4299964237616929
  2.8524848758464065  2.8786652198398111  2.8790196174488836
  4.2974228958524039  4.3060314157359922  4.3056848695469405
  2.8706901162353713  2.8616135504372795  5.7314664443504499
  4.3054955998352229  4.3054952800080386  7.1499821095343874
  2.8616135436258423  2.8706902058855652  8.5684976371607693
  4.3060317598136555  4.2974229763410987  9.9942792024790599
  2.8795186700336588  5.7388044533439562 -0.0194759841585570
  4.3012189856767211  7.1613529813721923  1.4297748217690824
  2.8707395517265213  5.7314590621303587  2.8616546149461928
  4.3055659740755701  7.1499821038456677  4.3055659274469082
  2.8825913899292535  5.7405189001656618  5.7405512997883807
  4.3041124792204117  7.1494614275033168  7.1495552770122393
  2.8668810495123465  5.7263847210773671  8.5835750431907591
  4.3015594845081857  7.1620594359551344  9.9981989737970771
  2.8637895832197438  8.5937371021127760 -0.0039235264628765
  4.3255125236644032  9.9743214908033817  1.4497709761333071
  2.8616546688083369  8.5685049241237135  2.8707395959711031
  4.3056850498424017  9.9939325960524013  4.2974229170247957
  2.8668404604863968  8.5835742632229568  5.7263862171487157
  4.3017650458919814  9.9984045012572196  7.1620596401920986
  2.8571025108250954  8.5721003924397490  8.5721602420446672
  4.3224361034440504  9.9775281100141058  9.9775281650294740
  5.7062272034314141 -0.0039235129722148 -0.0037969528589681
  7.1499821261859013  1.4302523813111103  1.4297405961568208
  5.7314664710059047 -0.0016205595400817  2.8706901397818334
  7.1611656401344241  1.4298984239712995  4.3010131011964035
  5.7163892881267122 -0.0068882076128698  5.7263847007373947
  7.1500579612702273  1.4299964500018305  7.1500579370571726
  5.7278036240087253  0.0028901837035278  8.5721004546088473
  7.1386111836044250  1.4297748389248599  9.9987451768649649
  5.7314589978790869  2.8707394333474197 -0.0016618330569676
  7.1613530159810574  4.3012191841629699  1.4302179102321628
  5.7388044957995747  2.8795186654662750  2.8794685101685786
  7.1620595101635578  4.3015596085103631  4.3017651621678628
  5.7263846382440038  2.8668809937441351  5.7163891852642390
  7.1494614327666373  4.3041126626341697  7.1504088450862575
  5.7405187657755068  2.8825915366345503  8.5594128902031752
  7.1499820383920527  4.3055660432824556  9.9943981875842223
  5.7163897929105127  5.7263862155913605 -0.0068476961438324
  7.1499060789175957  7.1499062074933253  1.4299963228808126
  5.7263863845870668  5.7163899168811003  2.8668405010925730
  7.1495551867415568  7.1505027087617492  4.3041125941226648
  5.7196762134493184  5.7249768068740510  5.7249648017168804
  7.1499819857437350  7.1499820331414883  7.1499821008502389
  5.7249768089830253  5.7196762302847333  8.5749991680948678
  7.1505027765178824  7.1495551185472372  9.9958515054300232
  5.7278636015200419  8.5721603743635573  0.0028902528700676
  7.1387983778545347  9.9989511656341552  1.4300945805006837
  5.7405511871241952  8.5594452264194576  2.8825914267149035
  7.1499820191520680  9.9944687186917633  4.3054954944866841
  5.7249647990895243  8.5749872120861728  5.7196762768855640
  7.1504089303128557  9.9958515989632222  7.1494611656922675
  5.7420088103808258  8.5579553839630851  8.5579554410756629
  7.1379046368828787  9.9981990478086420  9.9984045164655839
  8.5611594639811077 -0.0194756989037165 -0.0195260070921809
 10.0036956327881299  1.4094501113800757  1.4094793024861791
  8.5684975241274639 -0.0106972901417430  2.8616133565204147
  9.9744518691324817  1.4102219852476681  4.3256422057850070
  8.5594126568435023 -0.0225985686680416  5.7405188607711741
  9.9987451274853214  1.4302178044568423  7.1386112687263799
  8.5735779686551616 -0.0068476368733527  8.5835741609521570
  9.9965565753371965  1.4299963956901409  9.9965564158503941
  8.5685050893918078  2.8616546074694584 -0.0107466339937835
  9.9743217866478968  4.3255125268264045  1.4102218158900295
  8.5937369510026507  2.8637896917994023  2.8639162299842873
  9.9775280859000191  4.3224361051657185  4.3224360384363152
  8.5721004307869446  2.8571025676994828  5.7278038592706215
  9.9984044430590000  4.3017650470309245  7.1379046896250697
  8.5835743912157447  2.8668405390605414  8.5735777048067590
  9.9939324672950445  4.3056849084921494 10.0025411070310994
  8.5594451974088628  5.7405512113789614 -0.0225986034143051
  9.9989513372481351  7.1387983643826773  1.4298983600745732
  8.5721600744735298  5.7278638117813445  2.8571026092027041
  9.9981990977702253  7.1379046906008554  4.3015596421243174
  8.5579553124639887  5.7420088631852888  5.7420087076684165
  9.9958516410836342  7.1504089920936700  7.1505026522285124
  8.5749871303041729  5.7249648092341898  8.5802879141134465
  9.9944685306646139  7.1499820488986998  9.9944686032335426
  8.5735795756979094  8.5835751761889298 -0.0068884693643727
  9.9962656076386249  9.9962655383020014  1.4299964121891262
  8.5835750954025016  8.5735796637742556  2.8668811095119962
  9.9942791333477992 10.0025410142771953  4.3060314818413810
  8.5749995136438688  8.5802877383126948  5.7249769741767702
  9.9943981536830933  9.9943982304136583  7.1499820603373738
  8.5802878209777464  8.5749993292983433  8.5749872175207251
 10.0025409457658174  9.9942790831736144  9.9939326840223064
  2.8873432245932293 -0.0273502557438537 -0.0273503965840097
 -0.0273508273920776  2.8873433292148833  2.8873438733924344
