Fe W 
 1.0000000000000000
    11.3842518329609668    0.0000000000000000    0.0000000000000000
     0.0000000000000000   11.3840307241948757    0.0000000000000000
     0.0000000000000000    0.0000000000000000   11.3842537179804815
 Fe  W  
 126   1
Cartesian
 -0.0084691502762665 -0.0015207392908205 -0.0010970282063714
  1.3846933024893189  1.4172491298863794  1.4613268174093961
 -0.0063802781690677 -0.0054456289466029  2.8524316163155468
  1.4169852548601598  1.4410447661442476  4.2590957812640058
  0.0047369438882905  0.0012091520071361  5.6919059555529232
  1.4174545249163115  1.4357961924338167  7.1179854823814459
 -0.0049907865151138  0.0009311561031420  8.5357400242694634
  1.3948794100278494  1.4666702535901996  9.9405204461156895
  0.0519979485691887  2.8921640295341438  0.0560932459827224
  0.0419070778146213  2.9127356900402979  2.8043901655450290
  1.4246094258229136  4.2702853225477355  4.3062035815479316
 -0.0060448863819230  2.8499606191068079  5.6922824509925221
  1.4235043392496558  4.2686043533671363  7.1172621669104297
 -0.0156979382424668  2.8590470675235142  8.5220800126995258
  1.4196813362563874  4.2705614559778899  9.9159942180370795
  0.0593215684057121  5.6401215571602847  0.0525180430337231
  1.4163396722052639  7.1627372278834338  1.4299725172762818
  0.0456928312757307  5.6427444730093361  2.8004907065151388
  1.4223670145855625  7.1045835224522706  4.2582897817598155
  0.0006247965710099  5.6926647439708473  5.6928926718168453
  1.4227450970766540  7.1074537206465749  7.1153473556559597
 -0.0079515743454788  5.6940682213446383  8.5313236961354431
  1.4153412515202139  7.1070921684283821  9.9643673175331013
 -0.0108010467817689  8.5367560806573248 -0.0034100858519452
  1.3914418684738055  9.9308385534456640  1.4544319567309250
 -0.0190493316561627  8.5253031162509956  2.8650534995041506
  1.4160856986573602  9.9542852800175670  4.2615453878747500
 -0.0063537587504605  8.5313628131574664  5.6927262952855973
  1.4156597398915229  9.9550855980322037  7.1158938299296466
 -0.0170964625043236  8.5223311166962468  8.5209082034049715
  1.3856143847411728  9.9283761830086075  9.9341483804911057
  4.2898936407004644  1.4664331114474320  1.4510526341899073
  2.8469841537885316 -0.0014027549191037  2.8542313729909989
  4.2578475806939560  1.4469488275500879  4.2529846083633096
  2.8457985806161799  0.0004058812370671  5.6893722312046426
  4.2694632319414403  1.4341312018798968  7.1186690242607167
  2.8467273439412493 -0.0020124890938410  8.5309733846800491
  4.2783705290592096  1.4775068300267480  9.9519360189777419
  2.7806305479398570  2.8942955614057411  0.0650943426924008
  4.3141519842353988  4.2706555535691120  1.4266961842393717
  2.7897530338580796  2.8921605455585881  2.7938191294596102
  4.2532430687371097  4.2673025476477209  4.2525604681017279
  2.8463154017604442  2.8404786175970829  5.6923466538117529
  4.2580848244568230  4.2670561936971545  7.1177148190052026
  2.8476681173690359  2.8465685806961956  8.5330128244060326
  4.2574101102890527  4.2679671682226266  9.9731468260025746
  2.8002383457374584  5.6563293518556073  0.0458960659426139
  4.2661341280091873  7.1071489638260941  1.4304925855475821
  2.7937036888368589  5.6402532289765839  2.7869204416982503
  4.2524510783012808  7.0991479908853181  4.2503114925024805
  2.8484702195626128  5.6940355675326986  5.6923277960527141
  4.2661954991304434  7.1113267437141445  7.1164999005092549
  2.8481365624211863  5.6963145820096814  8.5402760288375426
  4.2620926995271482  7.1018440862045988  9.9680824967192354
  2.8497494498849050  8.5327426337163210 -0.0036699438950155
  4.2961258827916016  9.9283873769005417  1.4605303111488479
  2.8495634864928343  8.5368407463124161  2.8569746934918436
  4.2722722534704616  9.9555674336719786  4.2633956079413355
  2.8460471537909533  8.5410791437919382  5.6928463011287738
  4.2744721627651732  9.9548286172874878  7.1142922757016152
  2.8462674228722409  8.5332014270009147  8.5315861510185087
  4.3045442510617580  9.9249834806681836  9.9257496985490725
  5.6994793175587208 -0.0021650388962757 -0.0008566185976990
  7.1123814521244917  1.4359460902614576  1.4283140042456028
  5.6945962533124259  0.0010293959667157  2.8509272293477252
  7.1133628066992207  1.4293337819528262  4.2635505716240161
  5.6798753106674322  0.0096971900352975  5.6850049302597458
  7.1145075806870288  1.4282335875991410  7.1157566746917782
  5.6912339688818463  0.0083513285495307  8.5390385760438985
  7.1116465178630852  1.4340078400022238  9.9605953422982534
  5.6972412030074056  2.8465704716847053 -0.0013040616416276
  7.1130107892878103  4.2686196489187873  1.4226303769077606
  5.7082478144698889  2.8589901270039779  2.8618779661134699
  7.1189812410443549  4.2731267624431988  4.2646134610480981
  5.6948181278678671  2.8533971391234911  5.6923562145587114
  7.1194265431792942  4.2729519814467150  7.1108702984574261
  5.7046189982292077  2.8619265880759781  8.5256724983754992
  7.1126165432840764  4.2670334044705038  9.9722169415409709
  5.6901088842950820  5.6961792689646833 -0.0021528268106794
  7.1149777095278939  7.1074734984559704  1.4233680046925290
  5.6989403229485731  5.6942120360980750  2.8540163800042597
  7.1199634335491364  7.1028117929641068  4.2707174818653524
  5.6864817744615159  5.6888203675468993  5.6908010570714378
  7.1205889887141192  7.1040457606594671  7.1096811917298872
  5.6968917817346867  5.6884872695293449  8.5334174752953125
  7.1138152889289863  7.1113085599535388  9.9641777807899281
  5.6987782869214207  8.5331718032874981 -0.0001146040037957
  7.1144590140535771  9.9552789602017402  1.4305946779158742
  5.7093934988483301  8.5224244101474724  2.8631870863517559
  7.1150617493001587  9.9625817059053610  4.2672849841446530
  5.6913095062332584  8.5243430930767641  5.6844494706973716
  7.1146346524711053  9.9619883919231427  7.1156806109846187
  5.7027602770180943  8.5144674493695049  8.5275865807655489
  7.1160900040844561  9.9545735202272532  9.9559839330584179
  8.5409471332459717  0.0004418119808861  0.0002919252178949
  9.9714012864525667  1.4409719887051968  1.4291391890518497
  8.5385190620087243  0.0012211413237139  2.8413501710435636
  9.9790123801825636  1.4417771631256942  4.2513587567908520
  8.5449213075120909  0.0099367947803262  5.6854130450159719
  9.9667532516783464  1.4293814262394089  7.1169835178165179
  8.5453019402469721  0.0096584267356184  8.5504032946394481
  9.9771893474369460  1.4471632483414105  9.9725965097381550
  8.5379402950981493  2.8405626179750403 -0.0003814562774537
  9.9241248865489879  4.2701912322170239  1.4215764858696753
  8.5379731162510542  2.8498364279068413  2.8519595388849757
  9.9696213041775401  4.2741409936682908  4.2606503189976950
  8.5398827004538074  2.8460764370641756  5.6903292774495755
  9.9657018149927623  4.2731611431506371  7.1112967361230774
  8.5379476428207148  2.8534438770594681  8.5353368419291407
  9.9777575268748961  4.2673231411087675  9.9769815264952015
  8.5380612604867672  5.6940516325529131 -0.0022414512929250
  9.9721406702043875  7.1045090423068871  1.4236665998789155
  8.5374225915601194  5.6926000434746191  2.8455452965849890
  9.9725409166969055  7.0919520246309444  4.2577968333291052
  8.5397171227196704  5.6878814788762169  5.6906134350382729
  9.9596186945879825  7.1027677570133338  7.1103613229178757
  8.5394733621264276  5.6888199280643885  8.5438580040807697
  9.9800608152384136  7.0990932408275640  9.9779225465989256
  8.5375247518357575  8.5410490318313617  0.0000422977587830
  9.9687803716667389  9.9540944653227221  1.4298051583375408
  8.5375479092033331  8.5312992173762332  2.8524365011331803
  9.9647171826504941  9.9619440439886890  4.2655915603005008
  8.5445490152806354  8.5320574911900788  5.6857760349469801
  9.9630283215458402  9.9625248090943206  7.1152801134936530
  8.5458551903767326  8.5242670608558537  8.5389973329985356
  9.9668921381372577  9.9556041470736236  9.9578332284876598
  2.8541914511658990 -0.0099364896796933 -0.0081746749196165
