Fe Zr
 1.0000000000000000
    11.3970922914779944    0.0000000000000000    0.0000000000000000
     0.0000000000000000   11.3970922868752886    0.0000000000000000
     0.0000000000000000    0.0000000000000000   11.3970922866457283
 Fe  Zr 
 126   2
Cartesian
  0.0008630215567891  0.0190160526533211  0.0184116742165730
  1.4246364936312770  1.4246364402725646  1.4246365114276902
  0.0190160354038674  0.0008629975985391  2.8308614533966270
  1.5095511719542516  1.3400318977255661  4.3332931425740959
 -0.0022920198202772  0.0197250854525510  5.6822064308374483
  1.4246584387574661  1.4246584343783064  7.1231828114060827
  0.0197251980662815 -0.0022920739159389  8.5641589718403033
  1.3400316640855059  1.5095512408989051  9.9130721633623420
  0.0184115831970646  2.8302569649231839  0.0008629047672301
  1.5092413005361289  4.3332932220728084  1.3397217616663026
  1.5381012423704181  4.3813861803102085  4.3810791979355086
 -0.0036105324870192  2.8528224814589902  5.7534525188794436
  1.4273998941455444  4.2743126097488116  7.1107260608471021
 -0.0290699981120371  2.8782294601431637  8.5132070186927447
  1.4246365560744230  4.2673414172299777  9.9790239876430142
 -0.0023600915668889  5.6825664871908721  0.0195905169311386
  1.4246145680500073  7.1231826058557655  1.4246146260641663
 -0.0035493326545305  5.7534525487013903  2.8528835744195025
  1.4273605820271202  7.1106370783599662  4.2743524632491985
  0.0051836569450625  5.6854317953760720  5.6856595812887107
  1.4246365660750904  7.1231791826983200  7.1231862887616062
 -0.0044272775268400  5.7025348249682075  8.5382101660873726
  1.4218732321666880  7.1356395518198630  9.9720529160651878
  0.0195904876807597  8.5637989426432046 -0.0023600096864747
  1.3397217974276816  9.9130722403524487  1.5092412579610937
 -0.0289562284468784  8.5132068599435389  2.8783430094124420
  1.4246364622074488  9.9787593617071142  4.2676060510900360
 -0.0043959775080711  8.5380963139887260  5.7028181285450881
  1.4219125752699429  9.9720128805190651  7.1357280734279289
 -0.0235763696899605  8.5191998026905011  8.5192411964519632
  1.3111716912924394  9.8652861183591316  9.8649790716409456
  4.3332931777406376  1.5092412628092087  1.5095511333592879
  2.8302568746007881  0.0184115649448157  2.8484099542244055
  4.2673413371414375  1.4246366806834501  4.2673414630729232
  2.8782294456754998 -0.0290699606222272  5.7331585872541933
  4.2743125901519354  1.4273998623390962  7.1356393507767191
  2.8528225335027071 -0.0036104125065059  8.4929127570035039
  4.3813862303852398  1.5381013445056950  9.8652861699199157
  2.8308614693168646  2.8484101151278103  0.0190160484803560
  4.2676060582484059  4.2676059276876082  1.4246363353004272
  2.8484100975903059  2.8308614025212715  2.8302570928928459
  4.2566294298384300  4.2756930261210773  4.2755925307629008
  2.8296828299382701  2.8516331674858448  5.6825662578739813
  4.2679260654271376  4.2679260286191099  7.1231826846022539
  2.8516331470957428  2.8296827205096742  8.5637989878397498
  4.2756931473471820  4.2566293406551310  9.9707728289687516
  2.8783428065459984  5.7331584023168620 -0.0289562229149897
  4.2743525208038742  7.1357281124951584  1.4273605825238971
  2.8295478682332984  5.6822064720308232  2.8515652552688087
  4.2676979223607141  7.1231825000436091  4.2676981323419678
  2.8728494921570067  5.7271241151598460  5.7271655498576548
  4.2807435557931726  7.1382824620523255  7.1385027674274539
  2.8537004186978541  5.7081551795507162  8.5438303858404616
  4.2878922017815908  7.1541462260628199  9.9585622708884287
  2.8528836066649021  8.4929128788933657 -0.0035493600804113
  4.3810792583292528  9.8649790933340480  1.5381012107052219
  2.8515652489358461  8.5641587826726457  2.8295477798571307
  4.2755925682838001  9.9706723243600557  4.2566295147197248
  2.8536691977046305  8.5435472892995108  5.7082690729914463
  4.2878030911388567  9.9584733371885612  7.1541463138224328
  2.8440897585542104  8.5607056518658169  8.5609338336782059
  4.4363517872348028  9.8100136461449789  9.8100135851395933
  5.7534526517500568 -0.0035493482478365 -0.0036104576430680
  7.1231827905371006  1.4246145554650931  1.4246585768673228
  5.6825664966752187 -0.0023599898077515  2.8296825679743232
  7.1356394147805888  1.4218732196299917  4.2743124204338319
  5.7025348366178150 -0.0044272095156426  5.7081551724039130
  7.1231790102015511  1.4246365788645134  7.1231789517825694
  5.6854315763005490  0.0051835049628795  8.5607057366845876
  7.1106373886709200  1.4273606197960675  9.9720129659327448
  5.6822063868660617  2.8295480565395477 -0.0022921561830285
  7.1357282724047240  4.2743524061948852  1.4219124479237446
  5.7331584493532572  2.8783428254959480  2.8782294474841961
  7.1541462386354073  4.2878921753607084  4.2878030982058224
  5.7081551826898869  2.8537002617172371  5.7025349072706577
  7.1382824803988161  4.2807435646516252  7.1078626036902621
  5.7271240692637777  2.8728494409941421  8.5191998623205798
  7.1231826457504255  4.2676978987660323  9.9786673422164718
  5.7028181396348581  5.7082689394492778 -0.0043959669449622
  7.1231863267544524  7.1231862829967660  1.4246365975892634
  5.7082691105828589  5.7028180561977662  2.8536692078663299
  7.1385027412433359  7.1080828272456076  4.2807434187917126
  5.6974937120885416  5.7012655072436829  5.7010758477366750
  7.1231825244425488  7.1231829112610443  7.1231827442435502
  5.7012654686201474  5.6974936388586741  8.5452894827109933
  7.1080827870787422  7.1385028469934788  9.9656218463225716
  5.6856597618191476  8.5609335682125458  0.0051837687031695
  7.1107257743037469  9.9720528224416860  1.4273996771210924
  5.7271656980882168  8.5192413333254962  2.8728493155252441
  7.1231825278506502  9.9784392653015743  4.2679260195800008
  5.7010758971089590  8.5450998961882974  5.6974936848648525
  7.1078625653465393  9.9656216694663780  7.1382826046719909
  5.7392450193168134  8.5071204194140773  8.5071206038308329
  7.0922192502392134  9.9585623393448497  9.9584730715383181
  8.5132069112360931 -0.0289564334396251 -0.0290698706058244
  9.9130721022283979  1.3397216859000021  1.3400319094828033
  8.5637989995765853  0.0195905853133545  2.8516331138877069
  9.8652862799117624  1.3111717875376836  4.3813862577389120
  8.5191998288641582 -0.0235763892529689  5.7271240500573679
  9.9720127802529941  1.4219126137491955  7.1106373060683952
  8.5380964312440657 -0.0043960594580221  8.5435472976817728
  9.9787594979464362  1.4246366136203750  9.9787591809776206
  8.5641588371971320  2.8515652800998823  0.0197252226593093
  9.8649789293331676  4.3810793690406067  1.3111716879289634
  8.4929128432168230  2.8528834653147479  2.8528225417189934
  9.8100136402665505  4.4363517762730744  4.4363520459798913
  8.5607057318420239  2.8440896712375281  5.6854317308431428
  9.9584731440010632  4.2878031512880428  7.0922191387035314
  8.5435474319619242  2.8536691170410240  8.5380962691667772
  9.9706723459812956  4.2755926896416891  9.9897357098066593
  8.5192412740062000  5.7271655949811722 -0.0235761636466381
  9.9720527310262614  7.1107257303563873  1.4218732721309086
  8.5609337891466026  5.6856597725093341  2.8440893596385646
  9.9585624180435826  7.0922190190986623  4.2878923556293094
  8.5071205329917294  5.7392447625180756  5.7392447401286066
  9.9656218244607704  7.1078626377173482  7.1080827456412869
  8.5450999723882379  5.7010757548717841  8.5488716459749465
  9.9784393796363897  7.1231826129671525  9.9784393201625896
  8.5382100697322922  8.5438303886338343 -0.0044272474498136
  9.9790239839199462  9.9790241087371019  1.4246365474344846
  8.5438303364710340  8.5382099899758046  2.8537004409637379
  9.9707728016257562  9.9897360000018178  4.2756930927600516
  8.5452895540750280  8.5488717428086023  5.7012654739391211
  9.9786672050530107  9.9786672081841665  7.1231826772248343
  8.5488716782721141  8.5452895959528785  8.5450997754039175
  9.9897359737768081  9.9707728003378158  9.9706722413750413
  2.9920452707119618 -0.1427724227005354 -0.1427725968964591
 -0.1427724684592655  2.9920456641586108  2.9920454881733765
