Fe Os
 1.0000000000000000
    11.4329244911339121    0.0000000000000000    0.0000000000000000
     0.0000000000000000   11.4217075876179983    0.0000000000000000
     0.0000000000000000    0.0000000000000000   11.4329244904276308
 Fe  Os 
 126   2
Cartesian
  0.0811046010013443  0.0188484409896894 -0.0000658251095513
  1.2927274999026666  1.4277134241886329  1.5655037033084001
 -0.0327163213252091 -0.0233373483331310  2.8913107859899267
  1.4183227077941658  1.4280558409424826  4.2704204342533041
 -0.0121446782355820 -0.0089262737730942  5.7164454999189394
  1.4183227766333544  1.4273710169598501  7.1625040892597847
 -0.0330797003133946 -0.0233373318428717  8.5419770030343791
  1.2927274658980261  1.4277134617464124  9.8674206717306401
  0.0811046744597752  2.8365784133121537  0.0000657180056024
  1.4474753830607940  4.2382313774163389  1.4113303528446373
 -0.0330796353812523  2.8787642009173031  2.8909474146033003
  1.4348008657181168  4.2831423106202040  4.2958856827263849
 -0.0121446579038785  2.8643531659538910  5.7164789972915662
  1.4345995904240725  4.2832442783708933  7.1373179750442066
 -0.0327162905462272  2.8787642328607599  8.5416135848709018
  1.4469008725005503  4.2382313413065962 10.0221686968655508
  0.0064923578275291  5.6989955540979533 -0.0000979270510712
  1.4306804962058215  7.1385672461674785  1.4275505522174914
 -0.0009759785979372  5.7091462011599541  2.8593027281201273
  1.4195227908848838  7.1385185509361904  4.2798377026843015
  0.0073502281640914  5.7205481429550948  5.7164985995549698
  1.4195228017091972  7.1386158379990237  7.1530867807177572
 -0.0010716190915144  5.7091462943543538  8.5737173897870012
  1.4306805402825507  7.1385671992677660 10.0053738449351588
  0.0064924112489612  8.5781388974965687  0.0000978037577417
  1.4469007962936151 10.0389031092384560  1.4107557169792231
 -0.0010716231012187  8.5679882133599179  2.8592071323206176
  1.4345995824513571  9.9938901829715956  4.2956065432555066
  0.0073501947342376  8.5565863786712324  5.7164259401747666
  1.4348009013256640  9.9939923105297428  7.1370389140052790
 -0.0009759680536345  8.5679883329260456  8.5736217586029131
  1.4474752677011227 10.0389031871151815 10.0215940958719845
  4.4237347470890276  1.4277133831180246  1.5655036181826520
  2.8581653943626737  0.0188484027381980  2.7771266660761271
  4.2981395197177168  1.4273710343093127  4.2704203796131539
  2.8582311211202702  0.0146268549410779  5.7164622212738534
  4.2981394979884211  1.4280559544553366  7.1625040624656373
  2.8582968600276684  0.0188484600292300  8.6557979709608190
  4.4237348580026552  1.4277133876694232  9.8674207987237228
  4.2695614431613178  4.2382312345005726  1.4107557781350526
  2.8582968304434662  2.8365784715523574  2.7771266984439400
  4.2818627391615793  4.2832443191459211  4.2956065063702971
  2.8582311394833075  2.8408001923643216  5.7164621831394671
  4.2816613400527350  4.2831422276737499  7.1370388563462015
  2.8581654075682739  2.8365784431629395  8.6557979800473053
  4.2689868803886464  4.2382312924372281 10.0215941695714061
  2.8582311206205913  5.6460067664530840  0.0000000145513872
  4.2857817366443536  7.1385672640298488  1.4275506051963294
  2.8581332437002556  5.6989955593295534  2.8517387957791440
  4.2969394837255503  7.1386158870121328  4.2798377243594592
  2.8582311197094019  5.7237805456913406  5.7164622261988800
  4.2969394705275015  7.1385186685605504  7.1530868052404530
  2.8583290916630042  5.6989955561516314  8.5811856906523563
  4.2857817114663135  7.1385672677990550 10.0053738437596440
  2.8582311300222845  8.6311278024467235  0.0000000328992113
  4.2689868414086867 10.0389031335295549  1.4113302878434499
  2.8583289964403891  8.5781389511763653  2.8517387789929107
  4.2816613515262016  9.9939922618348973  4.2958856342995873
  2.8582311709067483  8.5533539606989510  5.7164622350071221
  4.2818625970453592  9.9938902435495933  7.1373179666818851
  2.8581332240926183  8.5781389921834545  8.5811856941275142
  4.2695614456697060 10.0389031258481953 10.0221686899656213
  5.6353576896230368  0.0188484214102382  0.0000657006120057
  7.1286515369405654  1.4280558087809205  1.4399083118517861
  5.7495419328008071 -0.0233373398696728  2.8909474774746489
  7.1563381840870477  1.4277134327010643  4.2981070402849006
  5.7286069097289660 -0.0089262573795825  5.7164789844130839
  7.1563380728055108  1.4277134753910683  7.1348173916764948
  5.7491785295569997 -0.0233373160377428  8.5416136675540884
  7.1286515653238487  1.4273709915847121  9.9930161174172110
  5.6353578195812819  2.8365784909733667 -0.0000657856840774
  7.1541167731463560  4.2831421547537039  1.4234302124431566
  5.7491786418258677  2.8787642240146432  2.8913108039709132
  7.1639797205337343  4.3155986288403554  4.3056502978369044
  5.7286069036574787  2.8643531551477759  5.7164454261381694
  7.1638813843101712  4.3155986979214136  7.1271759185004981
  5.7495419076769938  2.8787642060781837  8.5419770697531821
  7.1538376468417813  4.2832443259433699 10.0092929355951590
  5.7099699548201990  5.6989955445199154  0.0000978541874894
  7.1380689262650154  7.1385185567348666  1.4387083187673377
  5.7175338307407042  5.7091462230560124  2.8592071870315965
  7.1308608472663142  7.1385672377024756  4.2726296810341555
  5.7091120318494077  5.7205481547162265  5.7164259132273356
  7.1308608621870295  7.1385672782776810  7.1602948505278876
  5.7174382366246483  5.7091462715728998  8.5736217684068681
  7.1380688757577806  7.1386159099968003  9.9942161180624964
  5.7099699465050886  8.5781389113170405 -0.0000979023026128
  7.1538377118502128  9.9938901482006006  1.4236315200815806
  5.7174382818819058  8.5679882812970813  2.8593026749320538
  7.1638813646930197  9.9615358283345170  4.3057485363237458
  5.7091120936189856  8.5565864106014597  5.7164985804008328
  7.1639796295209974  9.9615358417063025  7.1272741879635353
  5.7175338670841853  8.5679883164342190  8.5737173254609012
  7.1541167955691378  9.9939922906528462 10.0094942262311406
  8.5746933381756900  0.0146267554573336  0.0000000282354509
 10.0207351855895510  1.4273709889890092  1.4399083460273299
  8.5746766436390036 -0.0089263299450088  2.8703757563512315
  9.9930485758301231  1.4277134083343641  4.2981070460195170
  8.5746934161558723 -0.0050144733140163  5.7164622709837181
  9.9930486014696935  1.4277134342906364  7.1348174657551260
  8.5747100773818907 -0.0089261559064886  8.5625486975872516
 10.0207351796368318  1.4280558952901437  9.9930160446249641
  8.5746934016571021  2.8408001156119269  0.0000000550977418
  9.9955491066019171  4.2832442337950907  1.4236315294929804
  8.5747101025763666  2.8643531490608445  2.8703757355051320
  9.9855053649213072  4.3155986539797464  4.3057485599451129
  8.5746933811712616  2.8604413386858409  5.7164622442267108
  9.9854071181039306  4.3155986618536870  7.1272742341151742
  8.5746765506812626  2.8643531966928601  8.5625486388107959
  9.9952699847387763  4.2831421888045247 10.0094942418534085
  8.5746934110068231  5.7237805276813880 -0.0000000982215743
 10.0113179049755416  7.1386158880153898  1.4387083320996921
  8.5747297543983265  5.7205480371360320  2.8508809126555579
 10.0185260080607286  7.1385672522501116  4.2726296799392722
  8.5746934042900183  5.7493146156405039  5.7164622599475488
 10.0185259531929969  7.1385672176730832  7.1602948618474906
  8.5746570778983280  5.7205481010223878  8.5820436178370674
 10.0113178426963376  7.1385186158883709  9.9942160799199335
  8.5746933255579005  8.5533538983697550  0.0000000136459203
  9.9952699580541182  9.9939922831239336  1.4234301878672810
  8.5746571167542296  8.5565863515744471  2.8508808857379355
  9.9854071061175631  9.9615358303918846  4.3056502201585802
  8.5746933791166793  8.5278198558399154  5.7164622280828139
  9.9855053511527565  9.9615358453958383  7.1271759879565728
  8.5747296351506943  8.5565864188238496  8.5820435254944840
  9.9955491257230538  9.9938901847995751 10.0092928740330063
  2.8582310986536892  0.1203515287998208  0.0000000302086052
  2.8582310637936654  2.7350752650618353 -0.0000000424094615
