Fe Cr
 1.0000000000000000
    11.3745893382127452    0.0000000000000000    0.0000000000000000
     0.0000000000000000   11.3753423507181619    0.0000000000000000
     0.0000000000000000    0.0000000000000000   11.3745893332425645
 Fe  Cr 
 126   2
Cartesian
  0.0249242518405405  0.0037911613390250  0.0032111004705087
  1.4293777908621377  1.4240599517478596  1.4143862139668604
  0.0088426358169635  0.0053513266712770  2.8349712482649090
  1.4265292675169474  1.4259018122462290  4.2531513645007069
  0.0029297173347017 -0.0012275975842477  5.6884687327785270
  1.4252576905862608  1.4212757124830930  7.1143168485621944
  0.0051579903989399 -0.0019229720970103  8.5327973835273916
  1.4290705694739141  1.4151709958263716  9.9661846983317943
  0.0134190726472841  2.8505825461595853  0.0072469157781419
  0.0069380171475606  2.8607235122261718  2.8367178974568543
  1.4223885381158532  4.2689401927783779  4.2506059014677158
  0.0057830376544156  2.8460593699602730  5.6817022613799431
  1.4218598734000112  4.2680581182098232  7.1077966842112827
 -0.0003403524222793  2.8519188043227217  8.5324588043352758
  1.4250345153737536  4.2619623209346065  9.9776899600162778
  0.0099048433182175  5.6804771901609614  0.0075242552617090
  1.4262282565612636  7.0953886430779960  1.4176238722271328
  0.0093589528868968  5.6792208055668203  2.8342563462315011
  1.4219375231041000  7.1013190127438683  4.2633778885294440
  0.0038394221947181  5.6831365085780483  5.6820579865056491
  1.4215680568668945  7.1038375311976454  7.1072697346962173
  0.0046781223582270  5.6841412028468765  8.5387939614069648
  1.4254863820446297  7.1112739945423789  9.9613513434448180
  0.0085857085030638  8.5298218169780426  0.0036627090373618
  1.4285954484804941  9.9580988902202066  1.4150878779060931
 -0.0021791608911534  8.5182271310916917  2.8456488240409392
  1.4245805201759703  9.9557687717251824  4.2566627397258419
  0.0007405860462278  8.5344878569110811  5.6888694537215470
  1.4242496005121490  9.9566202935978847  7.1132855421417327
 -0.0056456355001391  8.5283766963607714  8.5230225488462192
  1.4293478959207271  9.9606185792022668  9.9626706376727157
  4.2521030264052522  1.4152541252792150  1.4146254569812251
  2.8406011509244391  0.0038832519571511  2.8185314332477587
  4.2660023167755048  1.4136417687572742  4.2639666790633832
  2.8435985194004272 -0.0023679022104574  5.6885454654558343
  4.2594530440089740  1.4198957243137691  7.1147268079015138
  2.8430461666266731 -0.0031551449899116  8.5457564716720604
  4.2585416472844599  1.4050298519501343  9.9597037482669606
  2.8362100092006557  2.8416936096950751  0.0075543592623886
  4.2403552812938266  4.2618701227338605  1.4187774307698671
  2.8364490452192741  2.8504992432392036  2.8302790904532658
  4.2602937630804263  4.2675406318892728  4.2637235202751311
  2.8399567144951319  2.8442603027945124  5.6821398297273262
  4.2625359535314287  4.2670672272279635  7.1080362202463512
  2.8390990298632097  2.8400489912163702  8.5432672377687897
  4.2567950224503992  4.2604020078159301  9.9616082579447163
  2.8369115570303096  5.6829965790307817  0.0067715244513973
  4.2571143659639654  7.1112765221291507  1.4180367819199045
  2.8360688786992334  5.6803277424048693  2.8337008471835654
  4.2711151030884409  7.1125952652946767  4.2732982267868360
  2.8414341655500177  5.6842610644440965  5.6831359682989024
  4.2647295130612459  7.1067066708226321  7.1074138005629450
  2.8407186049688460  5.6855739971908665  8.5397323921170134
  4.2674725522475061  7.1228686100926026  9.9505866532344918
  2.8394476039031744  8.5457071161684048  0.0044044727018504
  4.2555244751883974  9.9607678086088036  1.4142451794114481
  2.8398602752576871  8.5298191244410688  2.8352909260209320
  4.2605920334118510  9.9567638903046500  4.2576325630696275
  2.8439025472791197  8.5371511143061589  5.6892185946686498
  4.2618336093790985  9.9581828096830325  7.1143321257901304
  2.8435245006971481  8.5398677402168612  8.5331039599107648
  4.2560799529490705  9.9618746969898453  9.9621243474054424
  5.6724297193692763 -0.0031865394441119  0.0005649165149631
  7.1039636555117269  1.4214932535348552  1.4181331454523265
  5.6855469354271513 -0.0017871686153963  2.8384703259816892
  7.1103050080368879  1.4244855527662301  4.2648921564536622
  5.6834176735985933  0.0013467478584525  5.6859913502536461
  7.1112927670358070  1.4223341329850792  7.1068563018369124
  5.6813349134840223  0.0015632753421895  8.5369124055482093
  7.1035259488545890  1.4196940062799195  9.9585487906391830
  5.6749751845243903  2.8398516127128448  0.0047056002984680
  7.1103690755912892  4.2681213838879950  1.4217749039353365
  5.6857902177954669  2.8521116234041450  2.8441785187488819
  7.1078152112850574  4.2644066651721353  4.2615939052894225
  5.6867158558145752  2.8412675593110990  5.6884815294511810
  7.1083027919293462  4.2638715450552143  7.1099389964162238
  5.6934738468828954  2.8470698644697956  8.5248536266984605
  7.1102924857080136  4.2669808988378515  9.9556954819387435
  5.6784866700715240  5.6853267434389920  0.0027568119984514
  7.1110420558035203  7.1039447886602911  1.4220787870229468
  5.6794560972327233  5.6843320315909516  2.8387682660281048
  7.1088130751410130  7.1075751093170165  4.2644578835308433
  5.6893380319258773  5.6866934355933765  5.6903215131778593
  7.1090275145071145  7.1094077366237576  7.1091962515179201
  5.6878313352431782  5.6882201255042961  8.5303076487864704
  7.1106930381245661  7.1066078665853363  9.9535063443486020
  5.6852013504043581  8.5397768865462034  0.0001139208210965
  7.1049599664768159  9.9568346419199329  1.4196103303545702
  5.6951218431624495  8.5285003743954295  2.8492913283248340
  7.1121450567507001  9.9544026679966997  4.2675142763458558
  5.6862812218689038  8.5335205350233654  5.6869893755375518
  7.1121010404545473  9.9552942369902127  7.1062045579153557
  5.6922266830272870  8.5281708582235822  8.5260029870974527
  7.1038818905574654  9.9579592351115913  9.9566051596023240
  8.5296202619654906 -0.0023048359412655  0.0000359661415342
  9.9650910657075631  1.4257045610199324  1.4172753572007590
  8.5298597365444664 -0.0013137821634538  2.8407122945920760
  9.9466770848672610  1.4186836117274721  4.2716499645304022
  8.5317626324941642  0.0018820169326030  5.6864790502783471
  9.9532567407051733  1.4244858741929907  7.1080441743428633
  8.5322367247870794  0.0013144368507678  8.5348017045364433
  9.9542821564338322  1.4138343688864636  9.9524253963296214
  8.5361404173634909  2.8444777577018732  0.0034338953848339
  9.9675803384066093  4.2689084139233904  1.4212225255456805
  8.5365505154563923  2.8458575590376278  2.8376293653919475
  9.9587358040669844  4.2641900055042843  4.2595113095572348
  8.5286799914207467  2.8434190333595564  5.6894690894721993
  9.9566253254755921  4.2644388407634910  7.1104129386384045
  8.5298679005557787  2.8412674863462009  8.5314331280527291
  9.9546210408596618  4.2676763192152283  9.9579239561170407
  8.5351091111934672  5.6844757189845456  0.0024260720541727
  9.9549276061837553  7.1012280365501317  1.4217009259946440
  8.5361560167740578  5.6829129187670526  2.8400100236250596
  9.9478266507070856  7.1129251476501221  4.2704028743436346
  8.5280281262976150  5.6858014823029333  5.6902771705891748
  9.9537803871699797  7.1075800959558473  7.1094106160256283
  8.5278175971796486  5.6867277129694500  8.5289740092838038
  9.9448460993008201  7.1127190547400136  9.9471202844134670
  8.5290932342547023  8.5372581996434835 -0.0002559551334425
  9.9615561763626399  9.9555216915288529  1.4188947726448473
  8.5292373631165930  8.5343891216272745  2.8429057899687216
  9.9521312962400721  9.9528756914443441  4.2660077636845388
  8.5310198531008581  8.5316879969006223  5.6872040811046807
  9.9507976394765958  9.9543679668267284  7.1059939370230412
  8.5312342105702985  8.5335157882207380  8.5319564471009137
  9.9606176767540369  9.9569545434603910  9.9574436646740541
  2.8411240145095258  0.0022501423376108  0.0023107400627695
  1.4241344485249818  4.2635029729382286  1.4193002789008418
