Fe V 
 1.0000000000000000
    11.3821824759210948    0.0000000000000000    0.0000000000000000
     0.0000000000000000   11.3821576999747514    0.0000000000000000
     0.0000000000000000    0.0000000000000000   11.3821824754445586
 Fe  V  
 126   2
Cartesian
  0.0209938625286016  0.0040249583477702  0.0021829784229763
  1.4126133741804952  1.4530879820478015  1.4331206789026374
  0.0046014175007317  0.0036417371744175  2.8410509981414727
  1.4245326544519876  1.4280935502938283  4.2596676292471365
  0.0027372882800697 -0.0011953369079577  5.6925228344711858
  1.4238853376013172  1.4232448966033224  7.1162389256365355
  0.0033862255973638 -0.0027926921029298  8.5363967043736260
  1.4109811568512385  1.4365169632904395  9.9537336656528854
 -0.0056760110133934  2.8317921982275034 -0.0117916420846158
 -0.0147006775095663  2.8431440673114383  2.8602227392403861
  1.4239825314894867  4.2718095275936019  4.2532814038551985
  0.0019315675019547  2.8463207594475066  5.6879412972585852
  1.4237742368864759  4.2701818672832070  7.1121373322230221
 -0.0025808643389560  2.8507456938817084  8.5365416935837377
  1.4249557900543275  4.2642841800794562  9.9804035354043066
 -0.0100336301234225  5.7022534194545305 -0.0103766255685394
  1.4249441023512126  7.0991359576556210  1.4207021898019321
 -0.0096275134740974  5.7000801571379185  2.8551356157266023
  1.4228556042869007  7.1079347244321092  4.2682235232771832
  0.0043149695039776  5.6896331104451940  5.6874211100151815
  1.4225425114519603  7.1094135963555720  7.1120162737520731
  0.0012306798573898  5.6900313312778241  8.5417911188488027
  1.4237322517196720  7.1147398083050222  9.9639224158321102
  0.0045127586288395  8.5357270084705412  0.0009594247029063
  1.4122549665513520  9.9463471234284473  1.4333309516506458
 -0.0035246991742202  8.5264176888259264  2.8489492835861308
  1.4230507530402994  9.9599038627732970  4.2628037724813836
  0.0002342500570157  8.5391664683794115  5.6935249280907367
  1.4233798821249160  9.9602609001868068  7.1172885210555341
 -0.0049803607624023  8.5342227557527384  8.5297722983048452
  1.4123961899563557  9.9482134378783265  9.9493760595328524
  4.2741298861164054  1.4364623122994562  1.4344043009757499
  2.8435168493213436  0.0038708506822441  2.8244093465208815
  4.2710058826486934  1.4174040782508219  4.2683506670892095
  2.8445437317080824 -0.0019194639532407  5.6927956518609175
  4.2662293878167725  1.4221105477810301  7.1169877756360744
  2.8442328144332327 -0.0034073124626357  8.5517331592613672
  4.2829955300421370  1.4251650339907931  9.9447089697438074
  2.8558934888818666  2.8152211485058611 -0.0101594172931887
  4.2471821484051784  4.2644383045167835  1.4207440331431780
  2.8571771437741198  2.8318468427989485  2.8513570930826879
  4.2648730039568710  4.2710707518213322  4.2685778523450839
  2.8442680046889661  2.8449203954203104  5.6887349449234064
  4.2655695224175183  4.2695635362464097  7.1124843251558962
  2.8439829925404210  2.8403030961308713  8.5453105493558468
  4.2638238083008781  4.2646673886901070  9.9640110706267819
  2.8561037568211938  5.7041197169651321 -0.0105178419662978
  4.2640153043679669  7.1147980489829248  1.4217104267770297
  2.8558637739906900  5.7022900783872883  2.8555461122618446
  4.2733088244680770  7.1162028507218853  4.2751535177120301
  2.8450812414662261  5.6900851805957249  5.6876911879192971
  4.2680662840655419  7.1113608547807097  7.1113983632933015
  2.8451154633665965  5.6907150628965120  8.5421647554709352
  4.2717220734031836  7.1240491473590746  9.9558849498479720
  2.8434750042553323  8.5513308999017941  0.0021712905119281
  4.2783189244619901  9.9481767363534104  1.4330909515825792
  2.8444832228793158  8.5356687693198001  2.8412425090900193
  4.2669868194448997  9.9602590466940981  4.2632044063488888
  2.8457555655271642  8.5409756749529997  5.6929913266544698
  4.2641261067868292  9.9609856887028680  7.1175595540812084
  2.8454076218592652  8.5425950660907102  8.5367832851495766
  4.2779084343343454  9.9503866520920141  9.9497821781819908
  5.6760542065572066 -0.0035003858455268  0.0012096916623224
  7.1115077700977798  1.4233887653531279  1.4214952011766320
  5.6913506491613379 -0.0027616152626616  2.8421002334089680
  7.1160851687913658  1.4234538968794277  4.2696112893447244
  5.6881596563264374  0.0007299326502373  5.6899093759673995
  7.1165512994675675  1.4251449775732410  7.1111108834479868
  5.6881301227291203 -0.0004782887839230  8.5396120200666221
  7.1107141106673097  1.4219884201559247  9.9613412093016667
  5.6824404651185274  2.8402155728865672  0.0017598525801632
  7.1155684293186248  4.2702285900463206  1.4217709629018811
  5.6911234889570474  2.8509050862503620  2.8482330796023656
  7.1126821781964109  4.2675792174513276  4.2653868506967347
  5.6923841000753130  2.8448551894586198  5.6933123352800497
  7.1133575036234618  4.2673959392425482  7.1143570855300986
  5.6974383456295428  2.8493475908331605  8.5303142746161562
  7.1152956660649052  4.2695044764629282  9.9621469324229075
  5.6855765856805274  5.6905629818513219  0.0002779301532798
  7.1157641375170693  7.1094911545325674  1.4229827905150787
  5.6859772465172282  5.6902078163507550  2.8442139836602709
  7.1133198408835412  7.1130728815091562  4.2677860158629128
  5.6905331546097289  5.6904083770620320  5.6940258831663817
  7.1136720005311673  7.1118368040821593  7.1140735501732548
  5.6932375607291092  5.6908983894714611  8.5344454510265457
  7.1162977009058723  7.1113003476095891  9.9596438869061981
  5.6909963263772712  8.5425321409446635  0.0000827641582852
  7.1104639714282722  9.9603816256964297  1.4223084446379071
  5.6979263250419772  8.5342639610555366  2.8505360085756033
  7.1167986834040731  9.9600584796418055  4.2677603500520771
  5.6905588540246592  8.5373939549517655  5.6905470225332957
  7.1169763391570244  9.9599641038802602  7.1107866281419687
  5.6954910858025940  8.5328527777822210  8.5322447537462693
  7.1101939051254144  9.9608337253162240  9.9637246646431397
  8.5349101745201530 -0.0018727122329156  0.0010014307107500
  9.9680833967491544  1.4280060361843661  1.4212101887834105
  8.5352571344341222 -0.0012544004472604  2.8427967484786043
  9.9530870798211115  1.4189615347344737  4.2746655314116717
  8.5371299148307997  0.0009132334201110  5.6905846893195395
  9.9580355248896417  1.4234648790372597  7.1116761733179237
  8.5377995300077600  0.0007272768700592  8.5395370498443732
  9.9593145156170344  1.4175634494112332  9.9568288010248889
  8.5390117509311949  2.8450642481107753  0.0011124816640184
  9.9745059684279234  4.2717164502384213  1.4214599624658344
  8.5397605518788620  2.8461986035248672  2.8434565715064761
  9.9623848409475571  4.2687874291714758  4.2653572878750250
  8.5338836603043600  2.8431641509652064  5.6937784956832305
  9.9623098554299290  4.2675818629968507  7.1150267293803591
  8.5344489902720877  2.8448442631270510  8.5352627160301058
  9.9591694921271277  4.2711018019895732  9.9627959047347829
  8.5400613719799789  5.6902059103888183  0.0006070731627118
  9.9595560940101375  7.1078717462691143  1.4226348241175319
  8.5403323507574935  5.6894811492365500  2.8413532878264620
  9.9550175467061752  7.1176140370177441  4.2727182998449331
  8.5335594230691800  5.6905027362395622  5.6942035147657215
  9.9599504754743418  7.1130572083220924  7.1144444743810293
  8.5336567621827939  5.6904047457928630  8.5372340021779287
  9.9525450974727967  7.1162441138183317  9.9544293260784951
  8.5347891170202050  8.5410532452595440 -0.0002303006122858
  9.9649375769833259  9.9597517933838908  1.4223426336266372
  8.5341711602577526  8.5391059933386337  2.8452935002651074
  9.9572182546210417  9.9595684782511888  4.2704647680237837
  8.5368463370680043  8.5386300034119849  5.6908992074183029
  9.9600068093492631  9.9600621192439025  7.1108839946476277
  8.5372173064190946  8.5374096213405792  8.5371776827438932
  9.9645639197386728  9.9604354888890256  9.9606403439375164
  2.8431544403245796  0.0031993452716712  0.0022792898445491
  1.4250521214439889  4.2651098001345655  1.4203816268980489
