Fe Pt
 1.0000000000000000
    11.4427286016504421    0.0000000000000000    0.0000000000000000
     0.0000000000000000   11.4411526656680476    0.0000000000000000
     0.0000000000000000    0.0000000000000000   11.4427286112772428
 Fe  Pt 
 126   2
Cartesian
  0.0385890641164044 -0.0000000399515468  0.0385891913752989
  1.4303411565647928  1.5105496136960184  1.4303410004738721
  1.4591953195100997  1.4521309842041976  4.3153223706605957
 -0.0009144996261761 -0.0000957965889706  5.6978016341255238
  1.4303410308839626  1.4318630782274195  7.1517054272598477
 -0.0126194941052768 -0.0001615875240303  8.5709839446043272
  1.4014866019072287  1.4521311652279296  9.9880882047019224
 -0.0007748936498092  2.8817159803687358 -0.0010311453726118
  1.4303410331488418  4.3036162074855602  1.4303410526548863
 -0.0174147897233073  2.8722516522804380  2.8784432436792153
  1.4275655357901433  4.3040235790628705  4.3058377494553373
 -0.0035522642680480  2.8757079759020434  5.7278599110774504
  1.4303409670729645  4.3107952929597984  7.1517053683246861
 -0.0194822978135203  2.8825674920305753  8.5614931304626722
  1.4331167352040886  4.3040237034062416  9.9975729309556467
 -0.0038236912331996  5.7205762669678411 -0.0038236096458032
  1.4303410505737721  7.1375364393231671  1.4303411123159036
 -0.0089418052531137  5.7205763476033420  2.8696238252173272
  1.4278645429378782  7.1371037316337551  4.3054474869730006
 -0.0010064537603732  5.7206045883061520  5.7222211811863932
  1.4303411881741981  7.1304781475843511  7.1517054387083743
 -0.0080833309549919  5.7205963567150722  8.5779346443126236
  1.4328177044747785  7.1371037155003263  9.9979632181943767
 -0.0010311680518346  8.5594368139866113 -0.0007747595317863
  1.4303410828277252  9.9306030309667292  1.4303409748679929
 -0.0177611839968509  8.5689010643001104  2.8780968465384595
  1.4587876626473817  9.9887733585785696  4.3149567756274072
 -0.0035040389220292  8.5653897955079721  5.7278210125124565
  1.4303410135580563 10.0086757968935043  7.1517055307875914
 -0.0194374563326711  8.5586087817338932  8.5616799960717405
  1.4018945887243619  9.9887734433119029  9.9884540415931919
  4.3149566648718478  1.4523791051299255  1.4587876347548492
  2.8220931866733441  0.0000000684180275  2.8220930781651381
  4.2928370065382726  1.4317144052963982  4.2928105315844478
  2.8733017774754912 -0.0001613678222034  5.7324267670419831
  4.3019186285092053  1.4381129047599617  7.1622260933098785
  2.8615965359842792 -0.0000958058552928  8.6056090850265559
  4.3275150247928771  1.4545466916995720  9.9762163502203958
  2.8780968944740839  2.8722515946888700 -0.0177610687418910
  4.3054475973033606  4.3040489540395690  1.4278646305926308
  2.8614568878985733  2.8817159481333134  2.8617133181776944
  4.3049427815775765  4.3068700326100062  4.3048589723828830
  2.8801645996442788  2.8825675562861153  5.7419175852222022
  4.3053328135861726  4.3072669549521523  7.1516823401984331
  2.8642345221161953  2.8757078579546063  8.5755509410455701
  4.3039731946473392  4.2962784515679306  9.9995873028203182
  2.8696239879389154  5.7205763234315841 -0.0089417218809661
  4.3058375805310654  7.1371290778786030  1.4275654524169770
  2.8645059317857138  5.7205763889470589  2.8645057215670184
  4.3048589324753994  7.1342825358794144  4.3049429564946937
  2.8687654254981618  5.7205964177843160  5.7254761502295253
  4.3054202778836981  7.1339225314319314  7.1517281211440578
  2.8616886185162187  5.7206046376989388  8.5811895858275218
  4.3038236070511644  7.1448743873349159  9.9994375616189419
  2.8784434191133745  8.5689010492745901 -0.0174149593783232
  4.3153225049655033  9.9890215785553185  1.4591955129786973
  2.8617132843202140  8.5594367309574846  2.8614568932706570
  4.2928104154675211 10.0094382670814586  4.2928370411318761
  2.8801196400951024  8.5586087323789535  5.7417307029398303
  4.3023321241079504 10.0031233631104310  7.1620327904057071
  2.8641861315205999  8.5653898870996716  8.5755899684909540
  4.3271942910535000  9.9866057894045905  9.9758956858780952
  5.6978017122437778  0.0000958848047365 -0.0009142724952135
  7.1517053591353328  1.4324767079086760  1.4303411823616567
  5.7324268886487895  0.0001613453737114  2.8733015631518488
  7.1620327870688598  1.4380292492583437  4.3023322744750603
  5.7221739387679014  0.0000000151982024  5.7221738933096864
  7.1517054945027239  1.4424410859902610  7.1517052630018227
  5.7323663828369318 -0.0000000055509762  8.5710444779985071
  7.1413782041638472  1.4380292378028210 10.0010786422937894
  5.7278208202429122  2.8757627743088641 -0.0035039702699069
  7.1517054078978441  4.3106746288780204  1.4303411751013326
  5.7417307400929403  2.8825440134615108  2.8801196127674600
  7.1517282242759928  4.3072300909348460  4.3054202958977630
  5.7251157939660677  2.8691490541459048  5.7252481620710043
  7.1517055795780164  4.3091743357222319  7.1517055230188653
  5.7441250282076988  2.8802426700544888  8.5592293027037698
  7.1516827234086229  4.3072301488519216  9.9979904392137513
  5.7222210943349960  5.7205480522430694 -0.0010064125444187
  7.1517054074221749  7.1303573076760181  1.4303411646337982
  5.7254762215246444  5.7205562834689516  2.8687654171619483
  7.1516822417941484  7.1338856833334781  4.3053328013447763
  5.7198930053468695  5.7205763477970715  5.7198929664588478
  7.1517053067358649  7.1319783928411082  7.1517054107584013
  5.7262076182356934  5.7205761041121850  8.5772032191485597
  7.1517284729769308  7.1338856723968771  9.9980777941191263
  5.7278598302632195  8.5654448422763192 -0.0035523547758716
  7.1517053470846603 10.0092896500006212  1.4303410515050357
  5.7419177006669990  8.5585851432440876  2.8801645696188216
  7.1622260530146642 10.0030396979569165  4.3019187321141379
  5.7252483293721932  8.5720033270580949  5.7251156276582957
  7.1517054823933153  9.9987116471295927  7.1517053687030465
  5.7441813725637143  8.5609100212421190  8.5592857286783630
  7.1411846282504037 10.0030397042580130 10.0014921212347847
  8.5709838494399158  0.0001614115829435 -0.0126195868968168
  9.9884539793366329  1.4523793917869878  1.4018944446985018
  8.6056091067087799  0.0000958675336398  2.8615964891360752
  9.9758955485649654  1.4545466814095653  4.3271943225091416
  8.5710444550602904  0.0000000497649680  5.7323664162071744
 10.0014919953289869  1.4381129370220851  7.1411846070663065
  8.5812368312667378 -0.0000000786107302  8.5812368216668027
 10.0105737376416588  1.4317144636947823 10.0106003242470880
  8.5616800377263633  2.8825440040188015 -0.0194375235948384
  9.9979633173119336  4.3040489877776906  1.4328174823766813
  8.5755898943836435  2.8757628498914718  2.8641863304586028
  9.9994374150014433  4.2962783382826872  4.3038235487703362
  8.5592856558682335  2.8802425116263590  5.7441814603905677
  9.9980778589538097  4.3072670789800860  7.1517284422375456
  8.5782949088819951  2.8691492377588061  8.5781625504085106
  9.9984679150075291  4.3068701019909748  9.9985520438671021
  8.5779347192077129  5.7205562957568645 -0.0080831532416177
  9.9975729149194308  7.1371290104818028  1.4331168340187550
  8.5811895303423995  5.7205480788374183  2.8616885619380339
  9.9995871009284070  7.1448743914003643  4.3039732798706707
  8.5772031668251731  5.7205762568406930  5.7262076355679374
  9.9979906223679293  7.1339224777941368  7.1516826953881170
  8.5835177225349266  5.7205763114531809  8.5835177337450759
  9.9985518554044024  7.1342825309321558  9.9984678340818984
  8.5614930704978072  8.5585851409091553 -0.0194824733653996
  9.9880883532777283  9.9890216074985130  1.4014867277830931
  8.5755508958168996  8.5654447468870849  2.8642345093573254
  9.9762164382995699  9.9866059247958123  4.3275152667499155
  8.5592293300225943  8.5609101265328427  5.7441250581496641
 10.0010786496047732 10.0031234545023473  7.1413781953656947
  8.5781624567902082  8.5720035008280657  8.5782950471622250
 10.0106003067264027 10.0094381609454999 10.0105736293268563
  2.8763564207103167  0.0000000924770334 -0.0156741367357753
 -0.0156742540983750 -0.0000000633080681  2.8763563820781921
