Fe
 1.0000000000000000
    11.3709228402514260    0.0000000000000000    0.0000000000000000
     0.0000000000000000   11.3709228476134161    0.0000000000000000
     0.0000000000000000    0.0000000000000000   11.3709228463479288
 Fe 
 127
Cartesian
 -0.0000000828828655  0.0116445199472845  0.0116445276867261
  1.3682453499250014  1.4744853543915981  1.4744854855664373
  0.0000001922656752 -0.0405019995755148  2.8427307527114274
  1.3682454661567716  1.4744853759698853  4.2109759360353847
 -0.0000000393281034  0.0116444690597732  5.6738169294604841
  1.4232754385499080  1.4193704623575112  7.1083856042031526
 -0.0000001000194003  0.0087542218901536  8.5281922767602047
  1.4233599862647355  1.4194551315960058  9.9479986813468937
 -0.0000000251936355  2.8427307875149799 -0.0405018290437530
  1.3682453331238573  4.2109760555885352  1.4744853070946422
  1.3682455154500257  4.2109760289637270  4.2109759040916579
 -0.0000000543727986  2.8427308769382247  5.7259634845133371
  1.4233598217619396  4.2660062014178655  7.1083855897155370
 -0.0000001309828400  2.8427307466769491  8.5281920573583001
  1.4232754004799804  4.2660908035553735  9.9479987487254267
 -0.0000000703478744  5.6738169258314288  0.0116445709651837
  1.4233600162355593  7.1083856255471281  1.4194551019603419
  0.0000000235628468  5.7259633272452506  2.8427306295955437
  1.4232754594886134  7.1083856209342731  4.2660908061077762
 -0.0000001345511388  5.6738168535313633  5.6738169435778945
  1.4205664072654232  7.1065258868027259  7.1065679883781536
 -0.0000001405950746  5.6767070750113140  8.5281920496632697
  1.4205664015716419  7.1065680226728745  9.9498585274710578
 -0.0000000171571500  8.5281920450915436  0.0087542823471239
  1.4232756381178324  9.9479986308599226  1.4193707431760600
  0.0000001279987327  8.5281921328735031  2.8427307354288516
  1.4233600905044494  9.9479987059634070  4.2660060109922817
 -0.0000000791501874  8.5281919822243033  5.6767072221614043
  1.4205664037749344  9.9498162121576570  7.1065257734288130
  0.0000000636694627  8.5281922332652496  8.5281919372527799
  1.4205664668620628  9.9498585519722020  9.9498162880285541
  4.2656549465836342  1.4193705701871515  1.4194551831365601
  2.8310859358548002  0.0116445199635022  2.8427307625906377
  4.2656548663524942  1.4194553846788198  4.2660908164221416
  2.8248682925263702  0.0178623126732272  5.6675990209177334
  4.2637950087260954  1.4221645085453205  7.1065680420635813
  2.8379921960397407  0.0047382747857591  8.5281920852669675
  4.2638374349882184  1.4221645890175953  9.9498585288958310
  2.8310862912834471  2.8427306684574263  0.0116445418264737
  4.2656548917897901  4.2660060791382470  1.4193706866129960
  2.8832324491593826  2.8427307656364533  2.8427308400777824
  4.2656547898972264  4.2660907171048343  4.2660061536750700
  2.8310862480705552  2.8427307174346699  5.6738167323285733
  4.2638373778455296  4.2632969617111964  7.1065257550508933
  2.8339766633191150  2.8427306633182781  8.5281921010097417
  4.2637951894427477  4.2632969508889866  9.9498161724624783
  2.8248682516923074  5.6675992114992573  0.0178624604845001
  4.2638373767646067  7.1065257398690260  1.4221643185737847
  2.8310861490550407  5.6738167753542719  2.8427308085855394
  4.2637950051347895  7.1065679433505329  4.2632970878671079
  2.8248683331432813  5.6675991551537930  5.6675989714135353
  4.2562038055078286  7.0989346680158993  7.0989346443004937
  2.8379924043735421  5.6807231773379572  8.5281921485593273
  4.2562040051709502  7.0989345611182006  9.9574496934726220
  2.8379922832169164  8.5281920529720203  0.0047383001751281
  4.2637950095348440  9.9498161861413852  1.4221644039213750
  2.8339765431740740  8.5281922262456398  2.8427308500080035
  4.2638372106255193  9.9498584835297521  4.2632970690928964
  2.8379924113255157  8.5281921454686387  5.6807231617279994
  4.2562038179741029  9.9574496244475483  7.0989346885348086
  2.8407726230131098  8.5281921800604579  8.5281920820303636
  4.2562039570390970  9.9574495013295774  9.9574496771558074
  5.6854615223815461  0.0047383243366380  0.0047384351611292
  7.1052680032945510  1.4194550536778887  1.4193707343905257
  5.6854615276194718  0.0087541553516563  2.8427306514984769
  7.1052680631773191  1.4193706685460896  4.2660061776795875
  5.6854614824754783  0.0047383967961710  5.6807229990119241
  7.1070854865685096  1.4221643138946622  7.1065257703517268
  5.6854614719536345  0.0019581430871627  8.5281921163367471
  7.1071277906232675  1.4221643243069975  9.9498162509686239
  5.6854613160943188  2.8427306780037180  0.0087540054063777
  7.1052679507620304  4.2660909106275815  1.4194553462779200
  5.6854613514767642  2.8427307864868778  2.8427307765876768
  7.1052679164824122  4.2660061886257115  4.2660906240686209
  5.6854613196858566  2.8427306422294198  5.6767072970516210
  7.1071276500370919  4.2632969125292695  7.1065681308340585
  5.6854613332928210  2.8427309043963169  8.5281922078328076
  7.1070852583462409  4.2632970250001536  9.9498582852589941
  5.6854613780454075  5.6807231385304542  0.0047382210885342
  7.1071277548677196  7.1065680338660506  1.4221643357689464
  5.6854614736453950  5.6767072173408151  2.8427307498054764
  7.1070854703082444  7.1065258906806887  4.2632970273986510
  5.6854613893971448  5.6807230665651378  5.6807230978883911
  7.1147188026224999  7.0989348339874390  7.0989344845845110
  5.6854614214663055  5.6835032895379669  8.5281923109888176
  7.1147188468506428  7.0989347236037386  9.9574497564102398
  5.6854614576380884  8.5281921325687033  0.0019579241021080
  7.1070854828313621  9.9498585814191784  1.4221644393917663
  5.6854614728933379  8.5281920174201247  2.8427307175836787
  7.1071279230068232  9.9498161241807512  4.2632971415294341
  5.6854615773647401  8.5281920700174361  5.6835033855518411
  7.1147189368751729  9.9574496740330272  7.0989345457021535
  5.6854615211099722  8.5281920387565631  8.5281921038312216
  7.1147189259683490  9.9574495896065809  9.9574496564603869
  8.5460544886463428  0.0178623385011112  0.0178624292069565
 10.0026772578549448  1.4744855096130387  1.4744853852456647
  8.5398366294140491  0.0116447776839934  2.8427307372580501
 10.0026773147415096  1.4744855400399448  4.2109760414021977
  8.5460544995376324  0.0178624459493043  5.6675990373741296
  9.9475627285045967  1.4194552438486419  7.1083856765766154
  8.5329306566448135  0.0047383579672273  8.5281920704290002
  9.9476473816117021  1.4193706112196389  9.9479986662395863
  8.5398367231595351  2.8427305820561806  0.0116446430943675
 10.0026775517319724  4.2109761247195721  1.4744852757990849
  8.4876902467300592  2.8427306709637681  2.8427307962883410
 10.0026774093069832  4.2109760356495718  4.2109760211709117
  8.5398367338693077  2.8427306322817021  5.6738166660902465
  9.9476474831917123  4.2660908280262584  7.1083856257372791
  8.5369463931806475  2.8427307029121356  8.5281920972792271
  9.9475628213090630  4.2660063792362832  9.9479985517769052
  8.5460545510267831  5.6675992070139181  0.0178624170496585
  9.9476473571869164  7.1083854999282536  1.4193704414479502
  8.5398366033664583  5.6738167094729368  2.8427306374086494
  9.9475629297819079  7.1083855357798402  4.2660062483163594
  8.5460546094931882  5.6675991051188950  5.6675989010536743
  9.9503567035608533  7.1065679675728743  7.1065257356794511
  8.5329305516856273  5.6807230012924146  8.5281921985791858
  9.9503564069476411  7.1065256523522287  9.9498163257829884
  8.5329303992391488  8.5281921996345780  0.0047383810974926
  9.9475627770052721  9.9479986820616570  1.4194551351564784
  8.5369462362140229  8.5281921998988146  2.8427308215930500
  9.9476472996208063  9.9479985798462156  4.2660908059667513
  8.5329303930146523  8.5281921760258204  5.6807229210105499
  9.9503564920246177  9.9498585555188548  7.1065680389108135
  8.5301501306869980  8.5281922417179690  8.5281920387602188
  9.9503565535279730  9.9498163338574273  9.9498585025995840
  2.8248682678698582  0.0178623162835360  0.0178623484126013
