Fe Os
 1.0000000000000000
    11.4002414915677139    0.0000000000000000    0.0000000000000000
     0.0000000000000000   11.4002414939342636    0.0000000000000000
     0.0000000000000000    0.0000000000000000   11.4002414903365441
 Fe  Os 
 126   1
Cartesian
  0.1501527689998820  0.0506802107618490  0.0510092851597251
  0.0458183494276606  0.0375952945469462  2.8041025082521074
  1.4337220283386636  1.4164631872931031  4.3148224825936525
 -0.0059617712063604 -0.0014467972292199  5.6934490005905403
  1.4230087970490695  1.4269597181190683  7.1216632577613410
 -0.0018459231908419 -0.0057460615610610  8.5429043782656393
  1.4061158351686254  1.4441690852972140  9.9081257839547376
  0.0459580116526889  2.8042421099057790  0.0375952721433769
  1.4335972048339825  4.3148224369074502  1.4163381829370878
  0.0481221870042166  2.8019381929212916  2.8019382939868347
  1.4184803838186706  4.2671910085381297  4.2672163184398597
 -0.0065785611555670  2.8567058662274674  5.6977915758672886
  1.4186046634543019  4.2712330905645519  7.1220811046518513
 -0.0110931537424176  2.8612258089993752  8.5393842932296931
  1.4361634787093611  4.2630204757117287  9.9940554499146046
 -0.0058105106680791  5.6934662352841663 -0.0013130016119762
  1.4231006903618733  7.1216632934812578  1.4270516715359542
 -0.0066456505227039  5.6977917026139835  2.8566388525037776
  1.4186007422706124  7.1220864031752766  4.2709734931541838
  0.0004626801252697  5.7003362852684631  5.7002573851388476
  1.4167741415107451  7.1221104807156443  7.1220640141250291
 -0.0021050892030976  5.6967692120998707  8.5473336676839828
  1.4304298127221275  7.1252816056895352  9.9841668129243910
 -0.0019973968321406  8.5429146657373636 -0.0056031723027421
  1.4058913012366172  9.9081257313377762  1.4439444738249809
 -0.0111654858156187  8.5393843605658049  2.8611535798461953
  1.4359150986025586  9.9941580162430661  4.2628925789700913
 -0.0020227087321633  8.5473327811207476  5.6967692654966173
  1.4306124817392196  9.9839810880597728  7.1252067385317872
  0.0018357945826041  8.5513531562272433  8.5513609848055285
  1.4386698845327746  9.9759670733477446  9.9758942588816613
  4.3421760523558390  1.4439445366077102  1.4441691287120419
  2.7993802369755714  0.0510094399112359  2.6999076509815692
  4.2562464043840365  1.4138968113047303  4.2630204918426058
  2.8472303276588251  0.0026856726791800  5.6959388501344890
  4.2661350678781815  1.4196305743146824  7.1252815573069794
  2.8451408888756795  0.0049057876279664  8.5759698472945054
  4.2744075782821751  1.4113904637032695  9.9759669864600546
  2.7990511076774038  2.6999076585483346  0.0506802163817406
  4.2561438547018406  4.2628925249563387  1.4141452719286871
  2.8124649594054580  2.8041024629508264  2.8042420347925598
  4.2665897324121485  4.2647143833800181  4.2645805880282213
  2.8513733727985042  2.8558709676600245  5.6934663057011354
  4.2834479379974653  4.2744600992385537  7.1228455204323078
  2.8556635706012754  2.8520577402738820  8.5429146754011711
  4.2464485332151467  4.2551238244027791 10.0040351216431507
  2.8473747586991158  5.6959388007487748  0.0028300700957448
  4.2663208411985893  7.1252066779288104  1.4194479709565384
  2.8515072571596507  5.6934490474464710  2.8560221489078188
  4.2835007407744881  7.1229127092405946  4.2746473357279466
  2.8502718150548629  5.6999800790577400  5.7000411873852954
  4.2825050241607840  7.1238226974982570  7.1237937975536543
  2.8519299085690042  5.6952435656271740  8.5462311531147854
  4.2602403929364296  7.1313184754752257  9.9898171952160570
  2.8451545616571079  8.5759696938192214  0.0049195082474662
  4.2743348470792757  9.9758943770696451  1.4113904707890479
  2.8558063445894155  8.5429042515042610  2.8519062073339723
  4.2462667935859120 10.0038532581331356  4.2551237912499120
  2.8520546307564922  8.5462250865247977  5.6951758782306863
  4.2604846102066025  9.9900614222323405  7.1313184978974258
  2.8543432459477125  8.5513619089715576  8.5513940508709965
  4.2091052914167939 10.0411966970335786 10.0411965899826257
  5.6743320208001817  0.0049194633722776  0.0049058049178336
  7.1286385536426300  1.4270515982892364  1.4269597413778836
  5.7073872349838517 -0.0056031215305060  2.8520578035699624
  7.1282207740037755  1.4314556933355991  4.2712329161850997
  5.7040706749320371 -0.0018695257315340  5.6952434984884643
  7.1282378432634745  1.4332862945398810  7.1221106123016886
  5.6989078163507090 -0.0042828820974129  8.5513620400587360
  7.1250951017356750  1.4194479889977327  9.9839811108499319
  5.7073975902883269  2.8519061827723715 -0.0057460461460018
  7.1282155427997083  4.2709734755510658  1.4314596414096530
  5.7109175610982579  2.8611535325505590  2.8612258108450579
  7.1287427443772495  4.2772550919518739  4.2772601150853813
  5.7029681852617982  2.8521654827607636  5.6967692413141320
  7.1240416451815269  4.2716497342917519  7.1262178210915925
  5.6989408882436905  2.8482244883840728  8.5513531328997825
  7.1273891228536002  4.2746474096163523  9.9668011635629448
  5.7040767889619897  5.6951758346186514 -0.0019942582776590
  7.1281913420135954  7.1220640321615223  1.4332862861925597
  5.7029690952306531  5.6967692943692576  2.8520829911183689
  7.1240839985690858  7.1262601867795681  4.2716496874868835
  5.6951684408695931  5.6954411959178985  5.6954371015183103
  7.1169831699899451  7.1333187582296365  7.1333188001486389
  5.6917866851914107  5.6955360021366852  8.5584344339429812
  7.1264791851021405  7.1237937537178571  9.9677968621876030
  5.6989398916605127  8.5513940145696417 -0.0042827843588549
  7.1250202004792049  9.9841668479409318  1.4196305355708649
  5.6989487666896954  8.5513609086811702  2.8482245747869230
  7.1274563409185241  9.9668538861783489  4.2744600280711502
  5.6918673074197752  8.5585151721719956  5.6955359963730530
  7.1265081145950422  9.9677968670341528  7.1238226968589196
  5.6774869717681460  8.5728148860156885  8.5728149339049065
  7.1189834070936282  9.9898173390822755  9.9900615040328784
  8.5543630171740617  0.0028301472341733  0.0026856829122777
  9.9354794045273245  1.4163383769352602  1.4164631694683110
  8.5568355539466356 -0.0013130636727051  2.8558708980455072
  9.9830854922342898  1.4315799907102733  4.2671910258041796
  8.5502607932816908 -0.0002113658755608  5.6999802130970911
  9.9793283986010799  1.4314595942395909  7.1220862537484901
  8.5551260545492891 -0.0019943613142108  8.5462250677349996
  9.9874093190711051  1.4141451974396397  9.9941580225100370
  8.5568527053180343  2.8560222284146901 -0.0014467996383278
  9.9831108398360193  4.2672164328970821  1.4315799985320798
  8.5525102294324373  2.8566389142391948  2.8567059591764239
  9.9855226253046485  4.2647792024977909  4.2647792165521503
  8.5500445227267097  2.8495976973763963  5.7003362585872637
  9.9730467153570537  4.2772601240968919  7.1215591320238234
  8.5535325919748200  2.8520831926868806  8.5473328024279684
  9.9855874249140246  4.2645805853983925  9.9837121783491831
  8.5503217232437798  5.7000410919359945 -0.0002115082221115
  9.9790688223258464  7.1220809815575974  1.4314557664631791
  8.5499656059501543  5.7002573820055309  2.8495976535817089
  9.9730418181558118  7.1215591562021583  4.2772550543771990
  8.5505521030167593  5.6997497754738227  5.6997497092257534
  9.9786521601281937  7.1262179193501805  7.1262601740261262
  8.5548606444161539  5.6954370678015787  8.5551334287067338
  9.9758418087191369  7.1228456003823259  9.9668538055816374
  8.5550582968173803  8.5462311899155399 -0.0018695020105057
  9.9872812778334001  9.9940554624555080  1.4138968755740835
  8.5535325960413591  8.5473337005337271  2.8521654580346660
  9.9857213112637790  9.9837121180657977  4.2647144143887212
  8.5548648186288805  8.5551334590505714  5.6954412526100846
  9.9756544932041784  9.9668011233112868  7.1229127693699557
  8.5547658261619262  8.5584344313377656  8.5585151707845686
  9.9951779269415102 10.0040350689889621 10.0038533387815463
  2.7936724028968629  0.0563880002811039  0.0563878399634534
