Fe Cu
 1.0000000000000000
    11.3763999059754077    0.0000000000000000    0.0000000000000000
     0.0000000000000000   11.3759697740883130    0.0000000000000000
     0.0000000000000000    0.0000000000000000   11.3763999088864551
 Fe  Cu 
 126   1
Cartesian
  0.0326786809098242  0.0100471551335694 -0.0000504424522148
  1.4565195338372063  1.4622051479376232  1.3872690612821954
  0.0008743174274872  0.0104032773193632  2.8431195063656918
  1.4181470219403862  1.4179673752317745  4.2536479593239997
  0.0020132783354587  0.0016681487552141  5.6882153979049939
  1.4183155716447717  1.4180940975446916  7.1226311343948474
  0.0009806084878252  0.0104033487445461  8.5331742406863036
  1.4568310104358970  1.4622052192660102  9.9888195167519065
 -0.0508941349828936  2.8568107552566540 -0.0000882332151851
  1.4722946513359347  4.2013138834990285  1.3717771834330381
 -0.0028675358605523  2.8589984036955145  2.8470025222764779
  1.4184314864334686  4.2747744551260167  4.2724439333277742
  0.0115747625668293  2.8419907493718051  5.6881475010439111
  1.4184713594181129  4.2745936382077474  7.1039905906898495
 -0.0029025135148240  2.8589984496101781  8.5294324324435546
  1.4723228626439275  4.2013139280328611 10.0045946447818768
  0.0158913753645230  5.6787685900843980  0.0000202437918155
  1.4150853603201439  7.1263880960610706  1.4289072579181681
  0.0213767554299724  5.6736879971533059  2.8227325317086609
  1.4226875505828807  7.1023805530608843  4.2732734679755815
  0.0038727337150298  5.6838995760616173  5.6882001836996432
  1.4226683227204149  7.1022092777922285  7.1031406176106175
  0.0213674545546115  5.6736881053373169  8.5536767450158315
  1.4151927569350899  7.1263882641040190  9.9473852150584605
 -0.0008149546466475  8.5256466060363341  0.0000024793754277
  1.4251181348656554  9.9674453265054090  1.4189740081182767
 -0.0111292134355585  8.5200004290251563  2.8552312374511524
  1.4212819597846427  9.9511235532501150  4.2559690414310927
  0.0057794595245936  8.5341006798171541  5.6881599410383137
  1.4211018283863759  9.9512593436242831  7.1204040567065769
 -0.0111313614350814  8.5200003860357398  8.5211708260956271
  1.4251258672428959  9.9674453572393933  9.9574181640906989
  4.2313689736416658  1.4622051606773296  1.3875805823193157
  2.8440494903551041  0.0100471004411853  2.8114213708097400
  4.2698843962493100  1.4180939564711195  4.2537688066234818
  2.8441000080760683  0.0074064621120832  5.6882000296903650
  4.2700529275352199  1.4179674607103643  7.1227520043654211
  2.8441504215738700  0.0100471921548157  8.5649785440067543
  4.2316805189165700  1.4622052027281549  9.9891308729892963
  4.2158770296498531  4.2013138274257500  1.3718052256601969
  2.8440118005445543  2.8568107059038086  2.8949941453815335
  4.2697285692237097  4.2745936414151871  4.2724092955653443
  2.8441000038166009  2.8446220361181855  5.6881999430650270
  4.2697685182234073  4.2747744395753822  7.1039559111840029
  2.8441881940097482  2.8568107507584819  8.4814057875240874
  4.2159052662314638  4.2013138527931169 10.0046227295219126
  2.8440999933943609  5.7325925485289604 -0.0000000702815653
  4.2730072416878722  7.1263880884792483  1.4290146367014485
  2.8441202513044663  5.6787686171989362  2.8282084985933253
  4.2655316519171826  7.1022092424669845  4.2732593426327670
  2.8440999927226769  5.6775310210360281  5.6881999585156633
  4.2655124025899909  7.1023805359350725  7.1031264010337640
  2.8440797105633262  5.6787686198568155  8.5481912753489357
  4.2731146578178532  7.1263881540489198  9.9474927054847999
  2.8441000069739735  8.5556770719367439  0.0000000276564263
  4.2630740908417568  9.9674453159568337  1.4189818214320051
  2.8441025219106897  8.5256467356356183  2.8449147503766565
  4.2670980813962567  9.9512594186480836  4.2559958696924109
  2.8440999683665060  8.5320905561853895  5.6881999426422523
  4.2669179241575996  9.9511235305084931  7.1204309102091212
  2.8440975679031739  8.5256467418536186  8.5314850909557922
  4.2630816983559763  9.9674453160503127  9.9574258239172018
  5.6555211743359539  0.0100471479635611  0.0000504719090177
  7.0977478082246392  1.4179673946883731  1.4259529666534396
  5.6872195776128773  0.0104032394297894  2.8432257401470968
  7.1179748143412604  1.4256716388025163  4.2738300484432630
  5.6861866697334618  0.0016681747949602  5.6881846114007582
  7.1179299638760245  1.4256716575266153  7.1025251464224741
  5.6873255822515345  0.0104032784042146  8.5332803697300079
  7.0978686414761594  1.4180939763081630  9.9506155451628420
  5.7390940514967470  2.8568107454495815  0.0000882537889798
  7.1165438849455818  4.2747744494290743  1.4256684589728403
  5.6911024253480935  2.8589984367149066  2.8469675359472948
  7.1120314341437769  4.2679875027141572  4.2678757447957283
  5.6766251529066238  2.8419907605124983  5.6882524079611327
  7.1119757089521478  4.2679874559919266  7.1084685246180861
  5.6910674585195968  2.8589985097850632  8.5293974278313822
  7.1165092684593070  4.2745936497147952  9.9507713491639525
  5.6723085145709762  5.6787686625814535 -0.0000202737615761
  7.1173735862050069  7.1023805823145407  1.4214124902700667
  5.6668325133027677  5.6736880380718171  2.8227231820994225
  7.1034829227923479  7.1002024205856973  4.2593944033730278
  5.6843272976009667  5.6838994907567573  5.6881997938901998
  7.1034943044803951  7.1002025168207643  7.1170169721073089
  5.6668231800491959  5.6736880577624671  8.5536673901933540
  7.1173591556846887  7.1022093169133012  9.9549683162212688
  5.6890147914044622  8.5256467973045265 -0.0000024281374322
  7.1000690045851513  9.9511236306344752  1.4228179793772349
  5.6993313334187503  8.5200004238776703  2.8552291002279055
  7.1137380163220874  9.9563663416853618  4.2697401678592080
  5.6824204224737827  8.5341006990865669  5.6882400136287377
  7.1138399817057225  9.9563663968701768  7.1067619117035585
  5.6993290570800479  8.5200004257305952  8.5211685933145400
  7.1000957430573619  9.9512594192844368  9.9534017599302782
  8.5322998488694619  0.0074064583156229 -0.0000001025697915
  9.9667312031638229  1.4180939672501598  1.4257843085183781
  8.5323153298647529  0.0016681851033423  2.8420866913303637
  9.9466698276119363  1.4256716473116438  4.2738748888483151
  8.5322999170370846  0.0053400611807053  5.6881999808295252
  9.9466250327339676  1.4256716293749419  7.1025699210699527
  8.5322844670164972  0.0016681525023912  8.5343132113865412
  9.9668520109123175  1.4179673533320769  9.9504469587897830
  8.5322999624163103  2.8446220319175839 -0.0000001037528753
  9.9480905708020906  4.2745935882189405  1.4256286167091246
  8.5322474387974978  2.8419907502134487  2.8325251110657317
  9.9526242039559207  4.2679875145888797  4.2679313685836062
  8.5322999697681485  2.8478295583389879  5.6882000358323879
  9.9525685788066660  4.2679876199797153  7.1085241812425961
  8.5323524148220873  2.8419906926696017  8.5438746795733174
  9.9480560223668650  4.2747743729652443  9.9507312746456105
  8.5322998933226000  5.6775309716631428 -0.0000000981317930
  9.9472406346265991  7.1022090834367617  1.4214316349691309
  8.5323002141120821  5.6838995299263670  2.8402272748000645
  9.9611055883366859  7.1002024980744540  4.2593829482277386
  8.5322999211778505  5.6852242933619923  5.6881999383342290
  9.9611168212875292  7.1002024695581456  7.1170055623701884
  8.5322995884777537  5.6838995536059862  8.5361726375825953
  9.9472262323848586  7.1023805359185408  9.9549874217641001
  8.5322999549478578  8.5320905646347374  0.0000000868485372
  9.9645040405954148  9.9512594889964348  1.4229981381600170
  8.5322600089443981  8.5341007651200584  2.8383204524282220
  9.9507598127993688  9.9563663595616241  4.2696380925424364
  8.5322999155936561  8.5247002679720865  5.6881999070635905
  9.9508618363241066  9.9563663578665125  7.1066599285021637
  8.5323398115466507  8.5341007143114389  8.5380794798582613
  9.9645308662729324  9.9511235983288167  9.9535819385224560
  2.8440999677539343 -0.0483712986972181  0.0000000286819158
