Fe Tc
 1.0000000000000000
    11.3928561670348856    0.0000000000000000    0.0000000000000000
     0.0000000000000000   11.3698723079738926    0.0000000000000000
     0.0000000000000000    0.0000000000000000   11.3928561743790215
 Fe  Tc 
 126   1
Cartesian
  0.0486255991736314 -0.0000152527462532 -0.0411305081480227
  1.3415164679348295  1.3498636976798641  1.5059207210757546
  1.3794474349890002  1.3490267157081046  4.2118111838755858
 -0.0030919454229990 -0.0001205637608276  5.7429044512186760
  1.4318933405640757  1.4133098338412626  7.1322554185810265
  0.0031433894043342  0.0001069460133141  8.5524868147869952
  1.3885202203626634  1.4435060319766138  9.9249258419063828
  0.0174557268980552  2.8056898289743741  0.0160098414381623
  1.4395791582118049  4.2530994470432484  1.4086279852953518
 -0.0066666129477366  2.8837195176526791  2.8548076034212055
  1.4245915975516377  4.2652237574643443  4.2745695413086793
  0.0021952050268404  2.8254864270483613  5.6843843484889680
  1.4212408069010292  4.2647612871763112  7.1195924149711844
 -0.0069920626542163  2.8445458645039952  8.5373268764787191
  1.4302153958823720  4.2494165147291580  9.9810446934888102
  0.0085714661777170  5.6849230636527777  0.0112129213170819
  1.4395861002908519  7.1167726755039631  1.4086345981096426
  0.0042725820413464  5.6849362892234323  2.8439413671172940
  1.4246365843908224  7.1045148855947637  4.2744187628744061
  0.0108290933575906  5.6849788810636488  5.6870853251808722
  1.4211903410701054  7.1050966544964913  7.1195640278512693
  0.0033660133288526  5.6849833891996981  8.5512323121346316
  1.4302077641346052  7.1205266511926339  9.9811363226298386
  0.0174477437402950  8.5642782427515360  0.0159275981194374
  1.3422937319399046 10.0200090293709838  1.5066973053237425
 -0.0065936224746477  8.4861528175137639  2.8548809133293380
  1.3792907502055416 10.0209336924241903  4.2120215596642927
  0.0020840946043709  8.5444662590081712  5.6842993001292950
  1.4320053736593195  9.9562932071779695  7.1324774806806470
 -0.0070769079976716  8.5253685238363222  8.5373835281331250
  1.3885494425185692  9.9264163077696548  9.9248849380390709
  4.3161858234605672  1.4434564072143643  1.4596651421604288
  2.8893446722564211  0.0000150848624546  2.7995885465161456
  4.2719445832844878  1.4192190498807664  4.2704874951768357
  2.8350733546394307 -0.0001270830538013  5.6874130517719488
  4.2678691111774318  1.4155624296970659  7.1230807582124864
  2.8534158363574966 -0.0000237462369933  8.6081510750748560
  4.3155928394170333  1.4560823253611874  9.9254798080979665
  2.8274966764110512  2.7380574705574192  0.0204495754063981
  4.2599337892572358  4.2493453829866130  1.4180063886380958
  2.8322865607951146  2.8055937913133189  2.8307662573944876
  4.2691645164815375  4.2609289062486013  4.2694992291393525
  2.8243402253346068  2.8187160685525883  5.6791634559305040
  4.2628485135656691  4.2576758547252016  7.1127959641849712
  2.8434151337747693  2.8186245036585573  8.5628358441061287
  4.2539911753193671  4.2450824719492557  9.9870851917046704
  2.8442217528377185  5.6849361565430714  0.0039923871288136
  4.2600254968406874  7.1204556370154028  1.4179987435234851
  2.8370010175917977  5.6849493651009384  2.8396424537766061
  4.2692414561922112  7.1088906709958346  4.2695647709624058
  2.8438421756328327  5.6849826918213546  5.6908890340453357
  4.2629474967698240  7.1121767996395002  7.1127565964381763
  2.8428142701593386  5.6849357536830682  8.5558208890356795
  4.2539851642901798  7.1247898175542348  9.9870790584253353
  2.8277642812832782  8.6318148275223674  0.0207173106819477
  4.3161445392774089  9.9263659117873235  1.4596938646863673
  2.8322042477454672  8.5641825144921278  2.8307585219302758
  4.2718468395067415  9.9504609359414840  4.2706551764100311
  2.8242824087274454  8.5511039576856476  5.6792886647480909
  4.2679806242813143  9.9543773168908380  7.1231917650078094
  2.8434453059578804  8.5510598399944637  8.5628721287351297
  4.3155902763639258  9.9137899536057006  9.9254777803325016
  5.6329193183170174  0.0000235783176798 -0.0052017725400072
  7.1085925955199523  1.4135790079540103  1.4162085172880909
  5.6885832985967086 -0.0001067208272643  2.8450703410574585
  7.1185109437061387  1.4301450231402619  4.2814096899114222
  5.6935250635662769 -0.0000193889286682  5.6889790518834431
  7.1239950332092770  1.4266726885881320  7.1171129309422030
  5.6828267034644799  0.0000000852447649  8.5582437085286607
  7.1178782175679602  1.4154948943547625  9.9730892950267194
  5.6781978117179266  2.8188125436604206  0.0047686938460073
  7.1215063087173389  4.2647756174498443  1.4270236206301099
  5.7036865370947929  2.8445035690328884  2.8552905794128840
  7.1223378929963470  4.2681439434204691  4.2724004937121807
  5.6923748048690683  2.8421734035676947  5.6929841820936096
  7.1315833227236549  4.2636208899066643  7.1094947227518119
  5.7061455108263681  2.8538276939711276  8.5348746178907220
  7.1283136113489975  4.2576954729885852  9.9781228121585084
  5.6852495344313301  5.6849366355357880  0.0053995900000903
  7.1214778181326031  7.1051110440350840  1.4269732802136588
  5.6898379848452940  5.6848885685417292  2.8448480152360327
  7.1222777985992431  7.1016323386362918  4.2724050521246211
  5.6827988173810020  5.6848824626958274  5.6915395490676657
  7.1315755841583579  7.1062513796186426  7.1094869655848854
  5.6914520690779886  5.6849362911282793  8.5496181872871979
  7.1282742098682039  7.1121964882546562  9.9782216761741402
  5.6782344239928859  8.5512477115842511  0.0047990014273199
  7.1088147622476594  9.9565624262799659  1.4163207305054555
  5.7037430702121332  8.5253266269449615  2.8552060466910389
  7.1185041874841950  9.9396474135961785  4.2812570717185610
  5.6924108316730377  8.5276382593160616  5.6929618429586863
  7.1239573715213300  9.9431995731315812  7.1170749373309983
  5.7061956911280207  8.5160444071500425  8.5349246798654104
  7.1179894249042910  9.9543099250434945  9.9732012733168105
  8.5536571650594784  0.0001270170154514  0.0131406282322596
 10.0290488104984910  1.3489387449904959  1.4689233848812662
  8.4981657927400942  0.0001205913386960  2.8513058583722541
 10.0158311679327738  1.3731142269500602  4.2255732745657912
  8.5576001547716594 -0.0000000255511789  5.6834702825109060
  9.9598133559117716  1.4302249226695363  7.1225659522235070
  8.5520911423708696  0.0000192586499054  8.5475451725873430
  9.9704148059418944  1.4194114897891523  9.9692234328268245
  8.5617818346077925  2.8187684952265490  0.0239317387195190
  9.9666513255443530  4.2653572854430184  1.4235776031655618
  8.5567710656206248  2.8254060222520443  2.8461298581131462
  9.9671755657094234  4.2690323832980512  4.2738483506186400
  8.5649650455084316  2.8227967345859248  5.6761193513517751
  9.9686653263994263  4.2682400456050997  7.1187923500087411
  8.5481084608984865  2.8422341408652345  8.5486592457604846
  9.9715056504481687  4.2609817044255687  9.9718287024830481
  8.5501811254430873  5.6848897687941164  0.0043719430831784
  9.9665007400981747  7.1046483629818811  1.4236223698169872
  8.5539848835440999  5.6848935584829734  2.8373850263699558
  9.9672217835326382  7.1008397025501191  4.2738945361875826
  8.5505225592291652  5.6849361161631924  5.6905477693267583
  9.9686699421482370  7.1017283591231131  7.1187324347212053
  8.5495305558279746  5.6849900404865972  8.5582714304237317
  9.9715708342783262  7.1089436248396307  9.9719056664195982
  8.5619070563083337  8.5511562554754175  0.0238738217749408
 10.0292589358543847 10.0208457569797300  1.4687666144248090
  8.5566859786712932  8.5443859049102677  2.8460188816208829
 10.0154969115217920  9.9967582566304500  4.2252390515378666
  8.5649511342262574  8.5470756690140171  5.6761052776263634
  9.9596606301229915  9.9397274339677626  7.1225592417246553
  8.5480860483895320  8.5276988912430074  8.5486956009695270
  9.9705823078397149  9.9506533130477433  9.9691255961372054
  2.8805445023637799 -0.0000002382270459 -0.0323311471406433
