Fe Zr
 1.0000000000000000
    11.3676813633408003    0.0000000000000000    0.0000000000000000
     0.0000000000000000   11.3859442059081140    0.0000000000000000
     0.0000000000000000    0.0000000000000000   11.3677230133062555
 Fe  Zr 
 126   1
Cartesian
 -0.0223400994697117  0.0024336764203107 -0.0029341661840094
  1.3303534129775616  1.4905931660464522  1.5113753279423683
  0.0106605713852291 -0.0079557650956818  2.8314575782101015
  1.4187170782383474  1.4365623373669567  4.2444175171923453
 -0.0045904655153852  0.0045503625556682  5.6845667555939787
  1.4235744494143612  1.4291025676065416  7.1232689588410825
  0.0179762654151394  0.0063761876589290  8.5489705570131704
  1.3291868538045002  1.5369080106039106  9.8748568027378472
  0.0764952030583268  2.8816661334832547  0.0596137109291573
  0.0250118053352287  2.9278142776630962  2.8171752278031668
  1.4229319623467385  4.2729275416306631  4.3015254180897129
 -0.0064294388692953  2.8521162037240453  5.6848582090591391
  1.4227376274516872  4.2719617786698434  7.1071101365891769
 -0.0288348620353377  2.8716495703557232  8.4974463345435858
  1.4236818000650915  4.2617780998611119  9.9016219132911729
  0.0528594329895962  5.6410277350123685  0.0509742691026756
  1.4153005597008401  7.1700422034235078  1.4267594598330253
  0.0401645072795844  5.6460478167555417  2.8017755432910940
  1.4205553304427769  7.1059213576070475  4.2515710392900861
 -0.0023868238379011  5.6933145875933686  5.6856636646045837
  1.4204496698519622  7.1090813115252187  7.1051302232300850
 -0.0113148878917665  5.6979620560320976  8.5172161076080926
  1.4171883702261285  7.1203325777922801  9.9534504280032401
  0.0147941710014813  8.5607221228893309  0.0002780707754486
  1.3210007596623734  9.8783006406238201  1.5207197093419009
 -0.0336097314430893  8.5171465413191481  2.8754044187188135
  1.4206792368373249  9.9630158869059890  4.2442237867219337
 -0.0063002440396349  8.5340232890801389  5.6853497567569837
  1.4182193660943623  9.9641783681733518  7.1201109103988713
 -0.0318441239138862  8.5088807290664228  8.4945079554209961
  1.3040194084246575  9.8568161775933927  9.8399590277053157
  4.3349164632152650  1.5368535666147336  1.5127906407921157
  2.8447203942193582  0.0024860750061114  2.8640748756233148
  4.2414435178897198  1.4477121813717557  4.2322533112205685
  2.8429179761302592  0.0006022970830042  5.6831946710713863
  4.2572650986321303  1.4302390719413025  7.1196625121541190
  2.8419549101293073 -0.0001187258300598  8.4913319031586045
  4.3335803604775993  1.5386403494893484  9.8759728530286957
  2.7636748432506955  2.9003436178900062  0.0780106775934190
  4.3080715399050957  4.2618334941807827  1.4185384230450484
  2.7821785666490686  2.8818226875996316  2.7651891204932189
  4.2440236273346690  4.2683401574948237  4.2462156520335190
  2.8405723362873259  2.8527228020850393  5.6825931617576213
  4.2501816916005675  4.2669076266003234  7.1086796375534309
  2.8443730322990293  2.8282579115754340  8.5413988612094212
  4.2452535220285599  4.2614399025860505  9.9644463958333063
  2.7939500281671483  5.6572715047433970  0.0481168198600158
  4.2563600045885703  7.1202756511772121  1.4246430625720523
  2.7909709279720532  5.6412603438124478  2.7893160575346845
  4.2428270917545969  7.1027625861085406  4.2431062759330214
  2.8446656494355671  5.6970129077088902  5.6845374187035240
  4.2571555745767551  7.1135482082027064  7.1090549146145294
  2.8449736879857959  5.7016303874533039  8.5208823769711390
  4.2516997284701130  7.1187176692265446  9.9579597548218306
  2.8445041366961794  8.4886430768685148 -0.0023905503221392
  4.3700457555005761  9.8568434508425238  1.5382938871545446
  2.8418303932553513  8.5607150065311686  2.8270404496024963
  4.2627037951562317  9.9602222200744599  4.2440140546479936
  2.8408716193347843  8.5358827254503709  5.6870922080566739
  4.2640264032818109  9.9618621333984443  7.1236250175992621
  2.8383710063494201  8.5524277396925417  8.5399988715185344
  4.4016275492696995  9.8258649259303752  9.8077446984714172
  5.7185911659404445 -0.0002504531575140 -0.0003323611391480
  7.0863077471406326  1.4291848525578483  1.4181722824181529
  5.6609005649005004  0.0065703849209759  2.8239307715002964
  7.1002469084517070  1.4297598319475942  4.2560786671174959
  5.6769245318155246  0.0131146533801062  5.6752283370941310
  7.1012772953096910  1.4294461176100173  7.1082466651672425
  5.6598622563814116  0.0163615190650527  8.5496853255888965
  7.0898117909704226  1.4302318012026287  9.9522488645548695
  5.6679389378768823  2.8281298955149734 -0.0022796245041294
  7.1023976803290578  4.2719134281620788  1.4191164342919036
  5.7122290178841473  2.8715699101230654  2.8709062052188550
  7.1142159895828616  4.2791868992604707  4.2667611992391539
  5.6862231776841865  2.8546555250769154  5.6837777914679473
  7.1160997851511398  4.2799022959133612  7.0935114113513826
  5.7066530198201031  2.8739586558755921  8.5029279206098867
  7.1009269268257063  4.2668008480115374  9.9594369157082898
  5.6888505900498254  5.7014482298638764 -0.0030875336087751
  7.1043924960135270  7.1090741365309578  1.4214464408112246
  5.6924393287873896  5.6980401513941379  2.8532969818987350
  7.1189812581114902  7.0958784405368363  4.2740856963949128
  5.6773377487872931  5.6893689450954410  5.6813551644227323
  7.1240243736603439  7.0912433855710857  7.0856020121234309
  5.6902236953386671  5.6934547613084208  8.5194323648873169
  7.1006048016331507  7.1136146693666840  9.9525322706472519
  5.6695502221298639  8.5524677320322464  0.0035856542550235
  7.0895071813509469  9.9642347026009279  1.4237938768137286
  5.7152126436645689  8.5088203113005498  2.8738667301009562
  7.1009786927654517  9.9686687329389372  4.2589504261042812
  5.6833744139197329  8.5251050096266798  5.6789439860018005
  7.1012057495313936  9.9702077687541628  7.1083412740832532
  5.7181262453060526  8.4923208437535305  8.4914950894046832
  7.0858998290705353  9.9618347932613691  9.9456544823998225
  8.5263561445013476  0.0006833789859252 -0.0008980765080326
  9.9653062828186805  1.4365707901919134  1.4232081054596406
  8.5251158749661045  0.0045964354815053  2.8465427196488386
  9.9663023589877557  1.4468793070428143  4.2434295054458504
  8.5324741830506863  0.0145615171176101  5.6771685627549591
  9.9535503157774805  1.4297077986323445  7.1095271512553655
  8.5343201101302224  0.0130642162250058  8.5326935730351732
  9.9771767621104264  1.4478081578614646  9.9681030709396161
  8.5270348938324041  2.8527014578623340  0.0010779599785950
  9.9080882866486100  4.2728419326433427  1.4188918590211623
  8.5247443697918772  2.8519867940752666  2.8481104183138850
  9.9464641274576078  4.2804497307412257  4.2630204545011736
  8.5265595791825337  2.8468244006923666  5.6830133264954990
  9.9429252742609400  4.2792626951323252  7.0954471687625942
  8.5257943604204893  2.8546735819696636  8.5232292630620492
  9.9634483204725317  4.2684118447305925  9.9654559973004293
  8.5250949046016231  5.6969832927840223 -0.0026752502469630
  9.9580428831357146  7.1057508416168611  1.4213350041411352
  8.5239129721468441  5.6932460174498889  2.8443294620976078
  9.9493220199733212  7.0887829211171001  4.2602648244535688
  8.5299462654181291  5.6835056309133689  5.6797591388539956
  9.9356271671135783  7.0958577963153342  7.0907226165320596
  8.5281926218545774  5.6893276898584393  8.5323361016543906
  9.9666062506909601  7.1027226990985817  9.9668549441253536
  8.5224803006023340  8.5359625840585629  0.0009884383433279
  9.9653722811621162  9.9629926176284780  1.4211663632136178
  8.5242563866883305  8.5339408332161923  2.8482028800277539
  9.9485957179880291  9.9655336494215732  4.2609446356579932
  8.5317446209127166  8.5370475709554512  5.6779465383688210
  9.9506701490886993  9.9686415094048488  7.1086994767306670
  8.5306182059373956  8.5250834313374213  8.5262790807669582
  9.9655527174875846  9.9601771588205423  9.9468398119256030
  2.8855669956047683 -0.0980750925428251 -0.0430188994134625
