Fe W 
 1.0000000000000000
    11.3862345709727482    0.0000000000000000    0.0000000000000000
     0.0000000000000000   11.3875193574360143    0.0000000000000000
     0.0000000000000000    0.0000000000000000   11.3862345797274020
 Fe  W  
 126   1
Cartesian
  0.0118783750347680  0.0119360448902514  0.0000437676648648
  1.4400084189979589  1.4946585876924954  1.4071043723954799
  0.0163456413782696  0.0144078533095812  2.8301419444899381
  1.4145929679335614  1.4269494141925545  4.2631332005849290
  0.0095665610133333  0.0044791801976499  5.6931342139603833
  1.4145776905302925  1.4268769919868001  7.1232112632964508
  0.0164166475681380  0.0144078531007498  8.5560215909486725
  1.4394542457624042  1.4946586196898606  9.9796843221488025
 -0.0444720740802666  2.8525279772095367 -0.0000624730986359
  1.4713917959282110  4.2189202090436773  1.3751529477277544
 -0.0071983507193646  2.8676435026396141  2.8537997238518518
  1.4217044625274806  4.2730758592024252  4.2700518308810871
  0.0038824164106709  2.8510182215734372  5.6931641964142852
  1.4217017493252699  4.2730037709470174  7.1160853200172678
 -0.0072411251684339  2.8676434484827231  8.5324775647442515
  1.4714056776391129  4.2189202913449773 10.0110677750537764
  0.0143045463471255  5.6850417178235277  0.0000060872024895
  1.4124794641729472  7.1239281784592965  1.4342907411061063
  0.0115911417058851  5.6783558085296137  2.8349831391939775
  1.4225781159926640  7.1184315499239164  4.2699005585920329
  0.0057928279036467  5.6896059907816410  5.6930974630115196
  1.4225479637952536  7.1183308356438966  7.1162400816078435
  0.0115755141635444  5.6783558237276042  8.5512670637191199
  1.4122679543555203  7.1239281542433419  9.9521554275962920
  0.0034184143313601  8.5402759472843250  0.0000766138413274
  1.3903129845607776  9.9185259514760862  1.4562005757171603
 -0.0140135658609982  8.5268429959042624  2.8604871131732819
  1.4199370998040157  9.9583547153437344  4.2644128288551899
 -0.0029611794622079  8.5378822739910412  5.6930526348316999
  1.4199724548862034  9.9580697450337947  7.1217497864462560
 -0.0139284210584877  8.5268430134486213  8.5256623528635682
  1.3903580305351375  9.9185259558409804  9.9299889494047644
  4.2536630161754427  1.4946585418633147  1.4065503021841304
  2.8466023820424105  0.0119360500553221  2.8346803901932542
  4.2785396482300566  1.4268769637205612  4.2630233382388019
  2.8465586694735916  0.0090782234146643  5.6931173086675493
  4.2785242827446579  1.4269494430497816  7.1231013788446216
  2.8465148968731073  0.0119360740006189  8.5515542661247999
  4.2531089536873079  1.4946586122852135  9.9791302145199055
  4.2217115790247695  4.2189202302341249  1.3751668921296702
  2.8464961099155945  2.8525278936555956  2.8910307319511017
  4.2714155421224449  4.2730037025003824  4.2701491834762937
  2.8465586704628758  2.8404935635448658  5.6931172093587934
  4.2714128737982628  4.2730758018324693  7.1161827145931005
  2.8466211674470325  2.8525279793377600  8.4952039412200282
  4.2217254374435225  4.2189202378964596 10.0110816302263750
  2.8465586133839174  5.7370213853650842  0.0000000446159571
  4.2808493643865608  7.1239282026509105  1.4340791612471371
  2.8465647343923504  5.6850417056059612  2.8322540269237213
  4.2705692870590743  7.1183308045734544  4.2699945258528045
  2.8465586409466836  5.6878523391371605  5.6931173078099953
  4.2705391528068173  7.1184315220495469  7.1163341231684791
  2.8465525508091587  5.6850416870668035  8.5539805192648721
  4.2806377709564742  7.1239281882769632  9.9519439178103770
  2.8465586478125058  8.5326714288376113  0.0000000672012493
  4.3027591712517710  9.9185260015440182  1.4562457081760878
  2.8466352704027749  8.5402758663473151  2.8431402323909540
  4.2731448441290771  9.9580696795334678  4.2644848046513877
  2.8465586638944074  8.5454855598049821  5.6931172720860257
  4.2731801602966133  9.9583546894933246  7.1218217694727697
  2.8464820126273040  8.5402758694553906  8.5430943486963198
  4.3028043615980751  9.9185259117331679  9.9300340291986178
  5.6812389535535592  0.0119360496864698 -0.0000438012701989
  7.1096918309981678  1.4269493599027832  1.4319656488387895
  5.6767005738557277  0.0144078310303458  2.8302130466942259
  7.1144254320262643  1.4240235912407964  4.2679050958481497
  5.6835507563600238  0.0044791431670947  5.6931003913831937
  7.1144636357872848  1.4240236640877266  7.1183678559773158
  5.6767717013681782  0.0144078402669728  8.5560926665864852
  7.1095819506363389  1.4268769763446094  9.9542536200116292
  5.7375893227995132  2.8525279627080016  0.0000626364972629
  7.1166105203781465  4.2730759062815107  1.4248542477815949
  5.7003583905436406  2.8676434237006307  2.8537570310041791
  7.1216691806754335  4.2753347551948417  4.2751230600533212
  5.6892348713223262  2.8510181814506175  5.6930703555984916
  7.1216817356281759  4.2753347800760491  7.1111241287692950
  5.7003156385054057  2.8676434785187124  8.5324348497517786
  7.1167078665470092  4.2730037756090979  9.9613776963653695
  5.6788127258322074  5.6850417078700701 -0.0000060841278867
  7.1164591100138672  7.1184315356713395  1.4239804798753808
  5.6815417695110453  5.6783557916532663  2.8349674839971737
  7.1140459488683758  7.1043785848007515  4.2674745702781305
  5.6873245058599311  5.6896059983309550  5.6931372147854731
  7.1140332735753002  7.1043785949295524  7.1187472386432686
  5.6815261105382406  5.6783558251917583  8.5512514224757012
  7.1165530574927338  7.1183308550628803  9.9622238874869460
  5.6896988551308949  8.5402759268958999 -0.0000765532596111
  7.1109713941939257  9.9583546978793152  1.4266215457193294
  5.7070456669249774  8.5268429681763607  2.8605721456611795
  7.1082687512693941  9.9735026320899554  4.2617274563057030
  5.6960784571642948  8.5378821874812214  5.6931819994011503
  7.1082861045067602  9.9735026088682499  7.1245244653399391
  5.7071308596015697  8.5268429981785392  8.5257474843784120
  7.1110434372153719  9.9580697200193544  9.9596483517089460
  8.5396758942190445  0.0090781433212804  0.0000000169786561
  9.9697698898253737  1.4268769895184987  1.4319809745712722
  8.5396928278122086  0.0044791504601518  2.8369920925312933
  9.9648881944508041  1.4240236641579076  4.2678667696302135
  8.5396759247263851  0.0034774917650969  5.6931172847527698
  9.9649265143067378  1.4240236666045547  7.1183295305613274
  8.5396590350981025  0.0044791528399065  8.5492424938294480
  9.9696600466945871  1.4269494386814725  9.9542689906457866
  8.5396759006973966  2.8404935799900324  0.0000000102015218
  9.9626439347699431  4.2730038014276381  1.4248568633838701
  8.5397228513584604  2.8510181671734958  2.8426761977065773
  9.9576700999509278  4.2753347810374027  4.2751104698801727
  8.5396759250378000  2.8434131748959315  5.6931173079605459
  9.9576827050210284  4.2753347529155450  7.1111114749599702
  8.5396289893583166  2.8510182121600058  8.5435583854312558
  9.9627412988249588  4.2730758408167002  9.9613803726241610
  8.5396759219290583  5.6878523697140766 -0.0000000663819956
  9.9627987473007966  7.1183308454876340  1.4240105878726446
  8.5396560106250696  5.6896060353140392  2.8407658513595062
  9.9653186445997139  7.1043785567544848  4.2674873129047706
  8.5396759528055810  5.6923724108294014  5.6931172829808965
  9.9653059190020095  7.1043785491460296  7.1187599376425705
  8.5396958233716145  5.6896060527730041  8.5454687292055631
  9.9628926939763218  7.1184315733784391  9.9622540223879543
  8.5396758591619157  8.5454855326243262  0.0000000184841941
  9.9683084483372504  9.9580697375848342  1.4265861841033247
  8.5396112879929120  8.5378822706968744  2.8495198205971648
  9.9710657802472440  9.9735026364418271  4.2617101407281099
  8.5396759565870930  8.5442174076634547  5.6931172958542735
  9.9710830558807544  9.9735027254179887  7.1245070999352054
  8.5397406158667799  8.5378822462257649  8.5367147198831095
  9.9683804071506383  9.9583546841546635  9.9596130862199264
  2.8465586676046502 -0.0503196917311481 -0.0000000548769548
