Fe Mn
 1.0000000000000000
    11.3609327410477903    0.0000000000000000    0.0000000000000000
     0.0000000000000000   11.3642021552848895    0.0000000000000000
     0.0000000000000000    0.0000000000000000   11.3609519072879728
 Fe  Mn 
 126   1
Cartesian
  0.0151972673946574 -0.0036553478261744 -0.0024339589000497
  1.4402253114643264  1.3563082043831194  1.4000535514652004
  0.0078496604170657 -0.0050031390165289  2.8324277560737730
  1.4249271083314283  1.4274828435136455  4.2361051438057746
  0.0020270687533983  0.0005447333080524  5.6787023443070916
  1.4252070159991457  1.4242387636791125  7.1127334953307608
  0.0091065640609261 -0.0001141781942257  8.5304751732691244
  1.4415867231074262  1.4104889314224853  9.9733063081524378
  0.0681765031752060  2.8816981641310973  0.0545966285500341
  0.0669346034081632  2.8866632734717634  2.7732676596199823
  1.4212620893449857  4.2650770350515019  4.3001830475833280
  0.0059952934978772  2.8345191153184510  5.6802799555956547
  1.4213552995470053  4.2652203498038377  7.0987434895643249
  0.0069030258081415  2.8340140040474258  8.5246431130360989
  1.4272469659172418  4.2493977369247435  9.9077281363424046
  0.0561157057305525  5.6310141694862690  0.0535025745345941
  1.4234118006323655  7.1602817949187427  1.4169534613631514
  0.0581003126666906  5.6301420011316390  2.7821946945232097
  1.4195425185182458  7.0894280018625651  4.2516225855725622
  0.0004552035190698  5.6832581486498883  5.6820222165304592
  1.4203401185582181  7.0911171782539997  7.0986016304087771
  0.0040240779354008  5.6828732621852875  8.5246458566416532
  1.4223483245082600  7.1062506921238686  9.9555000736502635
  0.0056667583798308  8.5365376824595121 -0.0016583356229347
  1.4379227313757694  9.9631572476531538  1.4023116203231845
  0.0017918842715542  8.5318144748432427  2.8383665790688073
  1.4236878870983727  9.9465567897949096  4.2385513651891555
  0.0054309035590604  8.5281090388764937  5.6811878725212672
  1.4247422178599820  9.9476584053351402  7.1129747632594924
  0.0067012434521256  8.5290695471126838  8.5256645906739958
  1.4355191864269485  9.9608811328814308  9.9661370168246819
  4.2279122968775331  1.4103542990710443  1.3985661694372986
  2.8426091064867030 -0.0036858167846794  2.8249351086307244
  4.2386197814303941  1.4357689609648463  4.2284604648346678
  2.8397130344401025  0.0003638281652744  5.6765339441628653
  4.2497158046965069  1.4214631220811293  7.1142991977226497
  2.8380757900292588  0.0006169362504999  8.5378240590311183
  4.2217642511945535  1.4227048771316684  9.9792881592536489
  2.7797199253166078  2.8806315203711730  0.0606257866610870
  4.2935281458510151  4.2495880193479394  1.4132738525840376
  2.7856684583423621  2.8818012799065325  2.7719731011680797
  4.2457608628005703  4.2628597868223110  4.2476203847537013
  2.8413361443487775  2.8382226786931888  5.6801801536783803
  4.2495095145102972  4.2634081241374799  7.1003022853301143
  2.8402830848634064  2.8286466835427007  8.5297113970160172
  4.2409415190194695  4.2468383483694829  9.9602632175258137
  2.7829342775018882  5.6318823940879144  0.0574395243077422
  4.2457407785278738  7.1062813746646416  1.4178109953158049
  2.7866086193565232  5.6311649451851791  2.7843112369895358
  4.2438372928872532  7.0822504722769182  4.2448826807306688
  2.8429199761754429  5.6840906927876036  5.6826240669911012
  4.2554315701741681  7.0948968347553594  7.0992580478775063
  2.8412885479223022  5.6842348028891614  8.5212963681700664
  4.2387001833244202  7.0962150830683139  9.9624665463333208
  2.8414972323936865  8.5398828159680331 -0.0012251745999140
  4.2350006185508473  9.9608704254609268  1.4046480760130300
  2.8418826017270398  8.5365331956872197  2.8347084663544817
  4.2528631862389501  9.9469959929159266  4.2442291533059722
  2.8396701065451637  8.5235571876504608  5.6801860948101455
  4.2541394994993915  9.9485444537783039  7.1130162585302124
  2.8390811439747887  8.5322444006317344  8.5304212499722034
  4.2389417767462092  9.9612337282493755  9.9622219466460873
  5.6632604946756739  0.0005913023714235  0.0020481461916985
  7.0885057241930767  1.4242981400118400  1.4148808053965953
  5.6707446280054787 -0.0000720432356069  2.8311204200391642
  7.1035208274863217  1.4269938461817178  4.2569858004841983
  5.6715284992322301  0.0097584864574809  5.6717557676622796
  7.1026763568427480  1.4244861112869329  7.0984416205041683
  5.6638788753674207  0.0088035143392444  8.5372910796366099
  7.0868456541848808  1.4214506507431994  9.9513219433150706
  5.6713324456154526  2.8285322096338770  0.0001744469583624
  7.1023998868062952  4.2652570984082310  1.4188992464945098
  5.6765073237075701  2.8340183320861305  2.8334874358382169
  7.0949557242848700  4.2556984161235034  4.2458611455131301
  5.6733331360961632  2.8367518738816924  5.6798877702287704
  7.0955400536139068  4.2560149752328833  7.1056392420051289
  5.6730495750895038  2.8370966738523964  8.5282008442052408
  7.1008855101112287  4.2633265904098812  9.9517068385739460
  5.6798717169406432  5.6840804544381216 -0.0011078053266255
  7.1026179353798007  7.0911689921456018  1.4198860999754901
  5.6765910594609190  5.6830177629298557  2.8362085019113845
  7.0946830267103991  7.1015705979705306  4.2512098433559595
  5.6765416153601214  5.6792651255397324  5.6794702866272484
  7.0954387839242861  7.1034420479050047  7.1057504545244203
  5.6737207968616046  5.6794020341019280  8.5274468071167924
  7.1018464442949183  7.0948372514549893  9.9457771653913785
  5.6707893671275951  8.5321540484482856  0.0011294164235968
  7.0882040429730697  9.9477611207962120  1.4154911721171801
  5.6754947188626108  8.5291783946116517  2.8335474346137626
  7.1029791371416788  9.9440945910795442  4.2618991857266728
  5.6678145809232614  8.5203280005371287  5.6735999432320314
  7.1030301834501630  9.9442726534775225  7.0982077701095498
  5.6667715158444336  8.5205495127193469  8.5344084413827836
  7.0881402031149463  9.9484499153074530  9.9471015380881944
  8.5245935188022592  0.0004042256468151  0.0004832372407546
  9.9651053572290298  1.4273980919500340  1.4152288995743194
  8.5225156420946799  0.0005276448928902  2.8381866869263277
  9.9579008365042672  1.4411789095842935  4.2433652351414901
  8.5283444524775867  0.0103660846026051  5.6728418990483354
  9.9440836958916243  1.4269933923428355  7.0977645656608734
  8.5293839368430699  0.0097149499380749  8.5296544235398581
  9.9726674644743820  1.4358332724101490  9.9625780269856143
  8.5210510741775174  2.8383210429989605 -0.0012300317348952
  9.9009895068670026  4.2650701657999326  1.4189234526855352
  8.5209482043211064  2.8344192969825981  2.8340807797009995
  9.9593384634875743  4.2567896894727069  4.2418420438635493
  8.5216910501723184  2.8404633928648995  5.6794508092479141
  9.9552840378373180  4.2557640422570060  7.1062111290998748
  8.5213335993521184  2.8367625896575381  8.5277754662567151
  9.9536282746118570  4.2629084287539110  9.9554134723620553
  8.5185687711237552  5.6841405639304670 -0.0026383905111944
  9.9496984930327432  7.0893024508291482  1.4206988801042078
  8.5191503696554349  5.6831895856363914  2.8398571438688132
  9.9627257547540538  7.0884457523794291  4.2384228472773327
  8.5211098003606391  5.6796612927561387  5.6800981961302828
  9.9499893229517102  7.1015301129453832  7.1065323743008690
  8.5216660197025842  5.6792379972398068  8.5247178591995656
  9.9562766630177730  7.0822584258743673  9.9573641208372496
  8.5210192003506879  8.5235964572434817  0.0005396197487053
  9.9626083351933197  9.9464525006433107  1.4164649206809397
  8.5199477798251397  8.5280677221143417  2.8347533118709172
  9.9417468455924229  9.9443259119337704  4.2593551189876937
  8.5275141514513049  8.5162655397539879  5.6736897629681673
  9.9393168490769170  9.9440533154376958  7.0981644307809928
  8.5275759770565607  8.5202953872323626  8.5333834744097619
  9.9569585801060860  9.9469927980557618  9.9482667490071961
  2.8483869412846774 -0.0090571105667099 -0.0083230545969548
