Fe Ru
 1.0000000000000000
    11.4074125948223344    0.0000000000000000    0.0000000000000000
     0.0000000000000000   11.4074126073915725    0.0000000000000000
     0.0000000000000000    0.0000000000000000   11.4074125987550907
 Fe  Ru 
 127   1
Cartesian
  0.0587629812118882  0.0000000983630263 -0.0000000490907307
  1.4141505891602233  1.4377025851837963  1.4377025424104450
 -0.0011958551087025 -0.0000000964662736  2.8530490106792952
  1.4296855960004351  1.4223601485666597  4.2739043258289300
 -0.0011125590401900  0.0000001151658545  5.7037062283846662
  1.4294930118850429  1.4221676723530576  7.1335080559308857
 -0.0011960782010064 -0.0000001150233171  8.5543634768622372
  1.4141504555753457  1.4377024514326473  9.9697099689751454
 -0.0011957015670616  2.8530491461812515 -0.0000000922136481
  1.4294930298339554  4.2739044315192469  1.4221676505593357
 -0.0087403794842887  2.8605934426689164  2.8605934111758460
  1.4191323340051407  4.2827766493665189  4.2827882875367438
 -0.0010238985044971  2.8528771401553272  5.7037061922927297
  1.4191321468172280  4.2827883746363593  7.1246358409007824
 -0.0087403550340411  2.8605935412356831  8.5468190715950811
  1.4296855655284599  4.2739042449881790  9.9850524222019832
 -0.0011124535554083  5.7037064377558702  0.0000001269738286
  1.4296855465397071  7.1335081666031721  1.4223602137636124
 -0.0010240946355432  5.7037062481961076  2.8528771995268101
  1.4191321837142761  7.1246242038567695  4.2827766778845389
  0.0016818265154392  5.7037062264083644  5.7037062395717086
  1.4191322192851723  7.1246360427209696  7.1246241077804964
 -0.0010242254245273  5.7037062285962223  8.5545353787401535
  1.4294930201475871  7.1335082155203429  9.9852450858370521
 -0.0011960520873625  8.5543636469071309  0.0000002136452642
  1.4141506763695173  9.9697100350600518  1.4377026938892756
 -0.0087400833471973  8.5468192610508282  2.8605935095756427
  1.4294929400540459  9.9852450279521801  4.2739044266117556
 -0.0010240604380269  8.5545354472097586  5.7037062471793174
  1.4296854835659163  9.9850524592769307  7.1335082606820404
 -0.0087403310960767  8.5468192394524944  8.5468191974261813
  1.4141506339780388  9.9697101669514137  9.9697101053975974
  4.2895557116016754  1.4377024943105410  1.4377025726100690
  2.8518531671746703 -0.0000001968323513  2.7930900707349919
  4.2742133412113157  1.4221677233217602  4.2739045441065375
  2.8518531898123700 -0.0000000555727433  5.7037063391674820
  4.2740209456459475  1.4223601779520334  7.1335081985440398
  2.8518530647939615  0.0000000021378685  8.6143224058079202
  4.2895555891395398  1.4377024053570202  9.9697101493024647
  2.8518532545215081  2.7930902757581673 -0.0000000161378411
  4.2740209121495951  4.2739042884270688  1.4223601195359725
  2.8518531357417110  2.8530493614857204  2.8530490841421350
  4.2845740896960072  4.2827880995020280  4.2827766567714249
  2.8518531781391978  2.8529655491948365  5.7037061464989520
  4.2845742268278864  4.2827764977931393  7.1246242269288214
  2.8518532071005889  2.8530493528108427  8.5543634496353622
  4.2742131313869844  4.2739045157851585  9.9852448653725414
  2.8518530950764100  5.7037061412174141 -0.0000001035742956
  4.2742132200654837  7.1335082325102874  1.4221675292614731
  2.8518532522053075  5.7037064771776880  2.8529656855077854
  4.2845739839056396  7.1246359317699612  4.2827882238708508
  2.8518532411827051  5.7037061473471553  5.7037063709607416
  4.2845742797991493  7.1246242488393916  7.1246361231880240
  2.8518532992510104  5.7037061271332563  8.5544469877462141
  4.2740208118109484  7.1335082550406161  9.9850523865852434
  2.8518533143753242  8.6143225763263320  0.0000001366667063
  4.2895556509026243  9.9697099482147085  1.4377023413647096
  2.8518533112549358  8.5543635399346982  2.8530492499154958
  4.2740207725547519  9.9850524109279313  4.2739041966078259
  2.8518532026216183  8.5544470423604402  5.7037062366010520
  4.2742132674397748  9.9852449128683389  7.1335083342649925
  2.8518529654103633  8.5543634597777771  8.5543634821273375
  4.2895558215893201  9.9697099451371436  9.9697100372763465
  5.6449433233226829  0.0000002258281171  0.0000000968797550
  7.1257575777387396  1.4223601372243033  1.4221674913914459
  5.7049023318610690 -0.0000003490863821  2.8530490590337028
  7.1346298486691877  1.4327211237179447  4.2827883508319236
  5.7048186821196758  0.0000000631669620  5.7037063085653434
  7.1346414478825633  1.4327210085234594  7.1246359091442057
  5.7049022524922988 -0.0000001024611901  8.5543636652056776
  7.1257573995993564  1.4221674761735874  9.9850524108616483
  5.7049023159919878  2.8530490237535524 -0.0000000304363050
  7.1346414227193673  4.2827764255805416  1.4327209908532621
  5.7124465248526333  2.8605935219103360  2.8605934804990985
  7.1313619570575080  4.2795087803485208  4.2795086333069987
  5.7047303255945003  2.8528770639885161  5.7037063423810359
  7.1313618602565256  4.2795086743709705  7.1279037776130147
  5.7124465916620011  2.8605935381415675  8.5468192230298801
  7.1346296033078795  4.2827883538197558  9.9746915732452468
  5.7048186744700677  5.7037062260491282  0.0000000724108831
  7.1346298265855195  7.1246242738110874  1.4327209673013519
  5.7047302791526873  5.7037062618532284  2.8528771701161832
  7.1313617332428763  7.1279040330940138  4.2795086609161750
  5.7020247768524497  5.7037064813108280  5.7037064044826211
  7.1313618150917524  7.1279037379905894  7.1279038886930195
  5.7047303259720596  5.7037063089999780  8.5545353353878841
  7.1346413725351052  7.1246360703480329  9.9746916079423755
  5.7049024047302686  8.5543636800658636  0.0000001132440996
  7.1257576226610233  9.9852449337366256  1.4223600973423578
  5.7124466233598969  8.5468190310972112  2.8605935837421157
  7.1346414707982335  9.9746916950812636  4.2827765139319425
  5.7047301980426708  8.5545353266653645  5.7037063763293272
  7.1346295666601680  9.9746915643686833  7.1246242826498642
  5.7124467111604194  8.5468192382965960  8.5468190602147871
  7.1257575311938357  9.9850524094646342  9.9852450221667528
  8.5555594115723181  0.0000000481570816  0.0000001215097898
  9.9853613163814714  1.4221675610540376  1.4223601946868132
  8.5555596578285460 -0.0000000923240980  2.8529655939914287
  9.9764774458844006  1.4327209632848383  4.2827766879836391
  8.5555594563812836  0.0000000496423751  5.7037063937039951
  9.9764892150413189  1.4327206832562505  7.1246243768040038
  8.5555593789505622  0.0000000492084164  8.5544469513213457
  9.9853615591379281  1.4223600022291774  9.9852449508409453
  8.5555595589856210  2.8529656716733838  0.0000001674336260
  9.9764890663304886  4.2827884494315329  1.4327209718744691
  8.5555592906441564  2.8528772511631519  2.8528770051847792
  9.9797571707134320  4.2795087648268151  4.2795087418245519
  8.5555593608892337  2.8501717074464432  5.7037063838116087
  9.9797570063570671  4.2795088880956511  7.1279037334632687
  8.5555594415331981  2.8528772545808589  8.5545353911141930
  9.9764775507952290  4.2827766840826449  9.9746915642544618
  8.5555593822759857  5.7037063449849965  0.0000001129271159
  9.9764774305449873  7.1246360459348708  1.4327210830082369
  8.5555594399063644  5.7037062941480032  2.8501716491551452
  9.9797570280530099  7.1279037804233809  4.2795087221699735
  8.5555595128503832  5.7037063115759956  5.7037064163232847
  9.9797569096162384  7.1279037592780048  7.1279037565508689
  8.5555595313043717  5.7037064669067510  8.5572411938827404
  9.9764889337226261  7.1246242145474215  9.9746916301680493
  8.5555595573510708  8.5544472476222513  0.0000000140501625
  9.9853613114135893  9.9850525111450636  1.4221678138750256
  8.5555593360867057  8.5545354905489308  2.8528770551481024
  9.9764893275684532  9.9746915320750915  4.2827883741769961
  8.5555594557055628  8.5572410727419790  5.7037064083974398
  9.9764774319060887  9.9746917708683291  7.1246358891428532
  8.5555592140377801  8.5545354913754021  8.5545353651947753
  9.9853612472232793  9.9852448249047701  9.9850527000958174
  2.8518531145191033  0.0000003945177263 -0.0000001257372306
