Fe Cr
 1.0000000000000000
    11.3652906252678960    0.0000000000000000    0.0000000000000000
     0.0000000000000000   11.3652906299576593    0.0000000000000000
     0.0000000000000000    0.0000000000000000   11.3652906249954420
 Fe  Cr 
 126   1
Cartesian
  0.0208751575527911  0.0132538725226063  0.0131330661595034
  1.3609289111196987  1.4803935828302666  1.4803937448136952
  0.0059276646178580 -0.0449141971359271  2.8354025820093582
  1.3700097413468664  1.4714339187952907  4.2004843286342615
  0.0021823651379454  0.0138295399567847  5.6722577480054683
  1.4253965341801593  1.4155733221418731  7.1100826538547883
  0.0053175236606601  0.0091690928894432  8.5289471548251043
  1.4331048488182292  1.4083062518226916  9.9555130676297967
  0.0059201555800594  2.8353948840935566 -0.0449142597057701
  1.3698888414022943  4.2004843418519417  1.4713127500293790
  1.3630343589736891  4.2043378601205488  4.2042655801975215
  0.0014029119415232  2.8399234499103114  5.7257222945628676
  1.4222229274890628  4.2669917887222377  7.1039841902563330
 -0.0041273004580321  2.8454891620781453  8.5184920568057834
  1.4259027168145737  4.2594645673272247  9.9465289695136327
  0.0022276327732864  5.6723002804063176  0.0138719848221710
  1.4257492461267514  7.1100827368905284  1.4159262403686155
  0.0013992562578705  5.7257221682684403  2.8399196258019885
  1.4221112222203585  7.1040637568910814  4.2671660595129230
  0.0005439519724001  5.6682737011904214  5.6682887119866923
  1.4193603341157290  7.1000327573537669  7.1001672307873305
  0.0017977974817163  5.6732574058794123  8.5269259824963175
  1.4229435373430188  7.1088175906856357  9.9492285551642290
  0.0053481983274108  8.5289384546077258  0.0092661960140882
  1.4330163604133490  9.9555129230335169  1.4082178543202681
 -0.0041664092576766  8.5184919224383773  2.8454499491996672
  1.4257213418326040  9.9466825937521204  4.2592970300234851
  0.0017566142411034  8.5268793738404138  5.6732438615838374
  1.4231410171849728  9.9489215407145259  7.1087849684993927
 -0.0055227867375470  8.5193495196285713  8.5193697639840629
  1.4268724178092411  9.9560947989377002  9.9559751017599805
  4.2511005006837328  1.4082178835005812  1.4083064138359875
  2.8280687052167117  0.0131330859714304  2.8204474565642292
  4.2600842728258916  1.4154199195944512  4.2594644744677028
  2.8217052896203851  0.0195254302588586  5.6629213094447577
  4.2573847338833728  1.4183791002908406  7.1088173343957930
  2.8362616143766024  0.0049904228134463  8.5410666129654036
  4.2506381492480791  1.4144502731265789  9.9560948012980077
  2.8281894730326496  2.8204474729091298  0.0132539175675135
  4.2599305791449362  4.2592968682319361  1.4156015789431133
  2.8862368210546716  2.8354024672028517  2.8353949990574403
  4.2631904212153273  4.2655093453324433  4.2655290446840199
  2.8274506093266236  2.8390950325156252  5.6723003384819997
  4.2608422352758932  4.2639356490100511  7.1013823511044523
  2.8320564375406185  2.8359746346757495  8.5289383917345685
  4.2578038126779596  4.2559257787181375  9.9489700633819140
  2.8217970116712539  5.6629212257713366  0.0196172571220435
  4.2576918786964573  7.1087850661136764  1.4181817907525252
  2.8274932970806352  5.6722578146395648  2.8391400739178745
  4.2608352061718229  7.1013006854104033  4.2638364576182752
  2.8204398363666243  5.6616182103699062  5.6616093977394142
  4.2517235190502332  7.0919211268401829  7.0918565298884548
  2.8361626512931641  5.6772774138877562  8.5277854067893220
  4.2495951660787901  7.1001753171011552  9.9568324905123102
  2.8363321822794854  8.5410666831117812  0.0050609951347697
  4.2505183494130696  9.9559751348396919  1.4144503915099911
  2.8321534673865107  8.5289470668031413  2.8360053041065427
  4.2576433458706813  9.9488094983202391  4.2559257101931065
  2.8361485139273785  8.5277530751833357  5.6772651304274699
  4.2497806635422819  9.9570180255257483  7.1001752188207554
  2.8381700615619989  8.5285745441190244  8.5285835387560542
  4.2498723135381962  9.9567409056385081  9.9567409243356852
  5.6655468566700655  0.0050609611860361  0.0049902663420936
  7.0965304132054934  1.4159264186725899  1.4155733652902096
  5.6776748227468676  0.0092663055547474  2.8359745009091042
  7.1026292237136284  1.4190999559558619  4.2669917561085988
  5.6788280649617340  0.0051598382752413  5.6772774301154270
  7.1064461195524169  1.4219624187029838  7.1000326952685588
  5.6780296595864597  0.0031524293423638  8.5285744430797177
  7.0978281109336177  1.4181817843163365  9.9489215251894176
  5.6776663326869139  2.8360051412737870  0.0091692736010416
  7.1025493702896263  4.2671661881474412  1.4192113892740825
  5.6881211462002881  2.8454500039783843  2.8454889669335000
  7.1003195134997039  4.2633251646742725  4.2634515640697703
  5.6796873277202247  2.8395250219014656  5.6732573791747223
  7.1037057337749765  4.2602395028301023  7.1029208449338590
  5.6872435596202626  2.8468454268703089  8.5193495771789607
  7.1053125578058536  4.2638366223993636  9.9457780740309953
  5.6788604035500905  5.6772650597583469  0.0051740360653668
  7.1065805193759095  7.1001672795152464  1.4219624992404534
  5.6797338912144983  5.6732437931662165  2.8395661711841726
  7.1036926431667204  7.1029076100388142  4.2602393969072425
  5.6810248618680452  5.6776350163085567  5.6776335855855207
  7.1126837638906295  7.0939294907183568  7.0939293121620475
  5.6810906238068917  5.6813817427602151  8.5255269807003788
  7.1146922742056846  7.0918565346160545  9.9548897229097690
  5.6780389309510584  8.5285836098363816  0.0031525369278369
  7.0977957073668509  9.9492285279454791  1.4183790619286498
  5.6872635597962162  8.5193696873943860  2.8468453723878921
  7.1052309413215218  9.9457711711980394  4.2639355445300744
  5.6810862288152686  8.5255226411843754  5.6813817578814074
  7.1147567127439233  9.9548899265578399  7.0919211491541647
  5.6900697072705890  8.5165436694867758  8.5165437491255993
  7.1064380370656828  9.9568325100211457  9.9570179318958232
  8.5436920897840363  0.0196172000475319  0.0195254370897958
 10.0061287459989430  1.4713126923417283  1.4714340045964238
  8.5343130155986131  0.0138719819954720  2.8390950619574817
 10.0023475703403175  1.4782882961228307  4.2043378264106321
  8.5450039599475520  0.0208827408356429  5.6616183204822450
  9.9394470236839325  1.4192114587192299  7.1040635822023352
  8.5293482084378223  0.0051739173827966  8.5277529269516545
  9.9473162674121642  1.4156014307388891  9.9466827168025418
  8.5343554168733178  2.8391402357857531  0.0138293076336228
 10.0022753175653030  4.2042657579182316  1.4782882539760718
  8.4808910432069897  2.8399197126514970  2.8399235686554158
 10.0016209633274666  4.2049923082237113  4.2049922829101529
  8.5383244185288092  2.8407785709918567  5.6682735944305289
  9.9432881254366912  4.2634516146218946  7.1062937427695694
  8.5333694779648859  2.8395663178837012  8.5268794173973994
  9.9411037082202149  4.2655291687184667  9.9434228200195065
  8.5449951177484031  5.6616095501049042  0.0208827468934632
  9.9396214084859871  7.1039841772569110  1.4190998968304891
  8.5383399014911401  5.6682887452568940  2.8407787712712631
  9.9431617404716750  7.1062937159447310  4.2633254311029942
  8.5442850535960435  5.6623283752910298  5.6623283056968123
  9.9463739779550195  7.1029208270266189  7.1029075009175280
  8.5289783415725697  5.6776336003770931  8.5255884674844182
  9.9426776943251109  7.1013823997806842  9.9457710549895211
  8.5293359175334817  8.5277852655302766  0.0051600213258685
  9.9471487116622743  9.9465291754046525  1.4154197521567176
  8.5333557444308124  8.5269259102278188  2.8395251091920226
  9.9410839912632181  9.9434228805040110  4.2655094617198541
  8.5289796736752681  8.5255885703172147  5.6776348780076749
  9.9427765711997509  9.9457780226861807  7.1013006557517269
  8.5252313947704454  8.5255271137734177  8.5255226780913667
  9.9506875881413865  9.9489699017915463  9.9488094951127835
  2.8316707250759552  0.0096517668953626  0.0096517034680996
