Fe W 
 1.0000000000000000
    11.4084461783284787    0.0000000000000000    0.0000000000000000
     0.0000000000000000   11.4084461755980406    0.0000000000000000
     0.0000000000000000    0.0000000000000000   11.4084461816218337
 Fe  W  
 126   2
Cartesian
 -0.0198866278346174 -0.0046904311332297 -0.0050234635063203
 -0.0400893252221927 -0.0442800748196593  2.8922583823661947
  1.4094673741227866  1.4426572280558028  4.2932422605381850
 -0.0008674856392816 -0.0025969463443453  5.7042841644010407
  1.4245014809906691  1.4273483168001784  7.1413889008162963
 -0.0085368235182918 -0.0031441412405084  8.5559620976791422
  1.4210322210285353  1.4307462883547422  9.9625037739219682
 -0.0401468245476588  2.8922008523858049 -0.0442800930629030
  1.4094543726821918  4.2932421089168935  1.4426441704140363
 -0.0916376659106928  2.9437491820206638  2.9437491568645631
  1.4244056607670803  4.2821847790023160  4.2823473836595518
 -0.0154763242252437  2.8676784206726826  5.7096002675866533
  1.4269301284486151  4.2731441860315931  7.1338490652257391
 -0.0117344032845560  2.8637747593217018  8.5514037256394655
  1.4231216952547319  4.2784195183227727  9.9739437047259631
 -0.0004810192984219  5.7043850888931473 -0.0025857858332644
  1.4247632290812893  7.1413888979962383  1.4276099459087570
 -0.0155668722489019  5.7096003185098851  2.8675878254428322
  1.4268362568320414  7.1339740592299972  4.2732355205768267
  0.0020212115026448  5.7013559920163068  5.7014461654154918
  1.4243203018442785  7.1304218069543914  7.1304314040484469
 -0.0050315362265545  5.7002653054607615  8.5529160139595444
  1.4234700319533640  7.1301167588023358  9.9819094049982553
 -0.0084467711192977  8.5560824432070746 -0.0029340289038106
  1.4213653451908617  9.9625037980975826  1.4310792079108980
 -0.0116631095411412  8.5514037179322848  2.8638458801277844
  1.4229116590069586  9.9738534734674875  4.2785398795468836
 -0.0050961088128220  8.5528477262680926  5.7003308975238971
  1.4234588988967665  9.9815228706835448  7.1302176437518137
 -0.0139420694961625  8.5437817128989177  8.5438637535613999
  1.3817755914164678  9.9423011401112298  9.9422434746535391
  4.2980539247715868  1.4310792410532274  1.4307461307785010
  2.8568019579913266 -0.0050235619305241  2.8719981560137486
  4.2866140009778428  1.4289897304738057  4.2784195305298409
  2.8534040816725308 -0.0015543199365196  5.6931129725034095
  4.2786483228409855  1.4286414983661040  7.1301167230229510
  2.8687129766524180 -0.0165883471849762  8.5412597426554591
  4.3183142135074428  1.4703359278898944  9.9423010183667788
  2.8571350765799370  2.8719981357744895 -0.0046904038638267
  4.2867041646948847  4.2785399002971802  1.4291998918882671
  2.8963917014984029  2.8922584013910506  2.8922008747403716
  4.2921092781927532  4.2906381462178924  4.2907202040878500
  2.8546972163470663  2.8525925657919120  5.7043851614123140
  4.2831988720782679  4.2815859673480761  7.1342365304707407
  2.8550456272352389  2.8605583164317392  8.5560824842305188
  4.2899016359807165  4.2830982686550474  9.9707272594041942
  2.8536658716201169  5.6931130842792763 -0.0012925804637025
  4.2790347007271299  7.1302175786259365  1.4286525982041853
  2.8547084163816634  5.7042842742250333  2.8529789437698678
  4.2832634173113586  7.1341710173031805  4.2816541252491378
  2.8538470013101080  5.7040705913975405  5.7040801033532142
  4.2761461619329664  7.1330558044922512  7.1331459824878429
  2.8512371331581217  5.7006529101712262  8.5613577190745538
  4.2936436641774769  7.1249015986448869  9.9668234943823215
  2.8686999877706625  8.5412598304051279 -0.0166014273720458
  4.3182566541244247  9.9422435657273383  1.4703359409297811
  2.8552555590804927  8.5559619827820761  2.8606483916728900
  4.2898305312538767  9.9706560738023864  4.2830981362331935
  2.8513309959472841  8.5612664107607195  5.7005279254087649
  4.2937342356436208  9.9669141468029459  7.1249016896032025
  2.8537616610972800  8.5521545830615437  8.5523172220060957
  4.3698050207677452  9.8907527625956533  9.8907527517935687
  5.7192979199809004 -0.0166014163876850 -0.0165883522442156
  7.1191687666997927  1.4276100390209179  1.4273482771329706
  5.7044753740795260 -0.0029340303092035  2.8605581910234408
  7.1267086469039151  1.4251813923096868  4.2731442425090300
  5.6992000924406065  0.0008743132786826  5.7006529707437910
  7.1301262664557932  1.4277913224152927  7.1304218755485307
  5.7082405078701290 -0.0016501382516540  8.5521545013102855
  7.1303400504972005  1.4286527165373324  9.9815229044072389
  5.7045955552550573  2.8606484005562001 -0.0031441786242148
  7.1265836919894134  4.2732355143032832  1.4252752538350890
  5.7091539570271648  2.8638458409914591  2.8637747346886551
  7.1309263153179581  4.2888588312625444  4.2888595952784074
  5.7076416622716204  2.8571431704222907  5.7002653671534640
  7.1355786718322589  4.2784772655398182  7.1249372833075828
  5.7166938622788548  2.8660535650961205  8.5437817635712268
  7.1263866857554223  4.2816541725229520  9.9772943902239941
  5.6992913241240597  5.7005279702099640  0.0007805454653675
  7.1301358660232879  7.1304314101535926  1.4277912838866422
  5.7077098917475286  5.7003309700993876  2.8572076403571902
  7.1356203905936786  7.1249791201412291  4.2784773007728569
  5.7045331157825974  5.7095228334632360  5.7095645943526412
  7.1386848879024196  7.1218727781430555  7.1218728214911975
  5.7149147595828707  5.7048705532606094  8.5456422711726390
  7.1275019740506824  7.1331460204604937  9.9844116207137681
  5.7084031297161930  8.5523172139427768 -0.0016499698958422
  7.1304409760061267  9.9819094043022378  1.4286415705771061
  5.7167758809495268  8.5438638059168497  2.8660534703493230
  7.1263212292500837  9.9773588706756815  4.2815859974727362
  5.7149154486477975  8.5456431016102883  5.7048704894942652
  7.1274117995607078  9.9844115596309830  7.1330558321843363
  5.7376652634539802  8.5228924575521834  8.5228925161966380
  7.1356559969768929  9.9668235374258085  9.9669141491963789
  8.5674447014933648 -0.0012925237311572 -0.0015542880968579
  9.9673155436278087  1.4426441494702675  1.4426572395853281
  8.5561725620937494 -0.0025857117419107  2.8525924623725496
  9.9782102580048466  1.4277058520023314  4.2821847316709087
  8.5564775605396175 -0.0017354693146747  5.7040705978744528
  9.9873222525768366  1.4252752492654466  7.1339740177197450
  8.5600298248239906  0.0007804837108086  8.5612662917641291
  9.9820178504901254  1.4291998687993654  9.9738535067043355
  8.5562734850950939  2.8529789903812541 -0.0025967000717449
  9.9783729842834337  4.2823474165201132  1.4277059070173339
  8.5509574094816081  2.8675878011915246  2.8676783951429523
  9.9489482590089153  4.3116094859568834  4.3116094372041678
  8.5591115754604807  2.8500903128621178  5.7013560073805420
  9.9716988753917608  4.2888596563852195  7.1296314488264745
  8.5602267855687977  2.8572075656175695  8.5528477733117647
  9.9699194882236224  4.2907200756772443  9.9684484923298253
  8.5564871630134007  5.7040801487926442 -0.0017354449691371
  9.9874135147468213  7.1338491710446910  1.4251813967351135
  8.5592017663352067  5.7014461923050312  2.8500903110878846
  9.9716980504996187  7.1296314547792523  4.2888588836693735
  8.5479285831108136  5.7126291860307683  5.7126291368006035
  9.9820804750533672  7.1249373518384687  7.1249790276653311
  8.5510350086393458  5.7095646263189339  8.5560246703363667
  9.9789717746152409  7.1342364772892743  9.9773588752371776
  8.5599047818357672  8.5613577444529785  0.0008743380076518
  9.9821382474453131  9.9739435947772250  1.4289898795034210
  8.5602923125175536  8.5529159133440125  2.8571431484773147
  9.9698374288691163  9.9684483684051273  4.2906380905166390
  8.5509929468293677  8.5560246740712671  5.7095229016885467
  9.9789036830326960  9.9772943603521416  7.1341708931251189
  8.5556872426042556  8.5456423229744871  8.5456430770074832
  9.9774594962155767  9.9707271766504206  9.9706560988517605
  2.9419134738172907 -0.0898019547021456 -0.0898020313914101
  1.3362538059806714  1.5158577911688580  1.5158578125300113
