Fe Tc
 1.0000000000000000
    11.3825270196993102    0.0000000000000000    0.0000000000000000
     0.0000000000000000   11.3880272498789665    0.0000000000000000
     0.0000000000000000    0.0000000000000000   11.3825376613192564
 Fe  Tc 
 126   1
Cartesian
  0.0651857199033302 -0.0050218411473593 -0.0028930965240915
  1.4030898503820115  1.4197102507291623  1.4423477047479625
  0.0165492676590536 -0.0020638053911929  2.8290410464453428
  1.4316114537008733  1.4331643725112693  4.2532885339532074
  0.0066869065848605  0.0042812330236647  5.6897381834153169
  1.4349627977792330  1.4224602181544996  7.1217591188618687
  0.0183728203271744  0.0040039756480638  8.5567694793217957
  1.4089493061288294  1.4636847361127914  9.9512577157325772
  0.0819650265165511  2.8766763238132014  0.0559484951346978
  0.0588093780913082  2.9064974097066449  2.7869948091408112
  1.4203007992684225  4.2726063400016088  4.3062286737618969
  0.0019397109312220  2.8419547640187375  5.6940541645470004
  1.4201575788456637  4.2721964624215616  7.1150602555574700
 -0.0036071531614725  2.8482499045154928  8.5323883507657410
  1.4263989060411193  4.2713316098313490  9.9206014473520341
  0.0554446378596302  5.6443014143835271  0.0535732117624940
  1.4308508911949513  7.1793672597406060  1.4149476587799266
  0.0478277894225903  5.6526621057386270  2.7978615842141754
  1.4207827504679358  7.1065431269081367  4.2600317111371817
  0.0036414393987417  5.6941118138302071  5.6926636567176514
  1.4204284590245593  7.1082169439493414  7.1110696915242473
 -0.0021926728103457  5.6980823648624188  8.5360139003056990
  1.4301739227540302  7.1125440169023859  9.9812233294099801
  0.0103308073671575  8.5614538108118623 -0.0040869458277474
  1.3847072346166767  9.9254320162358329  1.4607270424487155
 -0.0156652489061334  8.5327301631448957  2.8612779824872687
  1.4263919777269596  9.9689021887739315  4.2542010602170688
 -0.0006264545050107  8.5422202943464054  5.6912537067354032
  1.4271681490829535  9.9714835092271557  7.1183318450072015
 -0.0098596155157143  8.5300613796277940  8.5267340219359102
  1.3788202181072866  9.9246209761066364  9.9261485856869598
  4.2774388774643635  1.4633726161522602  1.4365848492678577
  2.8484132896229424 -0.0048435379399234  2.7801267364958036
  4.2375462509683537  1.4381441420634939  4.2430630007258534
  2.8436587916741898 -0.0002856613514213  5.6846541037186915
  4.2517496607619565  1.4189102566753153  7.1218629874675647
  2.8441772192186501 -0.0080946542705962  8.6087663375508772
  4.2711526856640774  1.4698445623277370  9.9568171432021142
  2.7952919551408053  2.8441040105618893  0.0503756697074618
  4.3075290492435157  4.2714556162705861  1.4196571094327717
  2.7893126733318336  2.8768542320049981  2.7633042372933803
  4.2552553775281217  4.2712356020431290  4.2528688779208119
  2.8467735542390211  2.8437015847646228  5.6895093697766894
  4.2620435140544446  4.2712546010147392  7.1150784475116771
  2.8504026332091805  2.8299132349807845  8.5524080581210296
  4.2483424535285339  4.2730925227093204  9.9800956382947490
  2.7885188052199603  5.6397764208170518  0.0572345210738038
  4.2469971423490032  7.1127984332814957  1.4152104251838482
  2.7921165428354522  5.6444983830009905  2.7904028741179516
  4.2536100079111305  7.0994900347542691  4.2527401970755543
  2.8475036195702668  5.6939327022944157  5.6914512101504053
  4.2669149346862403  7.1123007993300265  7.1134392009702543
  2.8471749240106474  5.6996059934836323  8.5364875922947565
  4.2402510176821959  7.1054682074476210  9.9878839594997970
  2.8498234873411756  8.6242603521284806 -0.0041756085834328
  4.3020140685376989  9.9247025264495115  1.4668961800479854
  2.8497445290337136  8.5616193768216675  2.8353099756212798
  4.2624798856809036  9.9706408171706347  4.2577660823247374
  2.8458803159419022  8.5463409246293107  5.6908337049121851
  4.2626425200235536  9.9713573205100943  7.1178279038221639
  2.8449139955774414  8.5582015588947105  8.5543405692482217
  4.3074993887105011  9.9239520301013968  9.9206127786298577
  5.6195600702949999 -0.0082666001278536  0.0011103929008781
  7.1065038603451312  1.4225634846709274  1.4105214258831185
  5.6715285901596504  0.0040283961915970  2.8272424453026677
  7.1144694311366949  1.4326559832794861  4.2637683396379860
  5.6774184707572344  0.0117791848036136  5.6827659557007104
  7.1148984487998712  1.4315608728360039  7.1132149679283465
  5.6676690360059272  0.0117862304633597  8.5605052206139138
  7.1062657620227121  1.4188688638926226  9.9761706970321278
  5.6756169955940807  2.8298010337628390 -0.0043462804027941
  7.1130747094610935  4.2721977182939614  1.4255546202032119
  5.6957933131204239  2.8482262132915603  2.8494903278834429
  7.1108717975415558  4.2683113132735828  4.2595525449899236
  5.6847769243476538  2.8443891623353141  5.6906309942305437
  7.1123810475985172  4.2677399134922940  7.1157550979637501
  5.6908138334880602  2.8508058387183963  8.5373702763971959
  7.1130944780744425  4.2712087690353790  9.9661520624203703
  5.6917532014023831  5.6994834073285219 -0.0015751788804420
  7.1170349780338915  7.1082233098712715  1.4252545299380823
  5.6920655522008081  5.6983144447400651  2.8478756738239905
  7.1181447242004223  7.1089560871414976  4.2705954478043306
  5.6819549568887293  5.6906165440131957  5.6898460829503090
  7.1189592930962347  7.1094977947838744  7.1091779370460539
  5.6902315625909727  5.6942555770957348  8.5379635251028070
  7.1147379826886903  7.1122784656728539  9.9613202048092884
  5.6739055782679566  8.5581867915544034  0.0007845504220282
  7.1098616839133184  9.9716026213181230  1.4185407600220883
  5.7014275532331151  8.5301280430068491  2.8555047185944313
  7.1152015497453744  9.9663749749601820  4.2671916879177036
  5.6845233466509280  8.5357211211353139  5.6842307318656200
  7.1140534976745409  9.9662182351935265  7.1141206610494132
  5.6938898238827367  8.5215995206189934  8.5343080125772541
  7.1104299969531022  9.9711426012460560  9.9655619452550024
  8.5434728025553071 -0.0002068834536548  0.0019721016346369
  9.9749096227653222  1.4331390833453399  1.4139708811206670
  8.5384479507894415  0.0042521155058035  2.8389911353483734
  9.9782121967465756  1.4488491079911427  4.2499888958786602
  8.5442352471786940  0.0122960496787171  5.6839428094903308
  9.9644013033792653  1.4326796628255714  7.1137274824349301
  8.5453771869888744  0.0117389069674986  8.5506958399521995
  9.9849593536945846  1.4383126851328050  9.9906005006883323
  8.5386170456172170  2.8437614426722075 -0.0012705901863809
  9.9219920681509279  4.2724773944117960  1.4254316381912815
  8.5340550181445582  2.8418489391700148  2.8435778155418676
  9.9744674578015982  4.2674095145609350  4.2536128994813405
  8.5385665102224362  2.8422472468319526  5.6894979725166515
  9.9686610579851767  4.2683047275818966  7.1172280968139594
  8.5375139953899115  2.8444143824666335  8.5432461492397298
  9.9753594315432288  4.2712371014076078  9.9728080035255147
  8.5367717640823493  5.6939199845644444 -0.0017204034878301
  9.9682045941690038  7.1064509074839748  1.4247774086224507
  8.5354477444596082  5.6940341587729923  2.8421140207682640
  9.9696615435921316  7.0981133933172726  4.2584357936579620
  8.5382246342638464  5.6824601068017033  5.6899860294041336
  9.9576352654233169  7.1089004680992938  7.1100294924919147
  8.5382818131814684  5.6905489795628608  8.5462251890138532
  9.9754590212491365  7.0993689724060669  9.9745253260727029
  8.5374094813790133  8.5463106934420452 -0.0002364249984757
  9.9739151413362261  9.9687644711460219  1.4191308308862007
  8.5368434052216209  8.5421582409797736  2.8462339892760502
  9.9616667735882451  9.9666310459530791  4.2664563389816896
  8.5425641793989069  8.5444880130535754  5.6856596136895838
  9.9610314993776647  9.9663705095208002  7.1129943221919474
  8.5439553857452868  8.5356296437664660  8.5435999832694431
  9.9703645437204482  9.9706352307748105  9.9655760050128048
  2.8483294212662251 -0.0388578128227496 -0.0026679913600473
