Fe Hf
 1.0000000000000000
    11.4159468940526860    0.0000000000000000    0.0000000000000000
     0.0000000000000000   11.3506768420591229    0.0000000000000000
     0.0000000000000000    0.0000000000000000   11.4159468556701871
 Fe  Hf 
 126   2
Cartesian
 -0.0390639984171704  0.0325065496158044 -0.0049831783872962
  1.2333166136611267  1.4165991588101812  1.6202770528417800
 -0.0247535787271925  0.0088590740232407  2.8787169603891134
  1.4175466291323606  1.4360287493297865  4.2489159436807675
 -0.0049444668304186  0.0012958695831711  5.6998748282469354
  1.4196603456182502  1.4256928884707998  7.1497230383069228
  0.0165570521931246  0.0021404702422099  8.5664239429210678
  1.3079866846089132  1.5341259318082696  9.8958601862703492
 -0.0930947432607267  2.7223781817880091 -0.1190073324447161
 -0.1477573213526178  2.7942259908704168  3.0015616897237254
  1.4328307669422158  4.2535123026585877  4.3074663337101695
 -0.0138790818610925  2.8459279176905659  5.7023041896099240
  1.4343702722143883  4.2470043826057395  7.1406176221119901
 -0.0511172401280551  2.8747465900260787  8.5377158612099482
  1.4220098455317183  4.2239976330724138  9.9498894997599088
 -0.0751721607310104  5.7350123352488307 -0.0752254774603640
  1.4355144070068881  7.0868441673664151  1.4186281407317931
 -0.0753209518925076  5.7322861048543654  2.9294714416520025
  1.4323437230709750  7.0686914162243966  4.2562796261542752
  0.0074137070279452  5.6782088571554388  5.7071202734252626
  1.4319182870935840  7.0977769817077059  7.1434447578604887
 -0.0054736783611870  5.6733803177775748  8.5660539321438645
  1.4301768224695994  7.0861301969565424 10.0080926192860407
  0.0191379536964623  8.5210500088196373  0.0031845286070006
  1.3395614084265250  9.8927332430764352  1.5144328731871854
 -0.0281289243308786  8.4781344632260094  2.8821178917061325
  1.4244794908857923  9.9393952156330698  4.2677815060538711
 -0.0004046756838917  8.5027379674534380  5.7043307135220971
  1.4251808400697465  9.9317809457567243  7.1384623265951888
 -0.0223764626604749  8.4845465297028433  8.5400625663585874
  1.3517669055827826  9.8721689384149904  9.9137806727716260
  4.3745119781894068  1.5355222517168281  1.5462917913061824
  2.8588985197925258  0.0332077974087208  2.8929840098640480
  4.3324213553231985  1.3813589083221141  4.3049279923930461
  2.8467628690956399  0.0095776010253730  5.7022738187267370
  4.2947948636171063  1.4106117305911958  7.1404802405397012
  2.8483392571906929  0.0028423764714262  8.5355794230163333
  4.4285555895265691  1.4622784853654252  9.8411955347784517
  3.0472706632093285  2.8399030166225332 -0.1936772098309609
  4.3199772973659103  4.2232957968241713  1.4319055032967920
  2.9732849358456077  2.7209811005718119  2.9475197529689612
  4.2639544677826429  4.2543524421229337  4.2762839730261710
  2.8611954701785147  2.8305696724427407  5.6932828904563157
  4.2859404691484038  4.2551749421150431  7.1430368123656702
  2.8635103927349999  2.8204599732229747  8.5939629224427314
  4.3057114368333353  4.2476450012171609  9.9641993519182783
  2.9414261508834096  5.7144478956010056 -0.0874318344873152
  4.2620313129825851  7.0863616024228939  1.4237359587863962
  2.9292257925781633  5.7354817819287200  2.9291021026785788
  4.3034072085510662  7.1227725116464544  4.3029237739627657
  2.8559454677138194  5.6754914263447409  5.7045742871527132
  4.2812948327342930  7.1045895401464572  7.1385467995533443
  2.8563677994252568  5.6679646735890463  8.5750599664878635
  4.3091116699944259  7.1290461109021992  9.9608240435224431
  2.8456219777087863  8.5203356842292237  0.0085217497122873
  4.3560952462459728  9.8716983833345324  1.5022315157874118
  2.8507288538400020  8.5208198517413738  2.8350389942480092
  4.2862684149686654  9.9337520661662193  4.2767406637745333
  2.8489510527859987  8.5094467178105866  5.6996090349744248
  4.2736743722194399  9.9289816909178850  7.1358476055681130
  2.8486177832483914  8.5386445507926680  8.5868144283227341
  4.3564652810140121  9.8748948596344714  9.9136315942147952
  5.7344600265557721  0.0029900249847744  0.0058370631224850
  7.1202763359595451  1.4259338090557421  1.4342033066722437
  5.7032764336648265  0.0021528967492386  2.8369606816050013
  7.1348876625403710  1.4095303868560933  4.2915502146895808
  5.7278873082717787 -0.0218193415186086  5.7213824911260724
  7.1394621376533758  1.4120681971083477  7.1303624080493728
  5.7207544543365767 -0.0323527773100982  8.5492455204572622
  7.1292979752285781  1.4105761025680186  9.9750752285303577
  5.6759091633435128  2.8204756652851617 -0.0094470739857979
  7.1292675350841241  4.2469272225367778  1.4197684239811672
  5.7319213224137089  2.8751444400635728  2.9054278144712393
  7.1483752303052217  4.2783241137703163  4.3008934830103742
  5.7185438554232499  2.8469730979093613  5.7078939875970143
  7.1469292704304950  4.2786849953543218  7.1229410839191099
  5.7459000841842354  2.8679492610990738  8.5239376928389916
  7.1268679009156024  4.2552088097369456  9.9840092223075310
  5.6947757495839957  5.6677847962910581 -0.0025151421996755
  7.1266040528192720  7.0977337628452721  1.4219585418400529
  5.7037336542397359  5.6734284073757655  2.8592774287981153
  7.1416226000393088  7.0920673885870018  4.2910111931768880
  5.7059734496756045  5.6830279347897257  5.7089900015743433
  7.1437789084180059  7.0979342652505002  7.1261426712900242
  5.7231273987169322  5.6899957059403787  8.5467144472253533
  7.1313245739083735  7.1044421895301690  9.9885487375304596
  5.6832734684318824  8.5384912682598308  0.0053495567894941
  7.1315679983491647  9.9316884879839318  1.4289508024488002
  5.7299172313958859  8.4844069457321982  2.8764140594286038
  7.1359845748178801  9.9241528536140002  4.2789809974117601
  5.7180054621982217  8.5151118822363276  5.7146295836793559
  7.1433680398097099  9.9143920219878758  7.1266722807961598
  5.7434935986365474  8.5043068186852473  8.5264712880928695
  7.1341125408541650  9.9289715338693139  9.9963691341905605
  8.5676114381368205  0.0094989110558534  0.0073773426037020
 10.0209562593070842  1.4360429474399194  1.4365170098044815
  8.5700295281835750  0.0013300495470264  2.8589481511664703
  9.9509300416299560  1.3885543384371566  4.3189070927285522
  8.5499331440018231 -0.0221809549174226  5.7199354781398828
  9.9782583041030382  1.4096052928866500  7.1348841451505844
  8.5485701209306058 -0.0216033873046451  8.5419966634263442
  9.9647085812861036  1.3817587048828750  9.9378377235534341
  8.5767176189341434  2.8308114026179774 -0.0073342316966943
  9.9625734900499445  4.2536617288514496  1.4213442401786049
  8.5674737522158253  2.8458902571848506  2.8678021885070883
  9.9762393199723380  4.2888563247311753  4.2937620360628612
  8.5573575922837826  2.8444351002815917  5.7124689501052437
  9.9689918008022715  4.2781065394535078  7.1215760277186311
  8.5618794991310629  2.8468990705934170  8.5512663758155494
  9.9934167415106714  4.2543605048644730 10.0055109764934915
  8.5654548077853629  5.6753986309225182 -0.0018124178679890
 10.0138087237788334  7.0685373555227473  1.4216241725134480
  8.5628390169029700  5.6781997005533471  2.8466819581382774
  9.9534640478415213  7.1028736278942439  4.3165011839705612
  8.5536656655836296  5.6927884416430032  5.7163730708732619
  9.9789257144082235  7.0921346968289551  7.1283229484354607
  8.5609116329760244  5.6830418045076003  8.5638636985395973
  9.9670554504828317  7.1226351691467231  9.9665774073040332
  8.5704381147655191  8.5094038886618950  0.0049259429127923
 10.0020534768621410  9.9392153729206445  1.4293730928566821
  8.5655404224582306  8.5025909016911942  2.8543005602351417
  9.9737074645623451  9.9171846779913047  4.2961348472546215
  8.5531361703469262  8.5092479007450326  5.7167860756936033
  9.9908565810868595  9.9241390143023551  7.1339196129771834
  8.5553166440411026  8.5150458372858964  8.5519317568278428
  9.9930482559274409  9.9338000981582883  9.9834785442307599
  2.8187301082280465  0.1434012531475786  0.0361058157545745
  1.4630983099393646  4.1131037000858299  1.3917375426710989
