Fe Zr
 1.0000000000000000
    11.4560680383993052    0.0000000000000000    0.0000000000000000
     0.0000000000000000   11.1584907998497922    0.0000000000000000
     0.0000000000000000    0.0000000000000000   11.4560680794196443
 Fe  Zr 
 126   1
Cartesian
 -0.0337063511929430  0.1010365875316028  0.0000442661059038
  1.0746593633276817  1.3838285784622821  1.7893591883931661
 -0.0991795410907430 -0.1003144741820399  2.9629302778396123
  1.3535283554187154  1.3837431708882924  4.3088440334116020
 -0.0483140338896478 -0.0629888501526506  5.7280930295520776
  1.3535277999398629  1.3839138332621770  7.1472217159415523
 -0.0989174780418057 -0.1003184483259017  8.4928679555632591
  1.0746733047398986  1.3838286868485585  9.6667203672993232
 -0.0337061346747935  2.6666205093647881 -0.0000456162552530
  1.4750022920695935  3.9719465496144464  1.3892714952548655
 -0.0989135203497155  2.8679714975889952  2.9631964546267358
  1.4569536021068947  4.1595077528638660  4.2959438950002680
 -0.0483140488684477  2.8306460762323904  5.7279775630572454
  1.4567551461129025  4.1594889867475660  7.1601843204835376
 -0.0991838291957722  2.8679756073821645  8.4931343159622195
  1.4747456617383752  3.9719440841828346 10.0670549186104719
  0.0713904539154340  5.4973217619964547  0.0000778161564044
  1.4550405640278496  6.9630741521371124  1.4089767210613182
  0.0402767335785462  5.5319262627385211  2.8240053224767792
  1.4627615173625499  6.9632355953479319  4.2448847611514386
  0.0457622426094853  5.6033226917429211  5.7280188596691053
  1.4627618908206601  6.9629125670309646  7.2111831783765421
  0.0400108269568852  5.5319257417261598  8.6323270023160088
  1.4550403300608592  6.9630741364946216 10.0470910723423028
  0.0713902919103861  8.4288263266678847 -0.0000778558041452
  1.4747449719318324  9.9542014136403694  1.3890143041663963
  0.0400117051467645  8.3942217757858959  2.8237406589600238
  1.4567565638109992  9.7666592906393639  4.2958826643626979
  0.0457624457787989  8.3228252479340892  5.7280496700912948
  1.4569519689849966  9.7666397702816852  7.1601231335716724
  0.0402759231506837  8.3942221694516821  8.6320623379507797
  1.4750030569219028  9.9542038645278108 10.0667978349813563
  4.6533527245587045  1.3838284881241345  1.7893317485459455
  2.8640631957039893  0.1010376685215546  2.8977206427838418
  4.3745051831204194  1.3839138418958492  4.3088464876025947
  2.8640168338333858  0.0341387964913549  5.7280338364635339
  4.3745058283874663  1.3837431841955317  7.1472189611233983
  2.8639734801279717  0.1010409791158250  8.5583523350749413
  4.6533393722092713  1.3838287068324115  9.6667469142415765
  4.2532860500829885  3.9719421669041699  1.3890131853994787
  2.8639732577538424  2.6666192515279987  2.8977206973623524
  4.2712795367247196  4.1594879262484818  4.2958823331225027
  2.8640166403447016  2.7335182757225041  5.7280339637325985
  4.2710839859507841  4.1595073982794446  7.1601236705472573
  2.8640631803113630  2.6666163041446085  8.5583525268869032
  4.2530282734737650  3.9719401022704131 10.0667991597448374
  2.8640163544190607  5.4818639120873698  0.0000003081663572
  4.2729938659381563  6.9630739462902325  1.4089767824588275
  2.8640946081096654  5.4973220820129365  2.7926267681565085
  4.2652723422619152  6.9629123940168318  4.2448838687749300
  2.8640164257624758  5.5894791618842010  5.7280344783783770
  4.2652723462622406  6.9632355827882346  7.2111838411992295
  2.8639391367653162  5.4973233980642018  8.6634410009584979
  4.2729939754905972  6.9630739151061816 10.0470912522942157
  2.8640162766545023  8.4442841313686507  0.0000002175425925
  4.2530291729318108  9.9542057864468489  1.3892702798996761
  2.8639389711351977  8.4288259110183006  2.7926268512636709
  4.2710826984722052  9.7666410624806215  4.2959434609801068
  2.8640164873465337  8.3366687370742341  5.7280339009916021
  4.2712808845297099  9.7666598514836274  7.1601844257671310
  2.8640947896965341  8.4288245851250547  8.6634407209134316
  4.2532855570429442  9.9542077513468232 10.0670564222847077
  5.7617300395177224  0.1010421001819909 -0.0000454955763608
  7.1728653568692993  1.3837433013680940  1.5104892713530853
  5.8269549946763517 -0.1003227376180406  2.9632046070463081
  7.1812849424297136  1.3838285875358325  4.3172664269402956
  5.7763477253817301 -0.0629899078793199  5.7279773418745910
  7.1812834113744062  1.3838284239625755  7.1388019567259473
  5.8272253185864447 -0.1003273773246331  8.4931251950967646
  7.1728666450568568  1.3839137768414878  9.9455786910292527
  5.7617299148181029  2.6666148798360889  0.0000441109253604
  7.1599625073115174  4.1595078541150015  1.4070661345276665
  5.8272208758937118  2.8679797982827195  2.9629388183364487
  7.1951900447455017  4.2834012217703163  4.3310037517036752
  5.7763475925540417  2.8306470136152866  5.7280928099069781
  7.1950204165799523  4.2834003945897425  7.1248962811278371
  5.8269592293278887  2.8679845565231812  8.4928594426883635
  7.1599010382349544  4.1594885306914247 10.0488039761893546
  5.6566443893661784  5.4973239357480210 -0.0000777427765724
  7.1089015662433157  6.9632355107640560  1.4012550085711464
  5.6880232650342917  5.5319252717466032  2.8237415816269218
  7.1097165416825279  6.9630737322469836  4.2456988366491499
  5.6822714750947094  5.6033218900756694  5.7280498732842364
  7.1097160635555543  6.9630740925860328  7.2103692029303099
  5.6877590057242742  5.5319250054314404  8.6320609249017330
  7.1089013610508980  6.9629124524884780 10.0548130458387419
  5.6566441442716124  8.4288239853777451  0.0000778936350534
  7.1599012664196149  9.7666589539532236  1.4072630839213724
  5.6877586060641026  8.3942225532593984  2.8240067832001206
  7.1950211147991281  9.6427470898245851  4.3311724902583233
  5.6822714280588471  8.3228258559543740  5.7280187413909411
  7.1951890491529271  9.6427478441094863  7.1250648342229717
  5.6880239705097990  8.3942230538067744  8.6323258649995083
  7.1599621338129920  9.7666405417182549 10.0490012293484927
  8.5920511518864817  0.0341389486972275  0.0000004287222920
 10.0112419478510191  1.3839139140981089  1.5104882571426124
  8.5921062776994628 -0.0629892029239373  2.9123308058208339
 10.0028167016773342  1.3838283560987312  4.3172688700059449
  8.5920514131013785 -0.0588884180177600  5.7280338897221732
 10.0028176872189878  1.3838286568874347  7.1387995360446084
  8.5919908375252678 -0.0629895607140354  8.5437371546752914
 10.0112405994244522  1.3837432085804673  9.9455800779158121
  8.5920513856038632  2.7335182129218816 -0.0000001732064323
 10.0242033202853484  4.1594881727007458  1.4072604592685323
  8.5919911534335558  2.8306462649595638  2.9123310017248945
  9.9890796523757075  4.2834021864482770  4.3311741464160738
  8.5920512324926932  2.8265458963146290  5.7280336974199573
  9.9889117427749845  4.2834014483589566  7.1250630850037915
  8.5921063070146744  2.8306468201998576  8.5437373797139973
 10.0241419200522994  4.1595068567745885 10.0490035265006412
  8.5920506741520093  5.5894790017187095  0.0000003901668510
 10.0752009045088204  6.9629122621229840  1.4012559600285626
  8.5920353493925674  5.6033224932871235  2.8182544865578083
 10.0743854854105095  6.9630738493346591  4.2456999395196711
  8.5920518604771505  5.7038057979516221  5.7280337087680291
 10.0743859057292138  6.9630739261317895  7.2103684748322605
  8.5920663414500922  5.6033221471689014  8.6378137147738485
 10.0752010284694524  6.9632355585046826 10.0548121144426368
  8.5920509271376684  8.3366688466798458  0.0000004577944754
 10.0241419244446544  9.7666403888960485  1.4070632582954690
  8.5920662641890804  8.3228256080257861  2.8182547981932209
  9.9889110095587945  9.6427458695215051  4.3310057917991287
  8.5920519629125742  8.2223419913397926  5.7280337316282051
  9.9890802918642105  9.6427465446553029  7.1248946453003112
  8.5920350632384004  8.3228260062709616  8.6378137265024968
 10.0242032093195750  9.7666601332763001 10.0488064479409704
  2.8640483394099188  1.3838286145120144 -0.0000161269449947
