Fe Pd
 1.0000000000000000
    11.4337939594493587    0.0000000000000000    0.0000000000000000
     0.0000000000000000   11.4404352233272881    0.0000000000000000
     0.0000000000000000    0.0000000000000000   11.4337939532796575
 Fe  Pd 
 126   2
Cartesian
  0.0001658281486770 -0.0162507921724350 -0.0000859693874778
  1.3589573914457109  1.4300543966731847  1.4994910001086106
 -0.0287858399936583 -0.0183021281420988  2.8873137276449907
  1.4200818877628518  1.4302492053862745  4.2875130679060316
 -0.0124196247566042 -0.0125460773173398  5.7168955157842740
  1.4200815053161413  1.4298594492464682  7.1462809061282568
 -0.0288649538132118 -0.0183022390393354  8.5465595152513174
  1.3589571381711927  1.4300542268806675  9.9343024596386726
  0.0001659658664764  2.8763591268551516  0.0000857444914497
  1.3926585045875730  4.3203956514810669  1.4656623600712086
 -0.0288652787090151  2.8784110907674374  2.8872344201138214
  1.4166536348368908  4.3044922658490776  4.2932472750377713
 -0.0124196577510145  2.8726548689169227  5.7168982074199510
  1.4163492524958818  4.3045373952985040  7.1405657887105569
 -0.0287860969392941  2.8784112144619303  8.5464804505736378
  1.3927857719764070  4.3203959359595867  9.9680035863069882
 -0.0135587079374250  5.7211491738169356  0.0001012232451632
  1.4316950208614168  7.1502720032015512  1.4267532597204893
 -0.0275909982806288  5.7449886964211307  2.8860474661792095
  1.4204239866686237  7.1502016409265732  4.3026441758627234
 -0.0004713117052418  5.7318704374753269  5.7168842792156731
  1.4204236930557403  7.1503421223589614  7.1311498850873889
 -0.0275992153753556  5.7449885572001511  8.5477545226888303
  1.4316950572636016  7.1502720824404626 10.0070406011750812
 -0.0135587985223889  8.5793951554071466 -0.0001011966385476
  1.3927857517213940  9.9801481179807094  1.4657901929881596
 -0.0275989499141939  8.5555553841011225  2.8860392806411252
  1.4163493271540868  9.9960066282634195  4.2932281412421931
 -0.0004713977490780  8.5686734640150384  5.7169095688624534
  1.4166534494978977  9.9960515454720991  7.1405466350621580
 -0.0275907689027548  8.5555554816742792  8.5477466205394013
  1.3926584980082803  9.9801482769911711  9.9681311260205714
  4.3579393919221685  1.4300544077543997  1.4994908688624486
  2.8583625215807578 -0.0162505517414181  2.8582823182330634
  4.2968152445217509  1.4298595798967204  4.2875129176292788
  2.8584485875172554 -0.0080090225055958  5.7168970059422453
  4.2968151403003665  1.4302491918982749  7.1462809449701457
  2.8585341302712028 -0.0162505364281446  8.5755110547049611
  4.3579398556421882  1.4300545102794207  9.9343027429006590
  4.3241109296669267  4.3203958406212850  1.4657899316286671
  2.8585344369748911  2.8763592669047839  2.8582824377192053
  4.3005474703445410  4.3045372595947242  4.2932282851314154
  2.8584486187364710  2.8681179035894031  5.7168966675243817
  4.3002434945925518  4.3044920847148820  7.1405465322369279
  2.8583625621546815  2.8763593739376470  8.5755114643345021
  4.3242386869232545  4.3203957703288669  9.9681313225932033
  2.8584484363017482  5.6368705391695721 -0.0000001541516903
  4.2852016535792794  7.1502720279764791  1.4267532838840511
  2.8585496013517968  5.7211491487346366  2.8720072427938459
  4.2964732881305796  7.1503423473742025  4.3026443848087847
  2.8584482713093573  5.7229042169152899  5.7168968779949507
  4.2964731567061243  7.1502018825476341  7.1311497468515368
  2.8583472220782720  5.7211489286611075  8.5617866773667970
  4.2852016641117814  7.1502720940915099 10.0070408407222864
  2.8584484808704920  8.6636733931272136  0.0000001657813520
  4.3242386097521024  9.9801481831932310  1.4656625691148744
  2.8583471628098076  8.5793949445750570  2.8720070411788869
  4.3002432904143753  9.9960518894214889  4.2932474094595818
  2.8584484547915685  8.5776397775834177  5.7168969957380087
  4.3005477370598468  9.9960064637680137  7.1405658659805660
  2.8585496964245940  8.5793951415794325  8.5617866970880439
  4.3241111445046094  9.9801484361872017  9.9680038330417080
  5.7167309348912463 -0.0162504077218001  0.0000860628199876
  7.1459615430141703  1.4302492674357532  1.4383665656137770
  5.7457620784792534 -0.0183022989054672  2.8872343367951112
  7.1613913488917342  1.4300542419532696  4.3029425627076643
  5.7293165869599489 -0.0125461757904376  5.7168982047764656
  7.1613914499811893  1.4300542975287309  7.1308511529714655
  5.7456827022665777 -0.0183021648896667  8.5464802687367261
  7.1459613999289466  1.4298595614113800  9.9954274912576704
  5.7167310245622511  2.8763592992469964 -0.0000856466781273
  7.1516960050565608  4.3044923519034368  1.4417951371669313
  5.7456828004229914  2.8784110266738741  2.8873134479685785
  7.1666487563024148  4.3135247054431671  4.3081691726046172
  5.7293167657518396  2.8726551199583148  5.7168955958570935
  7.1666176038706402  4.3135246925239707  7.1255938413916953
  5.7457620841020249  2.8784112022542048  8.5465595149964244
  7.1516765744229893  4.3045372699101367  9.9916948940964403
  5.7304555679365228  5.7211490470144124 -0.0001011588920685
  7.1610926898207765  7.1502017529152280  1.4380245858214904
  5.7444962107339146  5.7449887593827009  2.8860394182922695
  7.1656796978530419  7.1502721277090036  4.3072315920898179
  5.7173682069655332  5.7318706074092054  5.7169097705364686
  7.1656800771439668  7.1502720664024189  7.1265624672983447
  5.7444878549673293  5.7449884217105707  8.5477465505438044
  7.1610925928218254  7.1503422078769665  9.9957692712203006
  5.7304557438527874  8.5793949374675353  0.0001012199991882
  7.1516766697304588  9.9960065523921244  1.4420992290585404
  5.7444882117293661  8.5555552291901726  2.8860475100014935
  7.1666177578341710  9.9870193723115293  4.3082002316054711
  5.7173683807210347  8.5686733866841784  5.7168842758484546
  7.1666486407763959  9.9870191944949589  7.1256249197684456
  5.7444959002035789  8.5555550928284489  8.5477544519345017
  7.1516957726734303  9.9960517515370668  9.9919991789683724
  8.5753454691302977 -0.0080087835661988  0.0000000200769652
 10.0047293027950666  1.4298596711157237  1.4383664059329129
  8.5753443381987484 -0.0125460508065450  2.8708681758530847
  9.9892996534793195  1.4300544937471356  4.3029428681295672
  8.5753454700749003  0.0003981049892368  5.7168969731982084
  9.9892997186773531  1.4300545070836346  7.1308512692461887
  8.5753467192828925 -0.0125461642100955  8.5629256719453615
 10.0047296775300563  1.4302491617846653  9.9954271125469827
  8.5753453617995969  2.8681177188784783  0.0000001058752654
  9.9990143365665531  4.3045374474350133  1.4420989526375312
  8.5753466443236430  2.8726548462194605  2.8708683441865035
  9.9840733071250938  4.3135246556046152  4.3082001771142409
  8.5753453262886836  2.8597107216205471  5.7168968464188312
  9.9840422280837426  4.3135246636246869  7.1256246215739480
  8.5753440349178458  2.8726550011301804  8.5629258616693189
  9.9989951697344512  4.3044923660140375  9.9919990552942917
  8.5753454509639599  5.7229042009989168 -0.0000000782794149
  9.9895982336883442  7.1503422769812497  1.4380246810330068
  8.5753324920721798  5.7318708309679947  2.8589198803837199
  9.9850110384221757  7.1502720468347842  4.3072313920354945
  8.5753454770103446  5.7194868112641650  5.7168970739760860
  9.9850109234975051  7.1502719053016843  7.1265624235124898
  8.5753580064078445  5.7318706359227090  8.5748741503843622
  9.9895984068735437  7.1502018044103277  9.9957692450682227
  8.5753453017360233  8.5776399245628863 -0.0000000649783459
  9.9989949247944629  9.9960516269077271  1.4417951563730036
  8.5753582003020430  8.5686733182941044  2.8589196571624274
  9.9840422727425153  9.9870194077870931  4.3081690094750957
  8.5753454822975215  8.5810574202655552  5.7168968423793238
  9.9840732984230005  9.9870192748804545  7.1255935164811843
  8.5753327916598625  8.5686734255153105  8.5748741417787784
  9.9990145692621137  9.9960067883882981  9.9916946954295920
  2.8584485085670495 -0.0484494008610859  0.0000003410556268
  2.8584484827008745  2.9085582269290771 -0.0000000364163316
