Fe Hf
 1.0000000000000000
    11.3725864947097666    0.0000000000000000    0.0000000000000000
     0.0000000000000000   11.3725864952187390    0.0000000000000000
     0.0000000000000000    0.0000000000000000   11.3725864927175255
 Fe  Hf 
 126   1
Cartesian
 -0.1578513307765954 -0.0765628115654701 -0.0771143663810394
  0.0644780643637068  0.0066224456663790  2.7781859175415304
  1.4509817136194345  1.3924270208905385  4.2381863075970818
  0.0099594669646863 -0.0107201852558864  5.6802841884904751
  1.4233570524630215  1.4198916133192956  7.1032983797140439
 -0.0058717661452070 -0.0211468427276391  8.5306555421209946
  1.3555363934606623  1.4870533212454555  9.7815483970147330
  0.0649606113097914  2.7786686061420491  0.0066224488371069
  1.4507196246030394  4.2381863331017433  1.3921648913257920
  0.1049268096579051  2.7382198518114396  2.7382198120349890
  1.4347314548648071  4.2242915589586518  4.2240545307417143
  0.0137611016166390  2.8295846340727051  5.6679411444133256
  1.4293751559007950  4.2573312233901515  7.1011066389039588
 -0.0153235489884972  2.8584620479549381  8.4933511439915890
  1.4116067558679144  4.2523815275239993  9.9342816759578749
  0.0099665175477837  5.6804746273045694 -0.0108698647538048
  1.4232550099374410  7.1032983177072566  1.4197895419892146
  0.0135620098281089  5.6679411616733306  2.8293854800247211
  1.4292846179327718  7.1010500733723152  4.2573259108838304
  0.0149496748931301  5.6751759180010932  5.6750604974048038
  1.4278584030517210  7.1051694117504383  7.1053260012133697
 -0.0056395878908436  5.6812835374665367  8.5113044452603912
  1.4215362843808954  7.1029750806944163  9.9498389252763157
 -0.0059879902653583  8.5308029403271490 -0.0211301075165826
  1.3560933437373675  9.7815484701387234  1.4876102293115130
 -0.0153153361508089  8.4933511242817623  2.8584701750264014
  1.4115925678162324  9.9343968042134154  4.2525295189190677
 -0.0054581584962062  8.5114303235464099  5.6813577683322345
  1.4216885436527689  9.9498268799466505  7.1031672148854561
  0.0062167975518296  8.5354846790191505  8.5353075989732918
  1.4388540791638016 10.0034377225929578 10.0039219896146694
  4.4341846922105805  1.4876102065337071  1.4870533010831208
  2.9197094920732205 -0.0771143784926841  3.0009979111216016
  4.2814514172114446  1.4315398972068401  4.2523815129471423
  2.8525850912456372 -0.0093380355037678  5.6804671482285158
  4.2658941757672082  1.4216103063578862  7.1029751012336924
  2.8254532280909004  0.0179512984788548  8.5450540524029233
  4.2118111299047909  1.4042925161325945 10.0034377065990476
  2.9202610337419763  3.0009979615398437 -0.0765628953271257
  4.2813363308590056  4.2525295253542996  1.4315540596803342
  2.8365241874877425  2.7781859339192394  2.7786685731552301
  4.2687456148848497  4.2475007427762348  4.2473200343658366
  2.8540164266241632  2.8331801227538351  5.6804746513027409
  4.2811728883908522  4.2719777252813351  7.1015982096228711
  2.8642767311465192  2.8491345934695143  8.5308029412042625
  4.2910187846581165  4.2901263297732459  9.9247231900053769
  2.8524846962628057  5.6804671062906502 -0.0094385006970718
  4.2659062703429695  7.1031671879070091  1.4214580940451593
  2.8538667529430524  5.6802841160676758  2.8331871230426291
  4.2809921060954830  7.1015230531849678  4.2718491483727510
  2.8473409265216216  5.6776091088886353  5.6777629377134229
  4.2610046505057673  7.1075167731865800  7.1074055133419867
  2.8461791459263646  5.6821642036441684  8.5255856264723100
  4.2624075232014302  7.1151138161427365  9.9531314397132125
  2.8251953646255101  8.5450540149001899  0.0176933837048290
  4.2122953761163497 10.0039219973534657  1.4042925648539872
  2.8642934620674372  8.5306555432203766  2.8490184050988705
  4.2910098927583746  9.9247143072867487  4.2901263321511944
  2.8462697428472223  8.5255850911899795  5.6822219262757256
  4.2626017214298058  9.9533256416580542  7.1151138225741350
  2.8411489276442223  8.5585467371920814  8.5583145609942743
  4.1717886882966537 10.0439443995209956 10.0439444579932875
  5.6706790967646752  0.0176933801906886  0.0179512967109154
  7.1124347531088929  1.4197895698340446  1.4198915811873971
  5.6849301497578741 -0.0211301168437607  2.8491345852375898
  7.1146264850449521  1.4137714278634985  4.2573312124872853
  5.6901474703119872 -0.0030325338381068  5.6821642004107185
  7.1104071154160051  1.4152881953255050  7.1051694177975531
  5.6574185641934687  0.0019976925911407  8.5585467134595969
  7.1125658844677684  1.4214581150535643  9.9498268836538877
  5.6850776156134764  2.8490184192490537 -0.0211468717969936
  7.1146830707616981  4.2573258812799493  1.4138619720545835
  5.7223819507961862  2.8584701640577839  2.8584620194409807
  7.1325494070073443  4.2645377472781405  4.2643449536060878
  5.7044286595231499  2.8487862046204251  5.6812835345478270
  7.1109390508612504  4.2629812751650320  7.1047624982420245
  5.6804254883786989  2.8369298132670711  8.5354847045811120
  7.1142100693915085  4.2718491419453812  9.9347410307066646
  5.6901480162908049  5.6822219318202105 -0.0031231062174560
  7.1105637270314839  7.1053259740683901  1.4152882129698621
  5.7043027846768037  5.6813577171156258  2.8486047736273723
  7.1109705776136769  7.1047940971757040  4.2629813251355628
  5.6957052118164606  5.6777419074810940  5.6777738949128373
  7.1141646981138900  7.1015684673338200  7.1015684411429891
  5.6976059030990074  5.6996384154713864  8.5183233263801981
  7.1082162988657283  7.1074055084571546  9.9547284565532266
  5.6571864130347720  8.5583144948424188  0.0019976977124041
  7.1127580326961519  9.9498389257852828  1.4216103183228346
  5.6802484180988859  8.5353076071776108  2.8369298652885950
  7.1141348764131784  9.9345601658134015  4.2719777406111730
  5.6974097461782103  8.5181271661408307  5.6996384208705217
  7.1083275832844821  9.9547284501418343  7.1075167647956814
  5.6680336844964740  8.5476994417837275  8.5476994477132475
  7.1006192773233971  9.9531314098331407  9.9533256032047674
  8.5352659867819884 -0.0094384741015571 -0.0093380060460536
  9.9775468025733627  1.3921648830183524  1.3924270286324418
  8.5352584809519563 -0.0108698687972506  2.8331801018530536
  9.9916786157165003  1.4084151698265834  4.2242916452475479
  8.5379702338433958 -0.0041943481356573  5.6776091066657495
  9.9584071955760098  1.4138619771036354  7.1010500692654679
  8.5335111837937596 -0.0031231436341518  8.5255850814183152
  9.9632035824986112  1.4315540299856435  9.9343968031277932
  8.5354489614246578  2.8331871501226535 -0.0107201632576400
  9.9914415129033287  4.2240545417304309  1.4084151684290442
  8.5477919906262976  2.8293855010365858  2.8295846637360160
  9.9812642868215811  4.2344687812017883  4.2344688206838921
  8.5406726705147324  2.8281969474709419  5.6751759090929976
  9.9511953132527236  4.2643449438028656  7.0831837113282319
  8.5343753289000919  2.8486047754762955  8.5114303294170988
  9.9682323240453155  4.2473200226381334  9.9469875078567433
  8.5381239645286904  5.6777629250437371 -0.0041943015177551
  9.9584019401228883  7.1011066172737429  1.4137714511808277
  8.5405572099443834  5.6750604931431790  2.8281969848607460
  9.9513881994571562  7.0831837346648578  4.2645377527068637
  8.5350885890011590  5.6806444887717760  5.6806444698045055
  9.9527518305333427  7.1047625529662310  7.1047941184034471
  8.5379911824670796  5.6777739085270023  8.5200279057803225
  9.9437553750460790  7.1015982142742358  9.9345602246311024
  8.5335689032730144  8.5255856388205196 -0.0030325373799904
  9.9633516181164232  9.9342816852095623  1.4315398609766088
  8.5344496215055479  8.5113044576613408  2.8487862055306818
  9.9684131606886162  9.9469874935795826  4.2475007529688620
  8.5379592459942337  8.5200279357889208  5.6777419297128109
  9.9438839530861980  9.9347410248179955  7.1015230404814691
  8.5160946732563012  8.5183234005975805  8.5181272082873658
  9.9256068059009870  9.9247231906574900  9.9247143381715208
  2.1392890814306300  0.7038574595327391  0.7038575259865090
