Fe Rh
 1.0000000000000000
    11.3942807005408380    0.0000000000000000    0.0000000000000000
     0.0000000000000000   11.3877353548681821    0.0000000000000000
     0.0000000000000000    0.0000000000000000   11.3942807000807456
 Fe  Rh 
 126   1
Cartesian
  0.0304710522902469 -0.0000599284058519 -0.0297321598586308
  1.3520221312215133  1.3868330785146226  1.4961007929357333
  1.3823210319062056  1.3685171022123443  4.2247131690354269
  0.0033078122986970 -0.0000405269808567  5.7352389722456572
  1.4237442865261445  1.4263146151266410  7.1296785467000081
 -0.0048931058032184 -0.0000173693663901  8.5425396373217808
  1.4015649786549298  1.4513479875800457  9.9425632226840364
 -0.0047371417192959  2.8413063205501601  0.0107685440407132
  1.4265493506184617  4.2653847317497178  1.4219370302213585
 -0.0193359005501021  2.8978983278790378  2.8678785985325979
  1.4217497751320025  4.2775752864074397  4.2825584239326036
 -0.0026447693282935  2.8356593651773676  5.6851113822169799
  1.4180241169897143  4.2775522132745074  7.1133186698718669
 -0.0200693543584703  2.8612446101326223  8.5271913687469834
  1.4210846790111606  4.2663087868567144  9.9671001419642984
  0.0053543835160986  5.6938812030635910  0.0085532982115957
  1.4266330364768653  7.1223507340533088  1.4220209450732657
 -0.0027561160661261  5.6938676489797384  2.8513261820936950
  1.4218045484639301  7.1099918877234494  4.2823996623610929
  0.0038826129576335  5.6938580635073972  5.6890143043208088
  1.4179855015008089  7.1101743165273970  7.1131969493565208
 -0.0057103826731411  5.6939159134257746  8.5418234736200098
  1.4209354229615729  7.1214793322718144  9.9673035715935470
 -0.0048289139595599  8.5465397077689200  0.0107853043693176
  1.3524693868016102 10.0009021495214956  1.4965480213995674
 -0.0193084600789049  8.4898372974605518  2.8679057989192391
  1.3820760016649940 10.0193454168286973  4.2247344871925474
 -0.0026975137303555  8.5520966015702555  5.6850756080308713
  1.4238916934820094  9.9610337181458153  7.1297312256415015
 -0.0201008502206345  8.5265206489220073  8.5272201552422278
  1.4016547298445974  9.9365050740459822  9.9424950080678425
  4.3003559283497550  1.4512301001222352  1.4469150804494766
  2.8783021876859127  0.0000600385669457  2.8180991097512744
  4.2742460528214279  1.4253740605069156  4.2689082266844904
  2.8387233132197203 -0.0000619054757490  5.6912900942769848
  4.2748071047422407  1.4251652081753954  7.1239139647101863
  2.8464999298987324  0.0000152254585153  8.5764223935271158
  4.2919309575892939  1.4444287417114636  9.9510516891541876
  2.8338396938253623  2.8073595109056382  0.0147304290375642
  4.2755473839127980  4.2662560688380875  1.4276347152166673
  2.8377849441820970  2.8411954402120072  2.8533991267996619
  4.2765290913066192  4.2772497687051718  4.2803901466919694
  2.8316000955542222  2.8270053580081012  5.6839378060400048
  4.2711018216812340  4.2721848881528475  7.1071044754756381
  2.8444867575210120  2.8483402494859535  8.5424271253026909
  4.2678815141729167  4.2619318702047488  9.9750774211683844
  2.8461349408003418  5.6938676317592147  0.0024353392530025
  4.2757506589117273  7.1214264891858639  1.4274858292414054
  2.8400169872323024  5.6938543118569669  2.8432158620587238
  4.2766110585525556  7.1105301704627575  4.2804149617961089
  2.8446949618297008  5.6939027536241982  5.6928967991509811
  4.2711824939108229  7.1155138973217227  7.1070788891830681
  2.8451322308472626  5.6938831600204223  8.5518405756766711
  4.2677736276574860  7.1258034553173077  9.9749694882272522
  2.8338396002462924  8.5803756260968100  0.0147305357782854
  4.3002875372088925  9.9363873749077705  1.4470052312945212
  2.8378018125290443  8.5464288785083138  2.8533071006742272
  4.2740735462778705  9.9622576351978349  4.2689355852837014
  2.8315541670335889  8.5606933871306037  5.6839103349162805
  4.2749770922830095  9.9627312412952787  7.1239580070976620
  2.8444957896362104  8.5392915801062870  8.5423879419012270
  4.2917991213222946  9.9433066154436638  9.9509199727605946
  5.6664282482734611 -0.0000153363294882  0.0020703033264423
  7.1131196922794988  1.4267018779925320  1.4246782455309444
  5.7003114132951547  0.0000172592826269  2.8534631465046161
  7.1248716454149230  1.4296421223483520  4.2820884813743341
  5.6922896873954292  0.0000010696625364  5.6897034309071426
  7.1287614583921028  1.4270040177731735  7.1142113266101168
  5.7000279767016009  0.0000000427642884  8.5428226776391494
  7.1188929776668557  1.4250038871033697  9.9678735044411582
  5.7004630660840121  2.8484438223261481  0.0040743573358495
  7.1296538753472669  4.2775608371158622  1.4305844599784354
  5.7156306008951692  2.8612147478790617  2.8686710860776690
  7.1310399834544480  4.2776074350008901  4.2805404913619274
  5.6986448945476100  2.8455701974220746  5.6924917562256168
  7.1371437939857980  4.2687745030618176  7.1057372186130117
  5.7144763987274780  2.8638706234138374  8.5283459759807254
  7.1357719530618375  4.2722215175283473  9.9716684620973535
  5.6910103583067810  5.6938524220296367  0.0034379199421424
  7.1295323292488977  7.1101831143111527  1.4305460677550683
  5.7010275069896705  5.6938196973451038  2.8542807971714867
  7.1310400592922560  7.1100600200525905  4.2805227992691544
  5.6953894333159658  5.6938331270523266  5.6939290422942044
  7.1371137657868129  7.1189607400561687  7.1057070677206786
  5.7018762935613605  5.6938677438827971  8.5409747841631223
  7.1357464490198170  7.1155504606164630  9.9717491442822919
  5.7004236835455888  8.5393948036605156  0.0040835362183704
  7.1131725553857938  9.9614211645759543  1.4248255258849047
  5.7156598260024216  8.5264906868850634  2.8686393031297053
  7.1248703815080656  9.9580421684324776  4.2819038209183393
  5.6986403785334838  8.5421438655677626  5.6924519580592188
  7.1286393443444540  9.9607314130018469  7.1140892701199698
  5.7145051004867744  8.5238647736953226  8.5283745794869024
  7.1189367883210570  9.9625700816071436  9.9680442152426210
  8.5515610352135099  0.0000619142162506  0.0098466418447765
 10.0181163266924909  1.3683898785361159  1.4664941110402752
  8.5076119745392784  0.0000405577607327  2.8452625057533614
 10.0142784346586353  1.3733776265591220  4.2286829904049696
  8.5565155649407387 -0.0000000270433477  5.6863353501134108
  9.9609473221699023  1.4296931431570452  7.1179804616273801
  8.5531475990696837 -0.0000012070756437  8.5505611130573609
  9.9739153918984300  1.4254776883070481  9.9687773907395023
  8.5589404970902425  2.8270420021165763  0.0170159069553136
  9.9604512978464044  4.2777433899671520  1.4267654174310727
  8.5577753733343709  2.8356386579397270  2.8512675862960855
  9.9608505610165157  4.2800201541385912  4.2819495216791665
  8.5639351797830390  2.8256136457477075  5.6789642426691609
  9.9623283853061171  4.2776755625302547  7.1118109628336992
  8.5503989275974011  2.8455912360469093  8.5442104706970099
  9.9624362743293684  4.2772053121067275  9.9662398752696557
  8.5499541965763761  5.6938324240434293  0.0038753460803851
  9.9602922385613688  7.1101599458600644  1.4268206004476032
  8.5538366214654644  5.6938770160063612  2.8446877335724685
  9.9609013146902292  7.1077151879684770  4.2820001352737727
  8.5490312514824449  5.6938676910571457  5.6938198018283348
  9.9623104404891905  7.1101280286682602  7.1118110092877895
  8.5489220873741978  5.6939021978475788  8.5474617054167101
  9.9624607093984743  7.1104854943634512  9.9663217877374670
  8.5589131431246308  8.5607299747849854  0.0169701423105729
 10.0181376706986249 10.0192180947638381  1.4662490786335474
  8.5577394905959903  8.5520760052952500  2.8512151609750176
 10.0141680377797737 10.0143578924449628  4.2285726189521826
  8.5638867873431348  8.5621215483475996  5.6789156903070603
  9.9607623170876138  9.9580931114854803  7.1179793682800518
  8.5503589897636996  8.5421652374632764  8.5442058943412338
  9.9739428357656799  9.9623610803842997  9.9686047862103138
  2.8455735316168522  0.0000000453992252  0.0029965053893498
