Fe Ti
 1.0000000000000000
    11.3676925170536176    0.0000000000000000    0.0000000000000000
     0.0000000000000000   11.3676925185227677    0.0000000000000000
     0.0000000000000000    0.0000000000000000   11.3676925183635849
 Fe  Ti 
 126   1
Cartesian
  0.0048368357864870  0.0187196882188760  0.0184669275731775
  1.2935982569740232  1.5483249748183814  1.5483247473657822
  0.0156431955855755 -0.0433184148083251  2.8265407332532226
  1.3712018628411551  1.4708633329392089  4.2092162610055563
  0.0021810336379390  0.0123786334622720  5.6732238884889119
  1.4250091633129607  1.4167161808528954  7.1156654858215918
  0.0083690296338404  0.0085088578275460  8.5373926805663665
  1.3879451686571833  1.4542534415926072  9.9078694121380586
  0.0153825565701111  2.8262798079302081 -0.0433183209318677
  1.3710596639493988  4.2092166251825534  1.4707213263472501
  1.3683891362622687  4.1995187401478198  4.1995679279652274
  0.0021802741562429  2.8397055677127865  5.7260186217701063
  1.4256015990692736  4.2663010040807379  7.1062025928435366
 -0.0206725902273849  2.8626253240530897  8.5066678854745224
  1.4243600159033656  4.2598889532165227  9.9461725692999092
  0.0021836712665467  5.6732628819207624  0.0123684364733489
  1.4252069309182576  7.1156657489784410  1.4169138569456226
  0.0022177727629685  5.7260185312821070  2.8397427765406262
  1.4254888579589502  7.1062273613543478  4.2663888199837618
  0.0009577072218398  5.6676349689515328  5.6676192463233770
  1.4219395547423923  7.1026934207718142  7.1027862096157310
 -0.0004653359645444  5.6743891115890523  8.5267033193634862
  1.4201963801205588  7.1117068117663580  9.9507776828962662
  0.0082961489732527  8.5372056248544066  0.0084252363936159
  1.3876695641063490  9.9078694455612464  1.4539778982411371
 -0.0207022379424315  8.5066679273040684  2.8625957748280735
  1.4242272016780122  9.9461473040856863  4.2599657054572955
 -0.0005257521419621  8.5265961225009246  5.6744767198353259
  1.4202906189352955  9.9506072403473276  7.1116991877270248
 -0.0225704943264823  8.5052239100001028  8.5053105782762053
  1.3820112136411229  9.9182313565602058  9.9183614780654406
  4.3017463162936016  1.4539777219204542  1.4542536814881890
  2.8232035429916285  0.0184669600646829  2.8370863195058194
  4.2634431538452882  1.4175631030643459  4.2598886918005530
  2.8229396006558756  0.0189346216325324  5.6649733309528738
  4.2588380115378204  1.4217267568499454  7.1117068485570814
  2.8392615345437702  0.0025390783139992  8.5344174821954528
  4.2912541239819042  1.4599114932402948  9.9182312589971833
  2.8234562384802833  2.8370862489492379  0.0187197972337897
  4.2634687652229282  4.2599657304099363  1.4176959098618069
  2.8852412106094980  2.8265407166193617  2.8262797968801179
  4.2612909260624052  4.2643441402607891  4.2641973367229085
  2.8295546780330354  2.8397393139055440  5.6732628825824003
  4.2583182747727353  4.2631318530422027  7.1037515770128676
  2.8334979996740000  2.8336270849928913  8.5372056984949207
  4.2587101639472564  4.2546683316183431  9.9509690589055477
  2.8229887326063769  5.6649732964877018  0.0189835523437067
  4.2590085115339100  7.1116992275365405  1.4216325044642741
  2.8295444653212347  5.6732237609825829  2.8397421489423946
  4.2582125699770934  7.1038245902708317  4.2629937064964478
  2.8208157255020692  5.6621549840874632  5.6621053535361563
  4.2492478629516874  7.0944180437488287  7.0944484575420983
  2.8361099747546556  5.6790804346850114  8.5284029773702112
  4.2531349252603778  7.1017108824532862  9.9563587775962130
  2.8393840428078181  8.5344174358495195  0.0026614745541478
  4.2913843988687317  9.9183615247546406  1.4599120380802180
  2.8334142306429464  8.5373926015156254  2.8335539352258992
  4.2586465746756028  9.9509052206237527  4.2546682796971993
  2.8360968973379554  8.5283860178329380  5.6791513886553791
  4.2532568365275303  9.9564806541392201  7.1017107770106609
  2.8371223195681337  8.5359739128268419  8.5358972396213559
  4.2959721324547155  9.9136434832809304  9.9136436840968436
  5.6751981292532179  0.0026613942690660  0.0025388927140126
  7.0939502059911899  1.4169139238396722  1.4167161809459223
  5.6724098735860800  0.0084251441891187  2.8336268422125457
  7.1034129596119726  1.4163217443567546  4.2663012257038417
  5.6812126556417661  0.0058133735716339  5.6790803385464930
  7.1068294421484861  1.4199834318497828  7.1026933853856402
  5.6737184324593475  0.0048008479657139  8.5359738361700011
  7.0979163824840059  1.4216322586874166  9.9506071711880644
  5.6722231025027039  2.8335541247122285  0.0085088445198898
  7.1033882504916237  4.2663889798166874  1.4164340909073037
  5.7029477770896255  2.8625958845145965  2.8626252902554228
  7.1053098288568908  4.2649886199723674  4.2650808800498705
  5.6829122980143421  2.8423884908820849  5.6743892088957244
  7.1094903542185515  4.2643667617840997  7.1000838448553081
  5.7043051625599714  2.8644937413729590  8.5052238085136853
  7.1057910722173361  4.2629936419676673  9.9514032879210994
  5.6812297224414348  5.6791512825959902  0.0058261804464023
  7.1069222008065012  7.1027862174422856  1.4199836936652250
  5.6830194642993330  5.6744768367492027  2.8424490311168662
  7.1095320351728164  7.1001250618199698  4.2643666621886798
  5.6819462822108280  5.6779918324006609  5.6779290524786692
  7.1197966430823003  7.0898191569292504  7.0898191521205689
  5.6852138653310202  5.6822022495487667  8.5244622586244283
  7.1151976391186569  7.0944483481446623  9.9603676535483157
  5.6736417996910795  8.5358973028150373  0.0048009205487441
  7.0979087981426003  9.9507776059487369  1.4217269050787231
  5.7043919610472340  8.5053106126305256  2.8644934064604097
  7.1058640695463753  9.9512975369819134  4.2631319321555221
  5.6851532337920005  8.5244016892520662  5.6822021563464924
  7.1151672601524893  9.9603679326015673  7.0944182268247546
  5.7113957055738123  8.4982198930656132  8.4982198197599743
  7.1079046188724480  9.9563587664225270  9.9564805734758295
  8.5446425229065976  0.0189835570211285  0.0189346685584775
 10.0003991115991280  1.4707213293611665  1.4708634543649135
  8.5363528628006193  0.0123684125018957  2.8397392658125011
 10.0100476645379199  1.4735337911757829  4.1995187948255417
  8.5475104471611107  0.0211072638682718  5.6621550085228476
  9.9432266599310424  1.4164341375043512  7.1062273516955763
  8.5304641625385589  0.0058263815149623  8.5283859012699814
  9.9496502762966745  1.4176960611176734  9.9461471383256566
  8.5363919095841911  2.8397420628206405  0.0123788469042056
 10.0100969127313988  4.1995678815581003  1.4735337453547677
  8.4835970344875271  2.8397426882680965  2.8397055291908915
 10.0069805692684088  4.2026350388751625  4.2026352590524692
  8.5419965426018454  2.8409654996603173  5.6676352065977618
  9.9446270980902636  4.2650809719234593  7.1043057844958222
  8.5351388009652709  2.8424489596519553  8.5265960349112451
  9.9452717377237132  4.2641972535853636  9.9483247300373456
  8.5474606366985295  5.6621053761827591  0.0211075106401098
  9.9433147950533325  7.1062026269450955  1.4163215542568437
  8.5419804526410985  5.6676192251375053  2.8409654831359163
  9.9445346769578951  7.1043057001160292  4.2649886221225417
  8.5503929350451919  5.6592225388199546  5.6592226186703050
  9.9452487613465550  7.1000835784477188  7.1001249882795747
  8.5316236365160361  5.6779289652808913  8.5276690396251791
  9.9464837192039877  7.1037513766779030  9.9512976515779830
  8.5305354028106439  8.5284030736313685  0.0058132672868573
  9.9497266582681512  9.9461725271580441  1.4175629361849140
  8.5352264995811531  8.5267034589770798  2.8423882589018712
  9.9454183432672423  9.9483246929499085  4.2643439184294163
  8.5316866835801157  8.5276694347723581  5.6779922359613915
  9.9466219822533564  9.9514031571571717  7.1038245675603964
  8.5274134893915985  8.5244622594385309  8.5244018744673742
  9.9549476467866125  9.9509689080415047  9.9509052521685994
  2.8163974152962452  0.0255256492976342  0.0255256903660067
