Fe Nb
 1.0000000000000000
    11.3934139753113097    0.0000000000000000    0.0000000000000000
     0.0000000000000000   11.3934139617104719    0.0000000000000000
     0.0000000000000000    0.0000000000000000   11.3934139727219659
 Fe  Nb 
 127   1
Cartesian
 -0.0108855609417302 -0.0000000396332396 -0.0000000662749475
  1.3622799838451769  1.4860735234329387  1.4860735714731403
  0.0139242983669053  0.0000000274014832  2.8344291383519002
  1.4246617311247307  1.4238270476577291  4.2646373422953827
 -0.0007164393963043  0.0000001025972693  5.6967069390119267
  1.4245266328180610  1.4236916488312243  7.1287766900603744
  0.0139241226301412 -0.0000001160361517  8.5589847385672790
  1.3622799969077743  1.4860736327546480  9.9073403831451632
  0.0139242664566580  2.8344291648887507 -0.0000001756335825
  1.4245264375550262  4.2646371523845126  1.4236918632216156
 -0.0169697298910256  2.8653233863687815  2.8653233597848371
  1.4252228221193357  4.2710415253666616  4.2710620450956176
 -0.0047874416366549  2.8531409755958941  5.6967069562620409
  1.4252227759752560  4.2710619665983938  7.1223723676108932
 -0.0169698457037483  2.8653233652648820  8.5280906060350610
  1.4246618028682878  4.2646371773010676  9.9695870286403832
 -0.0007166609261363  5.6967070216408819  0.0000002057231754
  1.4246616590729186  7.1287767057182183  1.4238271026904228
 -0.0047874046589697  5.6967070513903488  2.8531407743323314
  1.4252229044347144  7.1223521006776229  4.2710415996038833
  0.0030117790792459  5.6967070013040590  5.6967072186933612
  1.4252227884753650  7.1223723891133011  7.1223518331737052
 -0.0047875592233098  5.6967068688408338  8.5402730779633007
  1.4245266057430652  7.1287769219238113  9.9697221836271872
  0.0139242485608325  8.5589848707794012 -0.0000000587604858
  1.3622797931244464  9.9073403094158898  1.4860736704923203
 -0.0169697423234940  8.5280905165632035  2.8653232849063559
  1.4245265365576758  9.9697221696921652  4.2646372885035877
 -0.0047873898480552  8.5402729593046214  5.6967070777497764
  1.4246618021860564  9.9695869779748012  7.1287767699075761
 -0.0169699735108322  8.5280907410378841  8.5280904818322831
  1.3622799090089490  9.9073403823034454  9.9073405969790436
  4.3344270839802874  1.4860734366916217  1.4860735549002742
  2.8483536814917736 -0.0000000592965975  2.8592390568787041
  4.2721805696956823  1.4236915998121826  4.2646371669055183
  2.8483534090426459  0.0000000234851656  5.6967070626980867
  4.2720450953583917  1.4238270514131557  7.1287767337014021
  2.8483534897603753  0.0000000349154251  8.5341748904580808
  4.3344270330543990  1.4860735586376510  9.9073403512768063
  2.8483534598671176  2.8592390175394948  0.0000000477677823
  4.2720451763895975  4.2646371784433494  1.4238270439936811
  2.8483534885591704  2.8344292487991494  2.8344291567970128
  4.2714840877650317  4.2710618529613997  4.2710415799363357
  2.8483535563177602  2.8490699527058081  5.6967069623852078
  4.2714841979291132  4.2710416695008204  7.1223520111158845
  2.8483533792824467  2.8344291353100179  8.5589847493312625
  4.2721805507812549  4.2646373635025778  9.9697222924820004
  2.8483536511479577  5.6967069236888888 -0.0000000124348556
  4.2721803980796391  7.1287767217776041  1.4236915443405289
  2.8483536150715607  5.6967070061312199  2.8490699088613742
  4.2714842148621530  7.1223723426185801  4.2710620615036667
  2.8483535770291661  5.6967069386317917  5.6967068836092931
  4.2714841699037009  7.1223519547644658  7.1223723461546120
  2.8483535838569169  5.6967068456615380  8.5443441685126587
  4.2720452116613421  7.1287767252560847  9.9695869668903860
  2.8483534489515083  8.5341748686347181  0.0000000667380159
  4.3344269816847873  9.9073403817204628  1.4860735852921669
  2.8483535337596897  8.5589848425144357  2.8344293013599682
  4.2720450444607865  9.9695870072512776  4.2646371624851342
  2.8483533794246014  8.5443439418960843  5.6967069649600681
  4.2721805792859833  9.9697222282733744  7.1287766784140434
  2.8483535787169592  8.5589848166710620  8.5589848725202167
  4.3344269913872289  9.9073404252435626  9.9073403378963594
  5.7075924447205963  0.0000001172764125  0.0000000725508335
  7.1129908258355234  1.4238269489998041  1.4236916884523509
  5.6827826442047380  0.0000000900160221  2.8344293089828958
  7.1193951054474862  1.4231306930110446  4.2710619598569810
  5.6974233335684232 -0.0000001683454182  5.6967070256023291
  7.1194155708399993  1.4231307339891623  7.1223723898322682
  5.6827827659239709  0.0000000392147375  8.5589847516678041
  7.1129908867790705  1.4236916937095401  9.9695869056771720
  5.6827826949566216  2.8344292336282471  0.0000001546470335
  7.1194154899884827  4.2710416890392535  1.4231307370743786
  5.7136767560563042  2.8653235577348983  2.8653234750552237
  7.1269893574816701  4.2786358679312784  4.2786357647191497
  5.7014943823543467  2.8531409592891461  5.6967070158814836
  7.1269892275120847  4.2786359597961425  7.1147781299621062
  5.7136769100993998  2.8653234934526122  8.5280907335228839
  7.1193950436292575  4.2710617795702310  9.9702832399092500
  5.6974235341385642  5.6967068973659076 -0.0000000633405928
  7.1193952335312831  7.1223520818133323  1.4231307755600002
  5.7014944132451530  5.6967068637014062  2.8531408518945640
  7.1269892327593496  7.1147779587277746  4.2786359558834404
  5.6936951236292339  5.6967071116835566  5.6967071715784456
  7.1269893529900994  7.1147780818506314  7.1147780348544591
  5.7014945056199409  5.6967070097100407  8.5402729576064349
  7.1194154574689135  7.1223725066593078  9.9702833929328065
  5.6827827940147122  8.5589846530430389 -0.0000000284891386
  7.1129907407136583  9.9697222814756312  1.4238271258274342
  5.7136770229884180  8.5280904796682204  2.8653234337243423
  7.1194154377199048  9.9702834159404610  4.2710415903312473
  5.7014943438912393  8.5402729514135913  5.6967070094631413
  7.1193950428604760  9.9702833241520263  7.1223519216573719
  5.7136769086752750  8.5280905186439249  8.5280906544690236
  7.1129906958550757  9.9695868276304083  9.9697222385804221
  8.5450604776064107 -0.0000000452382192  0.0000001404401147
  9.9771301398531911  1.4236916895813745  1.4238270325768376
  8.5450604141371116 -0.0000001369832407  2.8490698105907608
  9.9707054748739079  1.4231306319200512  4.2710418246571544
  8.5450605062675820 -0.0000000230748790  5.6967069926258196
  9.9707257983862476  1.4231306556393615  7.1223520137342051
  8.5450605700402917  0.0000000162644363  8.5443441559678970
  9.9771302270535092  1.4238269828150443  9.9697222779001820
  8.5450605465589291  2.8490698172930311 -0.0000000238303565
  9.9707258465234858  4.2710619737539357  1.4231306007263849
  8.5450604695168728  2.8531409821735672  2.8531409232337936
  9.9631314262253774  4.2786359189406866  4.2786358771355042
  8.5450607111782819  2.8453416221936481  5.6967069800576322
  9.9631314720379862  4.2786358970370530  7.1147780870721054
  8.5450605353915190  2.8531408530340308  8.5402730357416701
  9.9707054985169474  4.2710416711761479  9.9702832526371612
  8.5450604616077968  5.6967069790254881 -0.0000000532991486
  9.9707054719574586  7.1223723111021764  1.4231307995122222
  8.5450604292901815  5.6967070205025845  2.8453417734217155
  9.9631314889052121  7.1147780615087255  4.2786359102000455
  8.5450605609272223  5.6967068707315516  5.6967069090725904
  9.9631315091739090  7.1147780488976924  7.1147780912916412
  8.5450606759585064  5.6967069121931582  8.5480721559368735
  9.9707258033059318  7.1223519838228535  9.9702834357054186
  8.5450604808143140  8.5443439400157946 -0.0000000405400100
  9.9771301078789403  9.9695870082567826  1.4236915225376083
  8.5450605454176625  8.5402729319001445  2.8531409862358887
  9.9707257519177759  9.9702832469466198  4.2710620326800202
  8.5450605301147302  8.5480721177810999  5.6967070375816764
  9.9707056693631291  9.9702832902112437  7.1223725886904283
  8.5450605617420710  8.5402730395958173  8.5402729756493034
  9.9771302796276160  9.9697222522639652  9.9695867581888198
  2.8483534653422953  0.0000000248125933 -0.0000000654335606
