Fe Hf
 1.0000000000000000
    11.3723493270376643    0.0000000000000000    0.0000000000000000
     0.0000000000000000   11.3723493209823339    0.0000000000000000
     0.0000000000000000    0.0000000000000000   11.3723493112933376
 Fe  Hf 
 126   1
Cartesian
 -0.1468160295664565 -0.0875343123273623 -0.0880829076175071
  0.1157685519248410  2.7273187052194499  2.7273187137551242
  0.0753513936744158 -0.0043546170731999  2.7672487254458860
  1.4618909436476979  1.3814540431841289  4.2271356792131431
  0.0209913816322947 -0.0221174123197860  5.6687384631557611
  1.4347133621912915  1.4084768969387953  7.0913099678220721
  0.0055432886417682 -0.0321779035019544  8.5189670637543760
  1.3665076952560058  1.4760207082817636  9.7703250348698241
  0.0758386409599482  2.7677359399640151 -0.0043547155415727
  1.4616332561550442  4.2271356417430681  1.3811964492850655
  1.4456991279524005  4.2132284256691745  4.2129973232757436
  0.0247090933789750  2.8185695114663942  5.6567470082317923
  1.4408325495022185  4.2462351457059437  7.0894725994513514
 -0.0039132140943322  2.8469829197801007  8.4811928323893486
  1.4225317943842262  4.2408275657676633  9.9225884442567391
  0.0210057101261210  5.6689269627271166 -0.0222739307167186
  1.4346103972006834  7.0913099914976758  1.4083739548537917
  0.0245176936831559  5.6567469859711066  2.8183782521819367
  1.4407397738840590  7.0894105210685154  4.2462479842430607
  0.0258956163107209  5.6641303308584883  5.6640273987939755
  1.4397089639953142  7.0936573935990843  7.0938165497213808
  0.0057970780287035  5.6701488897738237  8.4997341688619450
  1.4329276519197329  7.0913753795213106  9.9385471011312134
  0.0054374283907340  8.5191195024294970 -0.0321713417634133
  1.3670666196420076  9.7703249324686929  1.4765796826703395
 -0.0038956309691248  8.4811928430595902  2.8470005129200535
  1.4225156169009225  9.9227139170948817  4.2409821883403049
  0.0059848335047795  8.4998699081421734  5.6702327510081112
  1.4330812648368485  9.9385540637572731  7.0915690580046435
  0.0180229985026432  8.5239438318343304  8.5237583086285387
  1.4498189521963585  9.9923065792748833  9.9927752676399013
  4.4451117121272707  1.4765796725221314  1.4760207077581733
  2.9306216424806353 -0.0880829265249321  2.9899034868364684
  4.2928481544795432  1.4205556106704451  4.2408276014872071
  2.8639376556212799 -0.0207401813493760  5.6684088799960284
  4.2768895666949769  1.4101596662589040  7.0913753519720526
  2.8362928425173135  0.0070679691468882  8.5338873453483632
  4.2226613157809716  1.3932683404362909  9.9923066874389654
  2.9311702201169370  2.9899033802121440 -0.0875342842768623
  4.2927228040277283  4.2409821782308397  1.4205717322919167
  2.8474419912397351  2.7672486539613099  2.7677358676880828
  4.2804785398087155  4.2360239913596125  4.2358426487205607
  2.8653612538996875  2.8220815904684926  5.6689269978729993
  4.2925410842027611  4.2604702429274566  7.0904656313914236
  2.8752587416602293  2.8376499037611893  8.5191194849582832
  4.3023381919711312  4.2781119810226871  9.9131091480280062
  2.8638274537565236  5.6684088334451630 -0.0208502925381902
  4.2768826182556827  7.0915690757474916  1.4100060358306048
  2.8652047247788976  5.6687384302833319  2.8220959292364269
  4.2923557554829168  7.0903891363744744  4.2603517217946969
  2.8591503628945962  5.6661403806288773  5.6663017442771721
  4.2719445831570733  7.0964660364128811  7.0963517850662878
  2.8575563199897687  5.6705747247685663  8.5144265707350826
  4.2731771637041840  7.1039146558700645  9.9420587746304125
  2.8360193691797191  8.5338872619858890  0.0067944681435265
  4.2231299737936805  9.9927753152435681  1.3932683705505413
  2.8752651866558447  8.5189670291991657  2.8375441023037613
  4.3023274489232319  9.9130983615526294  4.2781120434163880
  2.8576452782503936  8.5144342946150839  5.6706379497259594
  4.2733779082084684  9.9422593931254841  7.1039146018947790
  2.8521064113445265  8.5474263200456608  8.5471876626102308
  4.1824764062503510 10.0329601139040872 10.0329602161503626
  5.6815493056932489  0.0067944509595478  0.0070679111009771
  7.1241266113299613  1.4083738357107893  1.4084769087136846
  5.6963171106232080 -0.0321713881592415  2.8376499654849394
  7.1259640148050876  1.4022547720462035  4.2462352237782586
  5.7010100304753291 -0.0144689941072845  5.6705746697236981
  7.1216200638470255  1.4033783585964650  7.0936573598550723
  5.6682488664901740 -0.0090190720699841  8.5474263378091297
  7.1238675779715726  1.4100060189515771  9.9385540808611559
  5.6964695889661323  2.8375440701328012 -0.0321779038779691
  7.1260261389744679  4.2462481035608759  1.4023475010701838
  5.7342438242857847  2.8470004570158935  2.8469828470439804
  7.1433755011408442  4.2534784226054247  4.2532748167107464
  5.7157024806426708  2.8372903058189536  5.6701489158519340
  7.1217237010585412  4.2519147049872439  7.0936816381432477
  5.6916782669237840  2.8250643292693072  8.5239439009236460
  7.1250475474539385  4.2603517557627217  9.9230808898265117
  5.7010023175562683  5.6706379331757297 -0.0145579901957591
  7.1217792738102021  7.0938165891326914  1.4033783212935702
  5.7155667894602162  5.6702327857401889  2.8371025302100339
  7.1217550261175084  7.0937129913962114  4.2519146703923596
  5.7065182098036695  5.6666574311997202  5.6666904585624653
  7.1248354921282688  7.0906011388855905  7.0906011031952900
  5.7084167472499372  5.6885630346047069  8.5072126756947597
  7.1189706204947001  7.0963518606297979  9.9434920392688557
  5.6680102675138597  8.5471877190832810 -0.0090190484105263
  7.1240612264413237  9.9385470175617563  1.4101597055999870
  5.6914927490375895  8.5237583746440908  2.8250643408636429
  7.1249709865083366  9.9228955217822321  4.2604702570943012
  5.7082240457197084  8.5070198702402173  5.6885629278859939
  7.1190847564505129  9.9434920318932853  7.0964660325516444
  5.6787438566942363  8.5366927284537741  8.5366927376145210
  7.1115219528217271  9.9420586792204126  9.9422593841030711
  8.5470277957367156 -0.0208503516262096 -0.0207401240721761
  9.9883010166860604  1.3811964005307096  1.3814540334269350
  8.5465095881508564 -0.0222739429962031  2.8220815612788575
 10.0024392998339433  1.3973882600139000  4.2132284469481736
  8.5491348579832476 -0.0160630590237397  5.6661404314281949
  9.9691886636358120  1.4023475032799104  7.0894105230502467
  8.5447986885786591 -0.0145579187957055  8.5144342381940117
  9.9744544311790353  1.4205717297429679  9.9227138419599967
  8.5466981712198802  2.8220959843664204 -0.0221174666281071
 10.0022081251867707  4.2129973198446526  1.3973881609725318
  8.5586896177361922  2.8183782877582719  2.8185695387175653
  9.9919378388500935  4.2234989142145913  4.2234988611101354
  8.5514092025613326  2.8171917257961843  5.6641303124274334
  9.9619581916577964  4.2532747915557074  7.0720611091252543
  8.5452038707762181  2.8371024865026322  8.4998698197765634
  9.9794126478280170  4.2358426559021023  9.9349580673347955
  8.5492962386894860  5.6663017390130301 -0.0160630385231545
  9.9692014287894999  7.0894725853262806  1.4022547879468417
  8.5513062789191512  5.6640274392380849  2.8171917438136806
  9.9621618948855257  7.0720611374609206  4.2534784060600357
  8.5457882936811007  5.6696482711138527  5.6696482635885825
  9.9635219208188381  7.0936816267879008  7.0937129322795736
  8.5487791728890681  5.6666905649907724  8.5089184362791759
  9.9549664301218250  7.0904657290298605  9.9228955557028300
  8.5448619497073555  8.5144266458499924 -0.0144690261145718
  9.9746090195585140  9.9225884697509894  1.4205555599071535
  8.5452877295208900  8.4997341411723308  2.8372902147569250
  9.9795939987683830  9.9349580793765870  4.2360240447398567
  8.5487461347213891  8.5089184515870588  5.6666574398448732
  9.9550849150229901  9.9230808753413839  7.0903891113380819
  8.5268735927365213  8.5072126395660206  8.5070198663139198
  9.9373245923473306  9.9131091446666275  9.9130983613970773
  2.1502196328515897  0.6928675485885253  0.6928674793353629
