Fe Tc
 1.0000000000000000
    11.4360725217365289    0.0000000000000000    0.0000000000000000
     0.0000000000000000   11.3713216464225848    0.0000000000000000
     0.0000000000000000    0.0000000000000000   11.4360725300223951
 Fe  Tc 
 126   2
Cartesian
  0.0779109369844830 -0.0000000130545133  0.0779115895796954
  1.4295095539473097  1.4856192084536397  1.4295087298825289
  1.4665719390527630  1.4227767610711719  4.3169167184802060
 -0.0073243336885246  0.0001717032301182  5.6541663208610107
  1.4295090017504359  1.4017033764712061  7.1475451351929591
  0.0057147400104799 -0.0000701802821402  8.5760560836545050
  1.3924466066593124  1.4227763121137127  9.9781745025221724
  0.0263353244131374  2.8005067769062069  0.0263656575882636
  1.4295090730167699  4.2487440570994233  1.4295090005949846
 -0.0159314540535795  2.7851905935411754  2.8751882749710176
  1.4220670810258522  4.2612057724331169  4.2818494250747872
  0.0011081113331087  2.8222943349046776  5.7043261963380871
  1.4295088702646328  4.2651873465959351  7.1475454582230729
 -0.0031587322781358  2.8386431333480546  8.5718718713417097
  1.4369511346654922  4.2612057004161148 10.0132411173623392
  0.0101130779717889  5.6856610351939016  0.0101130040536161
  1.4295089986368335  7.1225774254201042  1.4295089615773948
  0.0064440975703173  5.6856608508220932  2.8525738629265729
  1.4222416890358129  7.1099598843407854  4.2817113533578199
  0.0063199946236438  5.6856141153030144  5.7128531596865919
  1.4295090167051814  7.1059525565062005  7.1475451057393666
  0.0023545634829969  5.6855928218031675  8.5808426249959133
  1.4367764509824119  7.1099601221284221 10.0133789536347315
  0.0263661285009845  8.5708150965042531  0.0263351305260186
  1.4295087624769469  9.8857023511061080  1.4295093191116242
 -0.0161701472696234  8.5861309460010542  2.8749491622095347
  1.4660511052479319  9.9479345727294284  4.3170668484271459
  0.0009424145080939  8.5487437537188313  5.7044105124412008
  1.4295088337354636  9.9694026703068861  7.1475451034803266
 -0.0031113051435354  8.5325453556262030  8.5718144068278797
  1.3929670090194515  9.9479346933233970  9.9780235560417339
  4.3170658637472785  1.4233858197489391  1.4660501217726751
  2.7811071371696170 -0.0000000935327445  2.7811070279483494
  4.2779950876426760  1.4017531703450414  4.2778744132718787
  2.8533032955996647 -0.0000700007246218  5.7190343919637581
  4.2872706341111630  1.4194970777523996  7.1528724691724976
  2.8663424653459417  0.0001716701187981  8.6409248841713673
  4.3391056451541674  1.4479061596827492  9.9563105144515536
  2.8749491198867227  2.7851903103302287 -0.0161700241988224
  4.2817112597221119  4.2613620241369574  1.4222415649147839
  2.8326827896757365  2.8005066346627081  2.8326526063403299
  4.2878246898146548  4.2673045380990757  4.2877958929765532
  2.8621770507265643  2.8386427830580847  5.7232188784838431
  4.2890636868998202  4.2658054698158017  7.1472261675329101
  2.8579098963343035  2.8222945218539661  8.5907642353720242
  4.2871714822798479  4.2625441578087742 10.0080205396169433
  2.8525738889211425  5.6856606605475157  0.0064442910993168
  4.2818493455088875  7.1101160237003045  1.4220669798103114
  2.8489050590238421  5.6856607505868730  2.8489049594903735
  4.2877959940967987  7.1040171947222976  4.2878245895964886
  2.8566638504753699  5.6855930445067679  5.7142478519885076
  4.2891091352890873  7.1054190888349567  7.1471455718555266
  2.8526981560954869  5.6856142177240407  8.5822374235507066
  4.2870698890916872  7.1087772366874180 10.0079192690565666
  2.8751881096229979  8.5861307929201924 -0.0159310672939799
  4.3169155648804471  9.9485455700902499  1.4665708593048570
  2.8326522100912461  8.5708151314621634  2.8326831561571439
  4.2778741864686385  9.9695681789659769  4.2779950935133542
  2.8621294090755387  8.5325454616567580  5.7232760578809154
  4.2872962769689096  9.9520006400216303  7.1529015196723282
  2.8580756446847344  8.5487439967332062  8.5906800019914655
  4.3387803720878599  9.9234152696432769  9.9559847430468800
  5.6541659090989462 -0.0001715843769708 -0.0073246286036334
  7.1475452059496725  1.4019190500113115  1.4295089969750907
  5.7190346340697094  0.0000702212916966  2.8533034485603070
  7.1529014947969216  1.4193208653889149  4.2872963347551147
  5.7173429869807189  0.0000000591176288  5.7173429598868548
  7.1475451931507790  1.4317991146804048  7.1475451938435270
  5.7091451437480902 -0.0000000179623627  8.5859457663570549
  7.1421895408205103  1.4193209252300742 10.0077945689843286
  5.7044106676572239  2.8225778358020857  0.0009423341643955
  7.1475453343265523  4.2653692731216912  1.4295090473814385
  5.7232769833610844  2.8387769244053822  2.8621297504530578
  7.1471456261212962  4.2659023516160195  4.2891090426886906
  5.7162004815242131  2.8432638529874428  5.7161495026919269
  7.1475452487236897  4.2715475375484369  7.1475455387942475
  5.7263757267562196  2.8485362025117569  8.5687916025871509
  7.1479450700132032  4.2659021445772414 10.0059817852299116
  5.7128533158418220  5.6857073383484007  0.0063199706503825
  7.1475454101393883  7.1061345453364790  1.4295090522630072
  5.7142479012327572  5.6857288176016407  2.8566636927592297
  7.1472259741610902  7.1055164626170324  4.2890637135995977
  5.7109809189534175  5.6856608693511754  5.7109810764726872
  7.1475453951158876  7.0997744912640854  7.1475451912590877
  5.7158033542534694  5.6856609690631794  8.5792872831919720
  7.1478647543667808  7.1055164328681553 10.0060270672563369
  5.7043266021605072  8.5490271429499849  0.0011079275651371
  7.1475451827723520  9.9696181013363354  1.4295090115210467
  5.7232193625259828  8.5326785838542865  2.8621768344276837
  7.1528726425991112  9.9518247877728143  4.2872705801555995
  5.7161493190587196  8.5280581172251413  5.7162003333953173
  7.1475451393330340  9.9395222844324707  7.1475451643418983
  5.7262988702152491  8.5227856124479686  8.5687153623762686
  7.1422181139120378  9.9518248077005733 10.0078201093047188
  8.5760558348741309  0.0000704926359537  0.0057148328345815
  9.9780246280303917  1.4233858310945540  1.3929680551494783
  8.6409248673255377 -0.0001717469200170  2.8663424673540936
  9.9559847218663347  1.4479062470169792  4.3387806420889872
  8.5859460520640400 -0.0000001763110371  5.7091448318847222
 10.0078199562660295  1.4194971076705802  7.1422178843576338
  8.5777479304193509  0.0000001031296719  8.5777480986080565
 10.0170955513743998  1.4017535166640938 10.0172161899655858
  8.5718139217463580  2.8387769290871776 -0.0031115806943695
 10.0133792742165397  4.2613619754449905  1.4367765429030315
  8.5906802625916754  2.8225777358626152  2.8580758899489154
 10.0079192458596431  4.2625444357703204  4.2870699259433280
  8.5687154313362441  2.8485362336571156  5.7262990475730611
 10.0060270495701946  4.2658054384608359  7.1478644755307643
  8.5788901791850929  2.8432638327180837  8.5789413484631130
 10.0072658766645652  4.2673046713580414 10.0072946789047048
  8.5808425772865320  5.6857283878606459  0.0023541780090656
 10.0132411885785970  7.1101155982608892  1.4369510066454863
  8.5822373464940220  5.6857073395138702  2.8526982461568005
 10.0080207691420497  7.1087769776702787  4.2871716546496037
  8.5792874469042140  5.6856607842497500  5.7158032317566834
 10.0059813682816756  7.1054192491252852  7.1479449632222689
  8.5841097558123707  5.6856607650113844  8.5841093155882611
 10.0072944202809104  7.1040171284388203 10.0072660159503037
  8.5718709954826711  8.5326782474347187 -0.0031591679972068
  9.9781760008172089  9.9485463922389723  1.3924477507586355
  8.5907639906417455  8.5490270360981384  2.8579103166447144
  9.9563104407539385  9.9234156285834505  4.3391056467107765
  8.5687916610090884  8.5227855561338774  5.7263755349674410
 10.0077944554280780  9.9520006061148045  7.1421891928709975
  8.5789414770786259  8.5280580401333967  8.5788903181679608
 10.0172164819253418  9.9695685240046323 10.0170954995754897
  2.8813106656569705  0.0000011284230015 -0.0222903902238557
 -0.0222933320807636 -0.0000007140353136  2.8813075325450024
