Fe Ni
 1.0000000000000000
    11.3733518782232377    0.0000000000000000    0.0000000000000000
     0.0000000000000000   11.3706372487059646    0.0000000000000000
     0.0000000000000000    0.0000000000000000   11.3733518762091936
 Fe  Ni 
 126   1
Cartesian
  0.0146038579188938  0.0000436247624345 -0.0350165061105667
  1.3662808919266793  1.3643815293210595  1.4770163418534470
  1.3717133569499160  1.3697131376940501  4.2104512251102664
  0.0003349452200291 -0.0000176640772211  5.7248661535792618
  1.4214419697289760  1.4250198051088072  7.1129037074685781
 -0.0048466094091430 -0.0000368155102713  8.5268380279030307
  1.4207006438206380  1.4222220082099784  9.9503979781736245
 -0.0039716015746035  2.8351793445109861  0.0104270432099763
  1.4229708529280316  4.2574165090617324  1.4204206199437144
 -0.0144148944088664  2.8939694660538988  2.8577017477538940
  1.4224554365788558  4.2692380788550484  4.2722312895721446
  0.0000605735735978  2.8302140191379914  5.6753383977756853
  1.4195547225047183  4.2682585754201607  7.1037394841284973
 -0.0129977974604330  2.8475655793606891  8.5174676178846127
  1.4191090009701322  4.2606033082779087  9.9483560632309871
  0.0007451352888391  5.6853333889690560  0.0084085684818721
  1.4229173363343910  7.1132206479976245  1.4203671128142270
  0.0016378529658371  5.6853186191032519  2.8417000530445269
  1.4224933875737744  7.1013790765225897  4.2721578422324589
 -0.0011962165225385  5.6853080456880720  5.6789100031982995
  1.4195455564995259  7.1023145210904399  7.1037108455768383
 -0.0004679706580717  5.6853704103046532  8.5301347311769309
  1.4191586166631278  7.1101042885182055  9.9484109223473087
 -0.0040504786122329  8.5355249157224442  0.0104555086539976
  1.3663218332185090 10.0062556641901299  1.4770571224888729
 -0.0143639262464815  8.4766677983053746  2.8577529230776713
  1.3717077082727369 10.0010606539081284  4.2103577178613536
  0.0000870697389528  8.5404481906188536  5.6752925601447934
  1.4213843044445835  9.9454176331871853  7.1128824620576925
 -0.0130303576841787  8.5230536209426528  8.5175059324725595
  1.4207710241557585  9.9485891593027915  9.9502062743218431
  4.2664834563293228  1.4220480179760755  1.4225668986216924
  2.8783544700612533 -0.0000435584681391  2.8287340735707134
  4.2675293694940626  1.4245581335622324  4.2641905754909031
  2.8315522971537943 -0.0000640163338564  5.6741553994666578
  4.2674667885153239  1.4224518097943712  7.1105736165075246
  2.8380494212680456  0.0000135663145525  8.5451578446014995
  4.2640324576148698  1.4198049289425614  9.9527158486992402
  2.8262623295434426  2.8093076373927004  0.0170807318241213
  4.2682789418656748  4.2605328538495595  1.4241792961909623
  2.8328824620623938  2.8351123398848106  2.8473885777034531
  4.2664392900443051  4.2683996841067815  4.2692750488975166
  2.8262808553775334  2.8254836711625324  5.6709396929602818
  4.2588175377388549  4.2603261238339707  7.0971056717559895
  2.8377748818588220  2.8413422051171162  8.5271960681512322
  4.2595682918167643  4.2537856244703018  9.9570865536888054
  2.8385331526459621  5.6853186110624749  0.0048048983132198
  4.2683337648987321  7.1100340113249754  1.4242288814394970
  2.8349293030751817  5.6853037397731399  2.8425928942789858
  4.2665089872281854  7.1022226890884887  4.2692331591758563
  2.8391147287263201  5.6853464657263499  5.6819560592575895
  4.2588840616128465  7.1103436810238003  7.0970302818530433
  2.8411199808930614  5.6853371617266211  8.5299279154920438
  4.2596033558374380  7.1168514984545954  9.9571215657814278
  2.8262572231198662  8.5613295476078282  0.0170758724441680
  4.2662918264324530  9.9484151645435777  1.4226373140999549
  2.8329109210713983  8.5354579020073977  2.8473095355504863
  4.2675145925060463  9.9461415624063463  4.2642257243074129
  2.8262752463266012  8.5451524795812208  5.6709166112087788
  4.2674818306913744  9.9482120102667526  7.1106375175584233
  2.8377867883551624  8.5292524275375321  8.5271184424939896
  4.2639739223661532  9.9508323605730009  9.9526573004692320
  5.6715319495502907 -0.0000135435727614  0.0052886119622862
  7.1038074607323090  1.4252194464586481  1.4219537194649634
  5.6898518131227931  0.0000368005759419  2.8481845285285989
  7.1108164663984512  1.4240642045137299  4.2710937534315754
  5.6870683900969219  0.0000073262932611  5.6787472172767526
  7.1127330041539052  1.4218152792433183  7.1039866858814849
  5.6903447727904295 -0.0000000222635561  8.5263451214656687
  7.1060522763066762  1.4224252433582862  9.9492080279003972
  5.6895714471627548  2.8413848505654160  0.0055510982738829
  7.1129789780605170  4.2683227420025025  1.4237924312427130
  5.6991839914855245  2.8475836498067038  2.8563682768408971
  7.1126293286019786  4.2675394674488176  4.2679314219276501
  5.6856886261971642  2.8374904001834182  5.6810976858869466
  7.1193729566044706  4.2578278361650295  7.0973381775466047
  5.6985958418395199  2.8519784698956183  8.5180860855537652
  7.1196595145399497  4.2602935563540010  9.9578057495834802
  5.6867619518983643  5.6853002357719502  0.0022178943549486
  7.1129503921216015  7.1023787515013685  1.4237832547305267
  5.6865550252978796  5.6852668948607237  2.8438060221018042
  7.1126266206672009  7.1030340277147896  4.2679136586505297
  5.6888814588081846  5.6852954390671675  5.6853223273773210
  7.1193515415782285  7.1128093361259230  7.0973169912487517
  5.6872159455510918  5.6853185252881770  8.5294739439301175
  7.1195841873364341  7.1103111778076542  9.9578725164720954
  5.6894937370905074  8.5292951122472402  0.0055631623405882
  7.1037861066433354  9.9456173955537075  1.4218959183455420
  5.6992222853300634  8.5230716833589035  2.8563358443335498
  7.1107107207886804  9.9465408465565659  4.2710106956191165
  5.6856957570001958  8.5331495071149011  5.6810643426287637
  7.1127030903282717  9.9488219235711224  7.1039568249843059
  5.6986038392964407  8.5186587708632295  8.5180940220807564
  7.1061163088429788  9.9481853810895107  9.9492231152380288
  8.5425344837748689  0.0000639346644773  0.0117856608035320
 10.0063319964045352  1.3695765823116717  1.4716301229121806
  8.4918237738970035  0.0000176668193743  2.8430031034597576
 10.0017298484801636  1.3678780036588651  4.2150148427249077
  8.5418829934613942 -0.0000000331769509  5.6748067453194793
  9.9456791772158706  1.4240963588890305  7.1059790190220529
  8.5379425455641886 -0.0000074376528924  8.5296213924424720
  9.9524642830687142  1.4244958209816527  9.9491751750876158
  8.5457732062412184  2.8254847645697700  0.0170627804458225
  9.9445320728873821  4.2692581689311542  1.4208446122322265
  8.5413973440304325  2.8301891803853563  2.8432509184049373
  9.9460194876379742  4.2702977685283248  4.2706178804568458
  8.5480796415452982  2.8258710360041359  5.6686468800129308
  9.9487761803262611  4.2676031949092463  7.1040632675915365
  8.5356256590529593  2.8374877599557253  8.5309942133295280
  9.9474566849980715  4.2684145947944927  9.9501807583152999
  8.5347338890184403  5.6852906780350487  0.0042233090959112
  9.9444586045365551  7.1013992365646992  1.4208825451208791
  8.5377798370947886  5.6853292505540765  2.8445342370455644
  9.9460720720565661  7.1003394393043173  4.2706704343395261
  8.5338187381705239  5.6853185662593750  5.6828709778308442
  9.9487584834076888  7.1030978488579866  7.1040605089757962
  8.5313675087914103  5.6853418271953426  8.5278083715193826
  9.9474148203020647  7.1022376170641390  9.9502504622797954
  8.5457501962616753  8.5451536130264216  0.0170571610654877
 10.0062385860101646 10.0009240665330843  1.4716245824078475
  8.5413515618508669  8.5404232377105540  2.8432774279125983
 10.0016750042492699 10.0027592591267744  4.2149598967527186
  8.5480428695838100  8.5447662159179387  5.6686102518327965
  9.9455960197860627  9.9465730428140535  7.1058732794376773
  8.5355920986884364  8.5331470149542614  8.5310013280862798
  9.9524991713107944  9.9460791210512056  9.9491604483892342
  2.8364118696041274 -0.0000000396528890  0.0069263223118841
