Fe Pt
 1.0000000000000000
    11.4403180668022433    0.0000000000000000    0.0000000000000000
     0.0000000000000000   11.4263796266307534    0.0000000000000000
     0.0000000000000000    0.0000000000000000   11.4403180701218670
 Fe  Pt 
 126   2
Cartesian
 -0.0065794446441011  0.0045584419265182  0.0001209211885846
  1.3361239722794302  1.4282974160728215  1.5239555624098757
 -0.0362191712825268 -0.0191932812361562  2.8963728124872654
  1.4105592997707788  1.4285134329083515  4.2957295719974207
 -0.0131501287227797 -0.0156314182900558  5.7202017589835954
  1.4105593168835726  1.4280815691668387  7.1445885251322139
 -0.0362932718116447 -0.0191932239857594  8.5440194141710926
  1.3361237497061940  1.4282973413473170  9.9163622412074623
 -0.0065794968093059  2.8520363135750850 -0.0001209059533260
  1.4100925470827459  4.2816906983647067  1.4499066965697021
 -0.0362933072512141  2.8757881644444740  2.8962986178696166
  1.4243120381102581  4.2980853681948927  4.2979806815992507
 -0.0131501051029195  2.8722263589284567  5.7201163788655824
  1.4238554010034228  4.2980766092313925  7.1426421501074158
 -0.0362190268738350  2.8757880629178665  8.5439452506677114
  1.4101725928449711  4.2816908363944339  9.9903310851697089
 -0.0102384349706316  5.7130630224920989  0.0001244050933455
  1.4341420109685281  7.1414872197414674  1.4259375937459555
 -0.0185115839227105  5.7339704898192450  2.8787292006564527
  1.4224867937783241  7.1413748682021145  4.2984239429402313
  0.0019868370604597  5.7257730374466007  5.7201758686491440
  1.4224867827504908  7.1415997668717228  7.1418941312948556
 -0.0186495501190849  5.7339704242773646  8.5617270283127702
  1.4341420025475244  7.1414872726135785 10.0143806076431954
 -0.0102383020737838  8.5699115750126129 -0.0001243595540066
  1.4101726877374072 10.0012837089791109  1.4499871285676973
 -0.0186495920479452  8.5490040391338251  2.8785911392373738
  1.4238554316567862  9.9848979154688813  4.2976759230016217
  0.0019868384736858  8.5572015703481306  5.7201422200282090
  1.4243121502413301  9.9848891565381397  7.1423374447251673
 -0.0185114959243532  8.5490040916271504  8.5615890810779938
  1.4100925626642682 10.0012837239181067  9.9904110916249351
  4.3840351156699571  1.4282976064603534  1.5239555775933313
  2.8602004213345009  0.0045586488206166  2.8666589663386812
  4.3095996788747675  1.4280816043599658  4.2957294461019648
  2.8600794922832544 -0.0003290459170830  5.7201590234720019
  4.3095997378797746  1.4285133889088169  7.1445884859679545
  2.8599586179536289  0.0045585394128643  8.5736589100573735
  4.3840353099924458  1.4282974038881331  9.9163622661448603
  4.3099863081856302  4.2816906723249515  1.4499868838520569
  2.8599585030333157  2.8520363945876097  2.8666590538589727
  4.2963036032890489  4.2980766176623630  4.2976759779454481
  2.8600795326780974  2.8569240416239614  5.7201589707448042
  4.2958469245409168  4.2980854076556856  7.1423374187049813
  2.8602004878714129  2.8520363145557073  8.5736590171497973
  4.3100664454236712  4.2816909003570585  9.9904112774433251
  2.8600794458141579  5.6498937252402746  0.0000000924636121
  4.2860169151869121  7.1414872896878121  1.4259375021711198
  2.8602038752343715  5.7130629327117841  2.8703179748698577
  4.2976722187126990  7.1415996427747723  4.2984241112851915
  2.8600795175027387  5.7194415312479023  5.7201590608208868
  4.2976723491735385  7.1413747648089743  7.1418940660071284
  2.8599551257305800  5.7130630018588926  8.5700001595230315
  4.2860169051120538  7.1414872730303243 10.0143806606546306
  2.8600794974589134  8.6330808686942380  0.0000001361880343
  4.3100665343626625 10.0012837768086413  1.4499068685986458
  2.8599550598646015  8.5699114929938958  2.8703179109420480
  4.2958469250010598  9.9848890914324659  4.2979805880362214
  2.8600795782391710  8.5635329984400865  5.7201590329289136
  4.2963035720542111  9.9848979452004301  7.1426420964016391
  2.8602039375258759  8.5699115934108772  8.5700001396126417
  4.3099863624006423 10.0012836901162103  9.9903310165050367
  5.7267386638166249  0.0045585643578797 -0.0001209100948717
  7.1558090318133676  1.4285133375229842  1.4495202370970282
  5.7564522347909124 -0.0191931399235700  2.8962986118441330
  7.1708764570958836  1.4282974288537038  4.3107970310618153
  5.7333090984981565 -0.0156314349999787  5.7201163615816872
  7.1708764414132187  1.4282974769187844  7.1295210943336746
  5.7563780170954830 -0.0191932030269066  8.5439452893156318
  7.1558090714550318  1.4280814417321708  9.9907978344224198
  5.7267387149674516  2.8520363306064920  0.0001207965514160
  7.1580601223615128  4.2980853900506402  1.4357674173876309
  5.7563781627138564  2.8757882016178833  2.8963727582228289
  7.1688733746105733  4.3148057438273968  4.3087653967913075
  5.7333091259316156  2.8722263306932017  5.7202016581927264
  7.1688448283787922  4.3148057008574519  7.1315242219631374
  5.7564522512988132  2.8757881341775793  8.5440195728694928
  7.1577554457879593  4.2980767209635964 10.0040939631805603
  5.7303973418538838  5.7130629162191964 -0.0001244070542000
  7.1585035044084240  7.1413748275613651  1.4375927914059448
  5.7388085698283540  5.7339704163530127  2.8785909636330973
  7.1595849289392479  7.1414872928389643  4.2995054375684569
  5.7181722588503288  5.7257730095986012  5.7201422796843184
  7.1595849443488069  7.1414872500431263  7.1408126747206362
  5.7386704540775364  5.7339704149085895  8.5615890033448139
  7.1585034357346657  7.1415995935666219 10.0027252538052576
  5.7303973329183489  8.5699115838287376  0.0001244233071241
  7.1577554268854646  9.9848979569809746  1.4362241071010806
  5.7386704498417611  8.5490040254433417  2.8787290804959182
  7.1688448199443267  9.9681688138129054  4.3087937979185629
  5.7181722199942042  8.5572015554637595  5.7201759026225387
  7.1688732825968406  9.9681688291030000  7.1315527842284743
  5.7388085008003795  8.5490040853033413  8.5617270172411573
  7.1580600641671950  9.9848891847588117 10.0045506893383447
  8.5802385063537479 -0.0003291346369862  0.0000000171955292
 10.0046680446137444  1.4280814975757390  1.4495202255890300
  8.5802812666396200 -0.0156314140955104  2.8732297016718271
  9.9896005933569345  1.4282974764174063  4.3107970499068315
  8.5802385058175137 -0.0110072608804248  5.7201591077334273
  9.9896005255801281  1.4282974808508280  7.1295210810494929
  8.5801958471720710 -0.0156314379603572  8.5670884590797485
 10.0046680982976604  1.4285132791130892  9.9907978925967686
  8.5802385446769307  2.8569239803997353 -0.0000000412933699
 10.0027215289971174  4.2980765487812560  1.4362240963329587
  8.5801958759115635  2.8722263288622805  2.8732297032085268
  9.9916321698405763  4.3148056794284475  4.3087939378014903
  8.5802384783713759  2.8676020270032025  5.7201590694716717
  9.9916037717543720  4.3148056956518293  7.1315526373465801
  8.5802811893294209  2.8722263371405905  8.5670884843930537
 10.0024169710894384  4.2980854392202605 10.0045506072396293
  8.5802386189179902  5.7194415297921326 -0.0000000782479134
 10.0019735296871648  7.1415997431818905  1.4375927733454061
  8.5802553219566171  5.7257730148408790  2.8580927001363849
 10.0008920574704891  7.1414872996380891  4.2995055229055774
  8.5802385060032336  5.7267246261899514  5.7201590738242638
 10.0008921241645421  7.1414872857646250  7.1408126330758348
  8.5802217468106559  5.7257729838140428  8.5822253603322576
 10.0019735578095030  7.1413748495676934 10.0027252838044891
  8.5802384959741680  8.5635329602356993 -0.0000000003724299
 10.0024169551360131  9.9848890943631279  1.4357674038708732
  8.5802217511682706  8.5572014709396580  2.8580927364855730
  9.9916036432295581  9.9681688363489158  4.3087654921451035
  8.5802384822527102  8.5562499662930058  5.7201590276628815
  9.9916321236933481  9.9681688447439871  7.1315242465504074
  8.5802553312068959  8.5572015546152880  8.5822253693886310
 10.0027216161246830  9.9848979750511351 10.0040940631175381
  2.8600793486386675  0.0494659268046528  0.0000004123408875
  2.8600792418999346  2.8071291544317192  0.0000002585856298
