Fe Rh
 1.0000000000000000
    11.3893068958796011    0.0000000000000000    0.0000000000000000
     0.0000000000000000   11.4184066578785988    0.0000000000000000
     0.0000000000000000    0.0000000000000000   11.3893068851791632
 Fe  Rh 
 126   1
Cartesian
  0.0302532750025054  0.0040188740910637 -0.0000013426436225
  1.4492338485874672  1.4883406328360509  1.3983876980038723
  0.0111160098512109  0.0110860262107508  2.8361776028682937
  1.4215574216347848  1.4295012906854641  4.2640487943393257
  0.0097288673098982  0.0039683443982263  5.6946239104176719
  1.4214401796295122  1.4292908599076319  7.1252362509820140
  0.0111492742091525  0.0110859552245477  8.5530961561631891
  1.4489389426923172  1.4883408295427791  9.9912142227801759
 -0.0478891907900088  2.8679347897184506 -0.0001177063802026
  1.4632722337015085  4.2368672272077115  1.3837750932373711
 -0.0071707450431188  2.8755170832994934  2.8544808049597563
  1.4159366442779797  4.2923108507503160  4.2763822872218205
  0.0046013528175037  2.8585391853501880  5.6946095067982272
  1.4158760054035455  4.2922881940158106  7.1129470416581126
 -0.0071541307564607  2.8755170765283746  8.5348096401447613
  1.4635514866222410  4.2368673533752652 10.0052525460342387
  0.0114282173150386  5.7017233573158581  0.0000625355117152
  1.4131691157411066  7.1445467253911223  1.4344515128238422
  0.0076496011060725  5.6965529223680935  2.8396634101108642
  1.4167450504408372  7.1292405253956348  4.2818548497306415
  0.0036492088526196  5.7042407156314550  5.6946025731698366
  1.4166761284140459  7.1292095495048082  7.1072891324375131
  0.0076636181005043  5.6965529954756118  8.5496296404606102
  1.4128752220904475  7.1445466826291391  9.9551492372939325
  0.0000766776041383  8.5585797580804766  0.0000585703593887
  1.4015329402469066  9.9547804431054985  1.4456731990876872
 -0.0171800461348813  8.5482934349138961  2.8644939534567091
  1.4226979244107358  9.9861709543971688  4.2663123184080476
 -0.0041155405876697  8.5615596975059542  5.6945628396369559
  1.4227382464773488  9.9859458774623864  7.1228699493404886
 -0.0171674213494376  8.5482932824628346  8.5248002570362331
  1.4016536520627916  9.9547803033571807  9.9435130204219409
  4.2457145750170637  1.4883407629375971  1.3980927705414454
  2.8473255219753701  0.0040189322738245  2.8170734133588611
  4.2732133936181063  1.4292908095185963  4.2640709913101711
  2.8473267772765931  0.0048134635894804  5.6946534808496940
  4.2730963828906923  1.4295013676109569  7.1252580297823318
  2.8473280658381483  0.0040188524955373  8.5722336649798887
  4.2454190798815237  1.4883408736757116  9.9909194712254283
  4.2311020823728702  4.2368675046638984  1.3840545663505721
  2.8472088462996541  2.8679348360280019  2.8952156752997968
  4.2787774639495773  4.2922883809618986  4.2763598659168451
  2.8473268254800113  2.8547947502814490  5.6946535105037990
  4.2787166516249755  4.2923107545142347  7.1129247267656472
  2.8474444802448500  2.8679347897054712  8.4940912538334121
  4.2313810614945551  4.2368674107887241 10.0055317499837493
  2.8473266211328228  5.7586419371468933  0.0000000273485041
  4.2817782123113526  7.1445467198362964  1.4341576250657182
  2.8473890978248599  5.7017230705475255  2.8358984324562337
  4.2779775224010796  7.1292095303767589  4.2820177033610527
  2.8473267254416168  5.7021634945413746  5.6946536476618634
  4.2779086723502484  7.1292405619485226  7.1074521243197495
  2.8472642844497189  5.7017233995240080  8.5534085289119339
  4.2814844031076689  7.1445466759890213  9.9548553698729911
  2.8473267939590325  8.5822806452324709 -0.0000001309236594
  4.2929999225552793  9.9547802913818551  1.4457938414014995
  2.8473852588818818  8.5585797924748039  2.8472498739796754
  4.2719151995041518  9.9859458762103301  4.2664370664148805
  2.8473268163972385  8.5675573106887146  5.6946535037738393
  4.2719555801913733  9.9861708904937405  7.1229945113586473
  2.8472683942962007  8.5585799417876984  8.5420569747035806
  4.2931205036511306  9.9547805591118728  9.9436338270353239
  5.6644001086840632  0.0040187442185689  0.0000014175741084
  7.1113757917020255  1.4295012841787715  1.4257693832389173
  5.6835041523765950  0.0110859265981726  2.8362106767344177
  7.1246402495275358  1.4334636880566669  4.2774001417671297
  5.6849246842681485  0.0039683133338341  5.6946830867889799
  7.1247268441973253  1.4334636927488531  7.1119933468782994
  5.6835372936643713  0.0110857837116297  8.5531292899186759
  7.1113975980104938  1.4292906104075014  9.9634203091570193
  5.7425425991327694  2.8679347374132815  0.0001177718629329
  7.1237087897835876  4.2923108363412839  1.4313901392360475
  5.7018075198005471  2.8755169443061623  2.8544974235811256
  7.1257806455754604  4.2876306018259003  4.2784292174705634
  5.6900520269456507  2.8585391408090257  5.6946974553592726
  7.1257558899441831  4.2876306557648896  7.1108529477895193
  5.7018241241969640  2.8755170217731956  8.5348261625111501
  7.1236863925460732  4.2922883505096863  9.9578560314702802
  5.6832250307886945  5.7017233624270132 -0.0000624309222470
  7.1291814220603431  7.1292404480577796  1.4305817629915285
  5.6869900043000294  5.6965530913404443  2.8396773129863258
  7.1223855011467876  7.1220793258149486  4.2750874428566625
  5.6910042382604384  5.7042408239543958  5.6947044019839161
  7.1224143047214010  7.1220793274030889  7.1142481765972265
  5.6870039979146814  5.6965530835988760  8.5496434791112002
  7.1293443595284760  7.1292094704586555  9.9586562134685721
  5.6945765801345036  8.5585799059078624 -0.0000583284372078
  7.1136390905404081  9.9861707151118075  1.4246288413881267
  5.7118207278597550  8.5482935647340845  2.8645066746057353
  7.1207665488317069  9.9946587828514541  4.2734805707030663
  5.6987692887187080  8.5615597699487420  5.6947439086204765
  7.1208072994943290  9.9946587247206633  7.1158670266181341
  5.7118334528238233  8.5482936443896200  8.5248127685886050
  7.1137635557591494  9.9859460492052392  9.9647185923933179
  8.5419801984492043  0.0048130225872295  0.0000000394379344
  9.9725627452839021  1.4292908189017239  1.4258866278015658
  8.5419506473592950  0.0039682152717979  2.8375978252947029
  9.9592336139446385  1.4334637225881224  4.2773136203491786
  8.5419801640088764  0.0046043545892134  5.6946535153762623
  9.9593201407878400  1.4334637788157127  7.1119067149978914
  8.5420096371519207  0.0039682764498827  8.5517088227659954
  9.9725845475094737  1.4295013635068345  9.9635373149129176
  8.5419799302499513  2.8547947083912626 -0.0000000418937875
  9.9602736640791996  4.2922884266152765  1.4314507881519658
  8.5419362375616004  2.8585391541064467  2.8427255550163202
  9.9582044240616838  4.2876306942047488  4.2784541232408415
  8.5419800971536510  2.8518856635619398  5.6946536028141388
  9.9581796678096133  4.2876307506610676  7.1108779002419009
  8.5420240608597435  2.8585391197452816  8.5465813171186706
  9.9602513209903041  4.2923109065408704  9.9579166582380125
  8.5419802716763193  5.7021631633125569  0.0000000161496583
  9.9546156227015690  7.1292093060865325  1.4306508037151338
  8.5419291592754476  5.7042406003150878  2.8436775134900616
  9.9615460673090812  7.1220795023412995  4.2750587459608678
  8.5419800545973263  5.7038137264679127  5.6946534975572707
  9.9615750304037576  7.1220796228040566  7.1142193038503816
  8.5420312050584410  5.7042408867422738  8.5456295386153691
  9.9547788238585184  7.1292406043759877  9.9587250103546765
  8.5419801709135772  8.5675570855879002 -0.0000000253937973
  9.9701966358944745  9.9859458613192000  1.4245884299528184
  8.5418897199771280  8.5615597281276958  2.8514425148709051
  9.9631530925954763  9.9946587024306659  4.2734397971756595
  8.5419800445907175  8.5677861442598040  5.6946533851371184
  9.9631938493062169  9.9946587591220997  7.1158262024362147
  8.5420704608557347  8.5615598443564878  8.5378643610186522
  9.9703210857098625  9.9861708691056492  9.9646780559460755
  2.8473267285813071 -0.0648496781217962 -0.0000004499106827
