Fe Mo
 1.0000000000000000
    11.3953947077826356    0.0000000000000000    0.0000000000000000
     0.0000000000000000   11.3980225384348515    0.0000000000000000
     0.0000000000000000    0.0000000000000000   11.3953947147562840
 Fe  Mo 
 126   2
Cartesian
  0.0095107864856618  0.0000000640987895  0.0095106702072939
  1.4244244020969934  1.5116149221775683  1.4244244616760584
  1.4620868569878946  1.4623119430298541  4.2917649230957782
  0.0099341297952778 -0.0000073117346012  5.6992271838039725
  1.4244243045888993  1.4268470748415718  7.1221218005486699
  0.0001716878127516 -0.0001102728748408  8.5468376333772902
  1.3867619051037303  1.4623118285082075  9.9524785640166016
 -0.0038672883426551  2.8620551863781549 -0.0039120949124786
  1.4244242934826838  4.2646157391033199  1.4244243829998009
 -0.0117380481782246  2.8800705132658551  2.8606078759470552
  1.4276455813196411  4.2727145022218931  4.2775817539822647
 -0.0046136402082892  2.8572576762790094  5.7038283252554240
  1.4244244648833950  4.2722088408983678  7.1221217170810522
 -0.0112225822668402  2.8539635049576848  8.5340842114862845
  1.4212029899648750  4.2727143446759035  9.9666615846634521
  0.0064040272242169  5.6990113002804090  0.0064040019413933
  1.4244244097366152  7.1334067084979784  1.4244242664268856
 -0.0048854942391541  5.6990111995924737  2.8537342962684265
  1.4278129532745476  7.1252786452454027  4.2774095677315467
  0.0020876734827859  5.6990481252172147  5.6941244476767165
  1.4244244247240232  7.1258401602742820  7.1221216133532730
 -0.0068882931921615  5.6990179801560208  8.5396460879528426
  1.4210358705289472  7.1252786435610282  9.9668337340516366
 -0.0039122014098791  8.5359674312987028 -0.0038674140471824
  1.4244244159506358  9.8864074785063920  1.4244243191200565
 -0.0117593216506032  8.5179520943735536  2.8605866511413880
  1.4620365540887990  9.9356197697214892  4.2918161732023199
 -0.0047097932206583  8.5406543868069473  5.7038258279492613
  1.4244243734498065  9.9708301390703813  7.1221215761420433
 -0.0112567643115172  8.5439786033945584  8.5341313848240770
  1.3868120979873977  9.9356197822298409  9.9524272874771746
  4.2918163156535591  1.4624029171309170  1.4620365655119629
  2.8393380121121834  0.0000001257897206  2.8393379581815554
  4.2669772454293300  1.4245950759298609  4.2669553857405162
  2.8486770617648518 -0.0001100891494313  5.6974058907507183
  4.2711145943424276  1.4227304582098399  7.1235913302297798
  2.8389144856317019 -0.0000073894265447  8.5450161010190104
  4.3086279857586440  1.4599268400443250  9.9357503284877122
  2.8605867399838329  2.8800705012415491 -0.0117592614163165
  4.2774095565231836  4.2727438558835820  1.4278128848525085
  2.8527160516514463  2.8620552270371280  2.8527608381589435
  4.2729569936710794  4.2727676125496608  4.2729984199746776
  2.8600712482562591  2.8539636295310844  5.7101590738959533
  4.2803965635361054  4.2762209794251280  7.1294267057743159
  2.8534623636764369  2.8572576598596591  8.5404151427892252
  4.2849544953689644  4.2777092126829883  9.9593748855623954
  2.8537341672425227  5.6990112920406908 -0.0048857124196944
  4.2775816868034306  7.1253081263825377  1.4276457105940645
  2.8424446850544101  5.6990113004675811  2.8424446555659064
  4.2729982427830588  7.1252548515943088  4.2729570726864576
  2.8557370007786047  5.6990180590896138  5.7045974362860301
  4.2804296943225939  7.1217448294024983  7.1294243001579147
  2.8467610135879617  5.6990481074444457  8.5501187245766612
  4.2848684490943878  7.1203134450330525  9.9592888316011088
  2.8606079810624232  8.5179521542359620 -0.0117379384954694
  4.2917648933244275  9.9357107744268163  1.4620867717630628
  2.8527609000771057  8.5359672735107921  2.8527161530646064
  4.2669554038087121  9.9734274999503469  4.2669771661608360
  2.8601055501495409  8.5439785338744922  5.7101119243703407
  4.2712312953951557  9.9753452658660606  7.1235521771448891
  2.8535584627877446  8.5406543756127284  8.5404176098009525
  4.3084929834626440  9.9380957538365244  9.9356153735290196
  5.6992273534256270  0.0000074692455307  0.0099342290439494
  7.1221216596549386  1.4271923466736853  1.4244243306887889
  5.6974058611316272  0.0001101604139524  2.8486769605385982
  7.1235521373265751  1.4226771990083318  4.2712314209082383
  5.6902208197984994  0.0000001566454771  5.6902210628674856
  7.1221217592224910  1.4208091718275178  7.1221215635239963
  5.7005931709051065  0.0000000240379531  8.5436501858741778
  7.1206911174211394  1.4226771353704293  9.9730119520717615
  5.7038258889931006  2.8573682701720085 -0.0047099057268511
  7.1221216702256269  4.2721823697799417  1.4244243899948128
  5.7101118218833262  2.8540438659603415  2.8601054428114372
  7.1294243488102529  4.2762777869552053  4.2804295826640324
  5.7015783035830925  2.8533432108068633  5.7015644163380115
  7.1221216403526748  4.2811037502562410  7.1221217035263651
  5.7108908599175958  2.8529388454828588  8.5333574533468717
  7.1148190923817296  4.2762777043515472  9.9638137291287663
  5.6941245755898775  5.6989744271361644  0.0020877497989713
  7.1221217708608053  7.1258136451428680  1.4244243805819936
  5.7045974493391425  5.6990044429398461  2.8557370433486233
  7.1294265958215028  7.1218016668591000  4.2803964248898669
  5.6949122316815837  5.6990113407498288  5.6949122274967738
  7.1221216265063756  7.1169186016350938  7.1221216434010914
  5.7037204679779503  5.6990113571273104  8.5405227289992762
  7.1148168923727795  7.1218015223607587  9.9638470409465807
  5.7038282496239985  8.5407648642239788 -0.0046137693793271
  7.1221216847269746  9.9711754857382644  1.4244243041461910
  5.7101592616011168  8.5440589923653540  2.8600711830554424
  7.1235912099417558  9.9752921625280919  4.2711146944298042
  5.7015644272793180  8.5446792078108018  5.7015783082486315
  7.1221217821973655  9.9772134165699438  7.1221217331467415
  5.7108860183483356  8.5450835147094875  8.5333524196369801
  7.1206521374973875  9.9752921780785364  9.9731288778012139
  8.5468374607312878  0.0001103168217844  0.0001717250114796
  9.9524273111371695  1.4624030327068118  1.3868119453396757
  8.5450160725198234  0.0000073844671794  2.8389144087833760
  9.9356155217748565  1.4599268171333488  4.3084931244583489
  8.5436501794266952 -0.0000000698156343  5.7005932390240179
  9.9731287805672668  1.4227304187632646  7.1206521092157757
  8.5540224048088902  0.0000000332791216  8.5540223891666294
  9.9772662180953056  1.4245950644214966  9.9772880868523810
  8.5341314819724428  2.8540439158114950 -0.0112567764517649
  9.9668339065016109  4.2727438916493155  1.4210359720828554
  8.5404174676211717  2.8573682541050003  2.8535586438628999
  9.9592887721998871  4.2777090825650905  4.2848686077373266
  8.5333526044644330  2.8529390826183114  5.7108860126183458
  9.9638468577922730  4.2762209646922340  7.1148167437784693
  8.5426649579855827  2.8533433390478433  8.5426788101871605
  9.9712862135461044  4.2727676385623603  9.9712450087746465
  8.5396457360275697  5.6990043530944794 -0.0068884026817873
  9.9666617241810567  7.1253081850609457  1.4212030287951822
  8.5501188219386961  5.6989744100864081  2.8467611103041164
  9.9593748693553081  7.1203134438347675  4.2849545880314190
  8.5405229286045863  5.6990113373123084  5.7037206509940477
  9.9638137416038823  7.1217447558636229  7.1148190386196202
  8.5493309141019864  5.6990112368258066  8.5493311336538245
  9.9712450085729056  7.1252548452250632  9.9712861467851379
  8.5340843836372073  8.5440590250326220 -0.0112225642245496
  9.9524784858353019  9.9357106863277345  1.3867617798677541
  8.5404150435270587  8.5407648589296628  2.8534624018659271
  9.9357502824882378  9.9380958087882476  4.3086280052941701
  8.5333572801054949  8.5450835740238684  5.7108907587437443
  9.9730119652225504  9.9753453318989127  7.1206911856756534
  8.5426788000481899  8.5446791586286217  8.5426651412737531
  9.9772879573569142  9.9734274507663638  9.9772660859073508
  2.8625210345418792 -0.0000001559334687 -0.0136723989659433
 -0.0136724514079113 -0.0000000121899555  2.8625210717581093
