Fe Ta
 1.0000000000000000
    11.4028840989099631    0.0000000000000000    0.0000000000000000
     0.0000000000000000   11.4028841036970370    0.0000000000000000
     0.0000000000000000    0.0000000000000000   11.4028840969732705
 Fe  Ta 
 126   2
Cartesian
 -0.0398339225626701 -0.0407137465281973 -0.0409145899290920
 -0.0538224254151065 -0.0756935430997434  2.9049326348767393
  1.4187627201913309  1.4321295805955736  4.2937010220215566
  0.0000588348521034 -0.0000029037930955  5.6964051850719288
  1.4255852827812758  1.4250488033443696  7.1339380862336386
  0.0150093855463864  0.0056032707132505  8.5769501378726005
  1.3844458350667681  1.4660743418256696  9.9376896161692017
 -0.0542116714880779  2.9045435004580131 -0.0756934325211708
  1.4185914895210228  4.2937010595132659  1.4319582381721283
 -0.1310603555487453  2.9817814743468141  2.9817813961098376
  1.4313392665830740  4.2678331527129751  4.2679273558803565
 -0.0097496877610055  2.8605354818146731  5.6910405599757965
  1.4279988255628138  4.2755518782383861  7.1303381782633641
 -0.0117897604948411  2.8623798369630920  8.5499536345455223
  1.4308482118838435  4.2511961199112829  9.9925468754318238
  0.0002012599197238  5.6965978875042378 -0.0001059116232265
  1.4256723470875781  7.1339381015447128  1.4251356549851499
 -0.0098143804843801  5.6910406090693719  2.8604707014857516
  1.4279470647671142  7.1303483512027253  4.2756607397356419
  0.0016859401300774  5.6996980217480582  5.6998385349905538
  1.4237728572157797  7.1244638993052467  7.1244777597565712
 -0.0027263503249337  5.6962572265933842  8.5473853730698632
  1.4252545382812629  7.1316468144137275  9.9777248851491507
  0.0150231741558742  8.5770484983224069  0.0054877254628600
  1.3846468604562452  9.9376896397345664  1.4662751042524695
 -0.0116587277775325  8.5499536726007257  2.8625107790431183
  1.4309637725482078  9.9925329559099421  4.2512946403469325
 -0.0027110075581577  8.5473177373922269  5.6963908534031633
  1.4253575357667496  9.9775824208271011  7.1318393970429952
 -0.0151456170596879  8.5344881212942525  8.5344532755178069
  1.3496669999667514  9.9237010969737618  9.9233118623374761
  4.3159154680479181  1.4662751110479184  1.4660741648761710
  2.8914347219861254 -0.0409145803943767  2.8905550215710929
  4.2610582964488612  1.4198728345975289  4.2511961228336350
  2.8504092721651939  0.0002248474868859  5.6943065488895392
  4.2758802012456698  1.4254664358026425  7.1316468503804664
  2.8574900120756030 -0.0065978045720657  8.5345436312180460
  4.3302932719591709  1.5010540271264097  9.9237011152387300
  2.8916356405629724  2.8905549883928030 -0.0407137172885069
  4.2610721634963182  4.2512945513834213  1.4197572683219568
  2.9264145205545908  2.9049326900190922  2.9045434602574893
  4.2912272956617592  4.2937912492836645  4.2937564385037605
  2.8508269350350366  2.8505197235977824  5.6965978141524412
  4.2788079077934036  4.2808592942555554  7.1319874186595547
  2.8452332635162896  2.8356978258684311  8.5770485532455076
  4.2878712690647562  4.2782909731310426  9.9658648179530651
  2.8504962216348528  5.6943064960548071  0.0003117319764799
  4.2760226711018525  7.1318394034357535  1.4253634022966410
  2.8507240182477420  5.6964051328922514  2.8506622538622035
  4.2787925344248467  7.1318537498382666  4.2809268660714590
  2.8523087285799256  5.7037667150922102  5.7037806639002131
  4.2743955586245441  7.1284060469527724  7.1285465713726133
  2.8480826486356516  5.6979064312414476  8.5526927379711690
  4.2858311664383120  7.1372040481906041  9.9677091359655918
  2.8573187631032413  8.5345436185513179 -0.0067691057162236
  4.3299038712505213  9.9233119620985200  1.5010539779808227
  2.8451177939067782  8.5769500428058230  2.8357116690722624
  4.2877403506352696  9.9657338390144314  4.2782909835069214
  2.8481345458141281  8.5525838679271153  5.6978962528792723
  4.2858959640364587  9.9677739672245824  7.1372040140744035
  2.8447422562084705  8.5603172144585695  8.5604113612594279
  4.4071419103166267  9.8464632354902886  9.8464631666530007
  5.7190614683388539 -0.0067690772520183 -0.0065977507135762
  7.1196670723342752  1.4251356605941425  1.4250487483421848
  5.6765566058333849  0.0054877755960841  2.8356978527148935
  7.1232669050031259  1.4227223373635727  4.2755519145937617
  5.7009124383061689  0.0026383044288408  5.6979063625550763
  7.1291272204833680  1.4269482108698048  7.1244639213930441
  5.6931937147115512  0.0059787090682782  8.5603172070317779
  7.1217657412124860  1.4253634836024971  9.9775823961521901
  5.6766550562859912  2.8357116371213089  0.0056032364736708
  7.1232566976892695  4.2756607362631618  1.4227740333173104
  5.7036514816384720  2.8625107500602347  2.8623797697296300
  7.1327358358683126  4.2868907504120308  4.2868669191767710
  5.7062197433471216  2.8534474974856243  5.6962573072947436
  7.1324500550149601  4.2794269784599255  7.1211811141659362
  5.7191518040801981  2.8658667237550430  8.5344881108934540
  7.1217513610762087  4.2809267824838981  9.9748125645760144
  5.7010212524807171  5.6978961887597075  0.0025865566400442
  7.1291411789537706  7.1244778966163897  1.4269481543335485
  5.7062873275012036  5.6963909697872710  2.8534320320178570
  7.1324241136079429  7.1211551087230314  4.2794269723735212
  5.7047874424492857  5.7070895451866255  5.7070635186915810
  7.1368543618139224  7.1167507405679462  7.1167508342642405
  5.7122511523626303  5.7073753140525900  8.5413777466135503
  7.1251990069344640  7.1285465660903622  9.9792096353880524
  5.6932878210433042  8.5604114646507501  0.0059787323202719
  7.1219583082926619  9.9777248895171091  1.4254664762016021
  5.7191169056831539  8.5344532711921719  2.8658667179287289
  7.1216176889265261  9.9747971031719214  4.2808592797805973
  5.7122274063908716  8.5413538686192982  5.7073753821007314
  7.1250586024453648  9.9792095773332790  7.1284060008421362
  5.7400236578713715  8.5135815606904153  8.5135814945672994
  7.1164010858477811  9.9677092564469785  9.9677739316079901
  8.5592985779479491  0.0003118349997399  0.0002247942272868
  9.9599041434985285  1.4319582349060120  1.4321296613845023
  8.5570072472953935 -0.0001059873093484  2.8505198061608472
  9.9856777472051643  1.4193817782704425  4.2678331714893281
  8.5498243946652082 -0.0015876655044241  5.7037667319076570
  9.9779443889900161  1.4227739866223597  7.1303483827218637
  8.5557089735413481  0.0025865635734792  8.5525838752842809
 10.0023106022425488  1.4197573739151679  9.9925329831887773
  8.5571999876617433  2.8506622337025478 -0.0000028634812712
  9.9857719533001834  4.2679273643087585  1.4193818104172824
  8.5625645385974156  2.8604706631150609  2.8605354063460582
  9.9389419601609692  4.3146631068626107  4.3146630834193411
  8.5537665238221674  2.8490350358553465  5.6996980721247947
  9.9667144515276842  4.2868669086457567  7.1208693291764948
  8.5572142472401307  2.8534320303288103  8.5473177708383563
  9.9598138283706330  4.2937564485961328  9.9623778821836151
  8.5498383945543139  5.7037806794114143 -0.0015876344696642
  9.9780532247043574  7.1303382484962663  1.4227222696031514
  8.5539070582179573  5.6998385794001329  2.8490350340282422
  9.9667382331437242  7.1208693188385306  4.2868907023402123
  8.5421113245186469  5.7114938510855016  5.7114938836673916
  9.9741782264745638  7.1211810975301839  7.1211551428107258
  8.5465156071519832  5.7070635654268269  8.5488177649009458
  9.9727458536046711  7.1319873930474742  9.9747971537178426
  8.5556986667750312  8.5526927774734993  0.0026382325708357
 10.0024089233899094  9.9925467964067298  1.4198727443363748
  8.5573478987301517  8.5473853579560224  2.8534474858300420
  9.9598487244535736  9.9623779255571474  4.2937913561323908
  8.5465415738513215  8.5488176697843450  5.7070895143798950
  9.9726783576430407  9.9748125905924496  7.1318537160087265
  8.5462297747791816  8.5413777431617639  8.5413539790837198
  9.9753141811617905  9.9658648178992060  9.9657338276555905
  2.9794248715196359 -0.1287039057727042 -0.1287040924601933
  1.2966566265657877  1.5540644903736480  1.5540644824984460
