Fe Cr
 1.0000000000000000
    11.3617970326095463    0.0000000000000000    0.0000000000000000
     0.0000000000000000   11.3617970384855891    0.0000000000000000
     0.0000000000000000    0.0000000000000000   11.3617970488462934
 Fe  Cr 
 126   1
Cartesian
  0.0724637983896242  0.0488467197255285  0.0484288783576050
  0.0597166946373686  0.0463100942410214  2.7806442172669699
  1.4260172285877846  1.4145340488651270  4.2941158472574337
  0.0005320799797819 -0.0027495396712624  5.6801336589380318
  1.4237453800178983  1.4165170736522150  7.1084837449740164
  0.0049448341587393 -0.0043060754198069  8.5280871445488451
  1.4414344463817168  1.3991784924515125  9.9069234233564156
  0.0598051681413243  2.7807324846285941  0.0463101470168686
  1.4259149842686050  4.2941159187704203  1.4144321306299219
  0.0634890024935136  2.7769601580464056  2.7769600459549304
  1.4187410315121602  4.2489305467632175  4.2488436943467338
  0.0007412845332618  2.8398693238959241  5.6810663626229756
  1.4207528365055093  4.2529508699301140  7.0995599766904078
 -0.0033360914447835  2.8436487370740560  8.5212467996657004
  1.4270110067396757  4.2434830812693516  9.9571464791231108
  0.0006269047101865  5.6800468457921891 -0.0027275989929999
  1.4239324610923492  7.1084836755002865  1.4167038294458361
  0.0005799064781167  5.6810662968817880  2.8397080826188357
  1.4206935691310825  7.0996711849418439  4.2529319791025335
  0.0020858905769657  5.6805003305129178  5.6804585986026233
  1.4209928242486645  7.0995073871073364  7.0996168243624744
  0.0033876188445436  5.6802739799169819  8.5239366978109388
  1.4249382828265662  7.1101581551011979  9.9545422088856412
  0.0048096052395049  8.5279437870451620 -0.0041911866311979
  1.4412707955248545  9.9069233845429459  1.3990148680928547
 -0.0031995353615062  8.5212467638964746  2.8437854277404200
  1.4267344456717159  9.9570864376246462  4.2436261570643765
  0.0033360583253081  8.5239033091669842  5.6803321837606680
  1.4251290963153864  9.9543462537097991  7.1103124090780900
 -0.0008274822515159  8.5229021541437895  8.5230570083661483
  1.4512133433135037  9.9744239363383880  9.9746724229498298
  4.2953228240673749  1.3990150609833969  1.3991784535772367
  2.7916025569237517  0.0484288974150568  2.7679855208973554
  4.2450996741669682  1.4134382467344357  4.2434831699929809
  2.8413629509889469 -0.0010832998365461  5.6793399602464030
  4.2477042034152470  1.4155111495187362  7.1101580797394925
  2.8405887036982200 -0.0001268197809686  8.5402721481678352
  4.2275738836845216  1.3892359657917142  9.9744238962921568
  2.7920204693042057  2.7679853823156990  0.0488467173383497
  4.2451600004473606  4.2436262954524908  1.4137148596656954
  2.7941392372940230  2.7806441617021789  2.7807325065909647
  4.2444634623110984  4.2468377636402384  4.2468699952639488
  2.8431767666755454  2.8398224101608101  5.6800467983672531
  4.2578145272255110  4.2589251794032403  7.0979093973800529
  2.8446405666621666  2.8356398420201105  8.5279437957724884
  4.2389864835436875  4.2367122688573415  9.9633606890333812
  2.8415326557632983  5.6793401371230798 -0.0009136961477456
  4.2478999632939702  7.1103124591912135  1.4153200898986380
  2.8431988624650133  5.6801336715907373  2.8399170944987873
  4.2577811488325921  7.0979009189767384  4.2588012853140587
  2.8387990818511311  5.6793475899288604  5.6793625505275918
  4.2581397096745777  7.0990680537876418  7.0990085092981694
  2.8404336091230444  5.6780420246404120  8.5247331322078939
  4.2505007534232089  7.1127186789131223  9.9516284587926958
  2.8405760767526509  8.5402722391356818 -0.0001394804624860
  4.2278223549166905  9.9746723805248756  1.3892358640468150
  2.8447552994601049  8.5280870889669966  2.8355045019614384
  4.2388857051258286  9.9632597321059553  4.2367122966630655
  2.8404702408464639  8.5246294753395553  5.6779850195178057
  4.2506180481985663  9.9517455330343214  7.1127186351319764
  2.8388316140796319  8.5305522464189121  8.5305834619367662
  4.2177189958156918  9.9845273188539316  9.9845273911906229
  5.6619741590803878 -0.0001395077372540 -0.0001268557715930
  7.0937625509707711  1.4167036593543822  1.4165168347607093
  5.6743025301269272 -0.0041911774453859  2.8356397652321186
  7.1026863984188173  1.4196965087333873  4.2529509224199051
  5.6775132705773039  0.0000156234082333  5.6780419475211259
  7.1026295067373892  1.4194564043071356  7.0995073033441685
  5.6716627965204500  0.0016175252222289  8.5305523065305646
  7.0919337113819045  1.4153199667449836  9.9543462305911916
  5.6741590920500062  2.8355044877489886 -0.0043060554470287
  7.1025752431868288  4.2529318535775529  1.4197558389071991
  5.6809993590326204  2.8437853800325534  2.8436488523059729
  7.1006093288966561  4.2544029317057248  4.2544237616347633
  5.6783096193808449  2.8370616308835990  5.6802740890790142
  7.0997096787157243  4.2563250739745451  7.1024177365952763
  5.6791891714614362  2.8412768655000447  8.5229021973403416
  7.1043452535783969  4.2588014009551918  9.9444649484965701
  5.6776166756298547  5.6779850812881181 -0.0000211496356867
  7.1027389948087327  7.0996167431881965  1.4194565167151032
  5.6783428286016893  5.6803321731299246  2.8371133027535929
  7.0998287009962322  7.1025366344816812  4.2563250363717975
  5.6744056161974390  5.6741188383523502  5.6740555540350099
  7.0994612078232500  7.1027850822849432  7.1027851085741087
  5.6703387059833288  5.6722839662755424  8.5319158262207715
  7.1031782354349691  7.0990085502728313  9.9441066553026491
  5.6716938972068975  8.5305832310605094  0.0016175843217580
  7.0920882036041029  9.9545421662716329  1.4155112248543575
  5.6793439522387326  8.5230570668438066  2.8412768416712488
  7.1043368048493525  9.9444318437454964  4.2589253547759265
  5.6703303927668083  8.5319076363313293  5.6722840246529902
  7.1032377830228572  9.9441067275862078  7.0990680594523816
  5.6730539756565959  8.5291922881975868  8.5291923385106490
  7.0895275422598472  9.9516284072262362  9.9517456052542936
  8.5229062167423546 -0.0009138109537721 -0.0010833795175520
  9.9081303308531847  1.4144321165903375  1.4145342790859741
  8.5221993813223609 -0.0027275895509681  2.8398223048056379
  9.9534026466029886  1.4217081948469774  4.2489304176626952
  8.5228837345760500  0.0016502405894351  5.6793475596473009
  9.9493144685882076  1.4197557189912731  7.0996712398514523
  8.5242613491377082 -0.0000209811105030  8.5246295393905225
  9.9586201410335864  1.4137147589951282  9.9570862123380159
  8.5221125513312259  2.8399172100517713 -0.0027495443383529
  9.9533157879558285  4.2488435632218895  1.4217082324118477
  8.5211801459126963  2.8397081026498139  2.8398693749057200
  9.9620684583171748  4.2401778801695640  4.2401778158049801
  8.5217876519447984  2.8383633162360509  5.6805002236756543
  9.9478433554625312  4.2544236757366010  7.1016370041659469
  8.5219141729446761  2.8371132850655867  8.5239034050286921
  9.9554085533463450  4.2468700506386670  9.9577828368051691
  8.5228987220114547  5.6793625587944083  0.0016502410208063
  9.9492952511046227  7.0995597999338180  1.4196965293229260
  8.5217460119335122  5.6804585647909462  2.8383633495875564
  9.9478224805594984  7.1016368862446688  4.2544030722768822
  8.5291758084684020  5.6730703402080609  5.6730702971802263
  9.9459211731970960  7.1024176427137853  7.1025365880003015
  8.5281274120830073  5.6740554750437058  8.5278407326371415
  9.9433211374542161  7.0979094499510493  9.9444318054652019
  8.5242042769508348  8.5247330493807230  0.0000157657492112
  9.9587631320426073  9.9571466327670137  1.4134382102003828
  8.5219723504772400  8.5239366354062707  2.8370615763262870
  9.9553761814500561  9.9577828358143581  4.2468377308246605
  8.5281906787935355  8.5278408508216295  5.6741188190546978
  9.9434449403965939  9.9444651593925677  7.0979010384721830
  8.5299622403003585  8.5319157786869830  8.5319077084204036
  9.9655339065872095  9.9633607452156809  9.9632597176167224
  2.7561222393238176  0.0843268330274471  0.0843269117234318
