Fe Nb
 1.0000000000000000
    11.4095838367684532    0.0000000000000000    0.0000000000000000
     0.0000000000000000   11.3901730912834420    0.0000000000000000
     0.0000000000000000    0.0000000000000000   11.4095838232365576
 Fe  Nb 
 126   2
Cartesian
 -0.0193603421268326  0.0152743143810633  0.0002891075349440
  1.3392208774648273  1.4489818109093426  1.5129422114977134
  0.0046406814736004  0.0104368397134598  2.8479648791071561
  1.4253905468871981  1.4416007044625845  4.2519563016876925
  0.0010570382798781  0.0034776595476808  5.7003664758791404
  1.4240406714414906  1.4276057064341330  7.1365542207553023
  0.0168414721307950  0.0026390082204728  8.5655566282250923
  1.3524057320975862  1.5046886072364172  9.9413105390487768
 -0.0420754508503647  2.7666258830637225 -0.0737922901292234
 -0.0896807453306891  2.8132872345328912  2.9422377367573578
  1.4323198203700673  4.2685233464366314  4.2949258851258074
 -0.0074208904235304  2.8536383870899975  5.7008859458359717
  1.4310101318118176  4.2666445467351153  7.1325673754273859
 -0.0244262248295073  2.8670008346702898  8.5433991757872860
  1.4264874804630199  4.2560408334576882  9.9640253544976520
 -0.0567720601437755  5.7516255237502616 -0.0567805995127546
  1.4334607196322717  7.1311642705908582  1.4189447757986271
 -0.0591243366494577  5.7444491982807717  2.9116457140802803
  1.4282068697839314  7.1011677577558947  4.2590385417369747
  0.0055981538953329  5.6953823058363149  5.7005806344002110
  1.4280869045999098  7.1202472042797353  7.1371420172138231
 -0.0040317171541272  5.6935829943356167  8.5614973118689299
  1.4281356159550140  7.1145983935280723  9.9982529216201819
  0.0148671852458773  8.5468897416592409  0.0019375152264062
  1.3662894733888304  9.9232199749136925  1.4860925152465416
 -0.0142781196680024  8.5197067683809991  2.8666777726801027
  1.4229318360373400  9.9696278816355086  4.2685277173746670
 -0.0026479451734580  8.5337068739086028  5.7027052790173132
  1.4256348026120336  9.9649992659966227  7.1361063755261362
 -0.0154558989850620  8.5241674112381567  8.5452129538241088
  1.3694178604248568  9.9098627202566192  9.9266147616145251
  4.3207738403625298  1.5049628441525105  1.4997246213709454
  2.8519688179475331  0.0152367532517337  2.8712657793803418
  4.3031946384402344  1.4039260098203998  4.2921345776038349
  2.8476779264025134  0.0046939126861824  5.7032763621731100
  4.2859443252834195  1.4177189623398787  7.1347989594605306
  2.8464788864094510  0.0028384232920869  8.5411167673570336
  4.3684356135660201  1.4580274626900303  9.8937059359123865
  2.9391403191375596  2.8223327220633077 -0.0869771265921471
  4.2974643793195781  4.2560782995789568  1.4257711790586560
  2.9259230106070677  2.7663516880301109  2.8945758922440352
  4.2614554686076627  4.2687828401227694  4.2701372652078096
  2.8544776966805498  2.8434569387574014  5.6993348457827979
  4.2775936370299474  4.2678822726554495  7.1354042257048684
  2.8534843561175518  2.8297772678985216  8.5839214093592933
  4.2741628727827576  4.2608782076778873  9.9880261855949435
  2.9122908648288477  5.7382683213908896 -0.0599087557408599
  4.2638601944285162  7.1147525356145955  1.4241185632407805
  2.9089627396700903  5.7518931133503308  2.9091394175665375
  4.2940604714795105  7.1374420604594375  4.2906144925326677
  2.8531739100977505  5.6964516389142732  5.6998120254072360
  4.2812089134502038  7.1278256437626428  7.1332073835530512
  2.8555161025835112  5.6920170722256049  8.5673493056611552
  4.2928752896819340  7.1417815503214976  9.9691077780659789
  2.8451422920772504  8.5303240123493644  0.0072617797907370
  4.3353376343708190  9.9095949869907614  1.4827646310052116
  2.8503163067111355  8.5467353176318017  2.8376621631153198
  4.2824383391715477  9.9676902546080548  4.2742740836582342
  2.8504330829300448  8.5412158009043040  5.6987487559757239
  4.2731278758613538  9.9661976548589593  7.1353525680941807
  2.8502968652624423  8.5603419157509215  8.5768523618078412
  4.3378433891691337  9.9170387401350251  9.9242619466426660
  5.7211237177756473  0.0027915435378727  0.0061218934418899
  7.1255325948518822  1.4278581375958308  1.4282797032051029
  5.6963350788846538  0.0025320573400967  2.8352571526469199
  7.1290451706057327  1.4175900433471484  4.2843896029037802
  5.7127119173121477 -0.0098596669797946  5.7109935024494041
  7.1314991744345129  1.4233460610104134  7.1304276722736342
  5.7029588398233866 -0.0146155604800565  8.5591559328062949
  7.1270840951974188  1.4176758585952858  9.9759650198307046
  5.6781541279616734  2.8297143218320064 -0.0008073199244809
  7.1294744522688411  4.2666205377735276  1.4214793537560710
  5.7183326238225076  2.8673893335116540  2.8769968850624807
  7.1371912587940525  4.2811745478890675  4.2865139212116441
  5.7105876189578524  2.8537248046626384  5.7028476604248866
  7.1383950820916136  4.2805746918194654  7.1235183522611223
  5.7232407365720537  2.8676310282043689  8.5386533176435240
  7.1265647065060804  4.2678378032594697  9.9844431158275189
  5.6947255403884034  5.6918594335020272 -0.0032662003377308
  7.1249467851628765  7.1202723707335132  1.4242352103702680
  5.7004719021010475  5.6937970696716400  2.8562404322908823
  7.1355259579407502  7.1170239707551675  4.2875814810135466
  5.6991683035550835  5.6957561361826388  5.7041868425280127
  7.1367052919027989  7.1146723700902452  7.1253125768055083
  5.7105508292919316  5.6984436726419396  8.5514602224570275
  7.1289036341422056  7.1277807795052510  9.9807372899790963
  5.6852364579686663  8.5603198305313395  0.0020088970692481
  7.1260097726924982  9.9650367903039427  1.4269761648282326
  5.7168124680235994  8.5240460027091842  2.8678625941263576
  7.1303849009826159  9.9657314423681971  4.2729707335586058
  5.7137792718750617  8.5444645902228213  5.7093275638396754
  7.1325101183203419  9.9618667039432101  7.1294682628995254
  5.7267093849458037  8.5355746018501186  8.5353428586265974
  7.1267787721867872  9.9661058982846207  9.9889836719624761
  8.5587657580657694  0.0046699425894818  0.0048120156137683
 10.0101194392750603  1.4415381656870438  1.4272861201584937
  8.5616022396911511  0.0034321892895794  2.8513961377915553
  9.9648514557082173  1.4036838454262568  4.2970429856222490
  8.5497162849891719 -0.0092600901764881  5.7121974611900566
  9.9774867026159892  1.4176262047903978  7.1328156000953733
  8.5509400849579986 -0.0097119773001375  8.5492472416186480
  9.9695974122744619  1.4043138687583114  9.9589598935815484
  8.5627521701369780  2.8437092418071823 -0.0021567734446213
  9.9673143744794857  4.2684757725146856  1.4202805854161611
  8.5609971735360322  2.8535960116840693  2.8597461726548863
  9.9853538853550017  4.2859307485330485  4.2767600620177060
  8.5566253348195556  2.8479683958688948  5.7053008886324807
  9.9754460343964215  4.2810268363246706  7.1247428914831907
  8.5590134632413282  2.8536885885419561  8.5512884540911447
  9.9917547519899035  4.2686760571707216 10.0002269629126150
  8.5623047891823916  5.6964887826238462 -0.0005630244276560
 10.0030502064532634  7.1011459187411763  1.4240989957537717
  8.5615508795715396  5.6952905065025696  2.8469301904406503
  9.9615401994073611  7.1259131972718883  4.3005115658325739
  8.5556661941572258  5.6996221420605275  5.7063121532284278
  9.9743712655530476  7.1170266117174572  7.1265092246721808
  8.5578101955595649  5.6956847313701333  8.5627315208393675
  9.9714110854446112  7.1373202752206195  9.9679302334730782
  8.5633402603758917  8.5412410909222043  0.0018893244090136
  9.9935470362271470  9.9694709549574796  1.4293182249288143
  8.5594053220940438  8.5336622891815903  2.8550110254861520
  9.9776581314959607  9.9630439096603105  4.2843525168035601
  8.5515101886212506  8.5468155227799603  5.7105063678490726
  9.9889291246224801  9.9658034242938633  7.1316122661766261
  8.5527075267421129  8.5444612223075005  8.5481735219397788
  9.9876953546325122  9.9679052675396544  9.9793545866601630
  2.8415589172514277  0.0439847896589139  0.0108209892814974
  1.4370194565424048  4.2273300629696831  1.4153611351061348
