Fe Mn
 1.0000000000000000
    11.3696703713766816    0.0000000000000000    0.0000000000000000
     0.0000000000000000   11.3694577414487252    0.0000000000000000
     0.0000000000000000    0.0000000000000000   11.3696703683279541
 Fe  Mn 
 126   2
Cartesian
  0.0138588541589601 -0.0000000010800301  0.0138588611256227
  1.4212087957361350  1.3926987304564373  1.4212088258249542
  1.4067477233939645  1.3989772927738853  4.2340633783661463
  0.0041005388095545 -0.0000246867517858  5.6720997191325937
  1.4212087820287667  1.4146814419741109  7.1060439841163792
  0.0100683426632098  0.0000020484704058  8.5381848870225667
  1.4356698570410913  1.3989773009161697  9.9780245916750800
  0.0084523030631349  2.8246802639806829  0.0084260983034347
  1.4212088421559825  4.2341906144470043  1.4212088583543252
  0.0052256259100708  2.8238871836626300  2.8372152121076573
  1.4169336608453109  4.2545799686269952  4.2642279926413709
  0.0052782627778298  2.8290051542523083  5.6768712726086132
  1.4212088332222925  4.2695174663534088  7.1060439891726697
  0.0051894906548370  2.8365342787550594  8.5315651978938227
  1.4254839498904586  4.2545799109161928  9.9478599770343283
  0.0020100906126504  5.6847288561664975  0.0020101288154799
  1.4212088231913615  7.1352670826964024  1.4212088294547813
  0.0059825044363311  5.6847289330644593  2.8364351171670519
  1.4170027535860039  7.1149644237859162  4.2642135338163376
  0.0007916256171275  5.6847611851761828  5.6849600308553212
  1.4212088073454638  7.0998657924788482  7.1060440034547829
  0.0045255445558469  5.6847460941020209  8.5316697386291267
  1.4254148086386782  7.1149644314607112  9.9478743165730865
  0.0084261271727780  8.5447774919065775  0.0084522967855314
  1.4212088063152764  9.9767590319506585  1.4212088101501954
  0.0052024035069077  8.5455704657485221  2.8371920437720535
  1.4067724915615443  9.9704777196825685  4.2340485638154179
  0.0052579313529119  8.5404792194271213  5.6768441492561745
  1.4212087825148718  9.9545433608972562  7.1060440158125049
  0.0051204240682542  8.5329449291998856  8.5316122286716745
  1.4356450882571101  9.9704777318355315  9.9780393391144102
  4.2340485670179637  1.3989800444939111  1.4067724951709302
  2.8285587935960352 -0.0000000037721012  2.8285587694576870
  4.2480464371707738  1.4133864768749027  4.2480833548903769
  2.8323492810556163  0.0000020825615075  5.6739029975332089
  4.2619172260001053  1.4159835621301036  7.1200918500868600
  2.8383169751295965 -0.0000246964743028  8.5399882051957885
  4.2487997179505728  1.3998337669991272  9.9632066942612578
  2.8371919742631202  2.8238871476625560  0.0052024433172256
  4.2642135301475701  4.2544933165286345  1.4170028215192767
  2.8339653282540480  2.8246803085244219  2.8339914666118480
  4.2669337267066636  4.2694359663863750  4.2670108368682937
  2.8372280778761283  2.8365342644869660  5.6805227801455027
  4.2595334874706881  4.2606466484779579  7.0994618550586939
  2.8371393098893751  2.8290051552500795  8.5352167518707933
  4.2547847832583301  4.2471235577213013  9.9573408221429727
  2.8364351226605682  5.6847288528202782  0.0059824798645959
  4.2642280408476623  7.1148777835782191  1.4169335866645325
  2.8404074749925732  5.6847288304319301  2.8404074212706067
  4.2670108583207202  7.1000217801836278  4.2669337417364099
  2.8378920876457299  5.6847460474482485  5.6804181896534711
  4.2595624165512573  7.1088763020030887  7.0993970592796751
  2.8416259529053631  5.6847612052989422  8.5271279531645963
  4.2547471556437673  7.1223341948136838  9.9573031588198742
  2.8372151470958653  8.5455705382826306  0.0052255482742365
  4.2340634178639620  9.9704803921422105  1.4067477620060627
  2.8339914550088383  8.5447774989634944  2.8339652899529328
  4.2480834645382872  9.9560712150354984  4.2480464445868158
  2.8372971402921676  8.5329449277098668  5.6804758253126213
  4.2619365225091972  9.9535308526357369  7.1201550214049991
  2.8371596658588834  8.5404793308692071  8.5352438205572412
  4.2488812846985375  9.9696239464207022  9.9632881761265963
  5.6720998141341719  0.0000247286268310  0.0041005732606220
  7.1060440335872865  1.4149143563644286  1.4212088021820908
  5.6739030422880390 -0.0000020473679763  2.8323492612481056
  7.1201549397516599  1.4159268482620395  4.2619363982630034
  5.6854909312739519  0.0000000046499244  5.6854908526708128
  7.1060439679767722  1.4222003537321550  7.1060440194188352
  5.6787908975119592 -0.0000000158357785  8.5332971212698663
  7.0919330480305618  1.4159268594923924  9.9501515329516277
  5.6768441169593027  2.8289784902851500  0.0052579189573526
  7.1060439838699363  4.2695918874308605  1.4212087775053213
  5.6804757485037962  2.8365128024773476  2.8372971582371243
  7.0993969520491058  4.2605813817667668  4.2595624314189013
  5.6796896428358634  2.8315084228829819  5.6797152142539122
  7.1060439530881041  4.2531493017301800  7.1060439358259435
  5.6781775848954412  2.8333483874393455  8.5338945090335674
  7.1126910113196553  4.2605813452745007  9.9525255190501500
  5.6849599564088136  5.6846966055229080  0.0007916452935275
  7.1060439683218357  7.0999402179230069  1.4212087008680898
  5.6804181671841762  5.6847116557066784  2.8378920681594542
  7.0994618399273701  7.1088111358559924  4.2595335157762433
  5.6834847647861242  5.6847288373657214  5.6834847968375799
  7.1060439700900737  7.1163084164521591  7.1060439877261112
  5.6794597029961684  5.6847288683061388  8.5326282309373056
  7.1126261985907480  7.1088111453951210  9.9525544273316022
  5.6768712849487573  8.5404524961028034  0.0052782718078170
  7.1060439928479271  9.9547762786017309  1.4212087931323156
  5.6805227863848771  8.5329234959942699  2.8372280674047969
  7.1200918224174599  9.9534741840951941  4.2619173018592988
  5.6797152341846422  8.5379493868006371  5.6796896425386274
  7.1060439668668156  9.9472573669005495  7.1060440080496914
  5.6781935031064803  8.5361093711294860  8.5339103974870856
  7.0919961210179965  9.9534741833600258  9.9501706540765866
  8.5381849612877438 -0.0000020597651609  0.0100683026191112
  9.9780393291246181  1.3989800079859871  1.4356450853942906
  8.5399881924706609  0.0000246931289116  2.8383170276354321
  9.9632881660224353  1.3998337730290693  4.2488813462582504
  8.5332971643090829 -0.0000000061322178  5.6787907585942206
  9.9501706808391113  1.4159835795504139  7.0919960212921254
  8.5265970393808814  0.0000000060160215  8.5265971232911468
  9.9640415245999598  1.4133865062823769  9.9640045778159170
  8.5316122063564528  2.8365127892570596  0.0051203993887884
  9.9478743176402595  4.2544933446045157  1.4254147965577719
  8.5352438134318795  2.8289785020267488  2.8371596469905094
  9.9573031358130191  4.2471235548283461  4.2547472020299892
  8.5339104538899644  2.8333483988983614  5.6781934460392129
  9.9525544354286026  4.2606466344859717  7.1126261014586705
  8.5323982693686791  2.8315083396534479  8.5323727214346476
  9.9451542599177856  4.2694359145716954  9.9450771881316626
  8.5316697607281373  5.6847116538247500  0.0045255672989593
  9.9478599554095766  7.1148777643617471  1.4254839906040842
  8.5271280107757388  5.6846965183077751  2.8416259939384494
  9.9573408208648484  7.1223341665852757  4.2547847484326429
  8.5326282623704195  5.6847288057294447  5.6794597393760471
  9.9525255552748000  7.1088762666438186  7.1126909719163667
  8.5286031918893563  5.6847288844435688  8.5286032112193855
  9.9450771430654026  7.1000218563359780  9.9451542260307679
  8.5315651686940281  8.5329234891702743  0.0051895163388233
  9.9780245990445007  9.9704803857834516  1.4356698468478764
  8.5352167332315894  8.5404525685957058  2.8371393335969408
  9.9632066501636629  9.9696238772988046  4.2487997777240256
  8.5338945025627044  8.5361093587383827  5.6781774861279741
  9.9501515945525068  9.9535308842304033  7.0919330571391139
  8.5323727140437651  8.5379493487900806  8.5323983459709787
  9.9640045472739764  9.9560711925188201  9.9640415165778524
  2.8351868432763769 -0.0000000277461925  0.0072307088194141
  0.0072307714780547 -0.0000000775033815  2.8351868586617166
