Fe Mo
 1.0000000000000000
    11.3951962476781397    0.0000000000000000    0.0000000000000000
     0.0000000000000000   11.3951962536154543    0.0000000000000000
     0.0000000000000000    0.0000000000000000   11.3951962499627442
 Fe  Mo 
 126   2
Cartesian
 -0.0112472934088922 -0.0076000859899406 -0.0074042534527748
  1.4243995748307352  1.4243995323290444  1.4243995360702462
 -0.0076001213118553 -0.0112473165349099  2.8562033314692497
  1.4630997531816117  1.3855571598339940  4.2970982875510790
  0.0073635949983749 -0.0034566819343680  5.7023419396401076
  1.4242732017455078  1.4242730724127293  7.1219976311017934
 -0.0034565947777032  0.0073635879020958  8.5416533704417397
  1.3855571572721181  1.4630997345494523  9.9468970970310959
 -0.0074042328619523  2.8563991938002546 -0.0112472751356328
  1.4632418839327919  4.2970983369642211  1.3856994289141027
  1.4615294609448908  4.3107574484298672  4.3106091862028117
 -0.0020718548425353  2.8509034117595822  5.7011485236064567
  1.4263966080161321  4.2742430319988234  7.1186826106183538
 -0.0124255407863234  2.8612109420023715  8.5332213585207608
  1.4243995173716963  4.2717065282061002  9.9722888132186451
  0.0074880699496320  5.7023223008381239 -0.0033028554467713
  1.4245258714569782  7.1219976727858327  1.4245259196898643
 -0.0021044594116496  5.7011484947201696  2.8508709610865286
  1.4262824932570872  7.1186401928707328  4.2743451640554868
  0.0033141982208083  5.7021095348566213  5.7021550327380508
  1.4243995440941044  7.1220262697774714  7.1219690938784090
 -0.0043881241036232  5.6910228444697646  8.5414901269182053
  1.4224025208159290  7.1253127625943105  9.9697522618798828
 -0.0033028914372844  8.5416729788345531  0.0074880386361888
  1.3856994040452966  9.9468970697236987  1.4632418684675221
 -0.0124119668785431  8.5332213875731640  2.8612246208473140
  1.4243995458427614  9.9724378876069917  4.2715573604813963
 -0.0043958241631088  8.5415570576266759  5.6910084255544193
  1.4225165013187804  9.9696500750980395  7.1253550357145947
 -0.0130956400520068  8.5329787164182314  8.5330335740484937
  1.3872696011370926  9.9333859722339692  9.9332378990367847
  4.2970983000572289  1.4632419456069945  1.4630996465093071
  2.8563991744064796 -0.0074042413697280  2.8600463538534053
  4.2717065248313659  1.4243995325339083  4.2717064865044856
  2.8612110157976667 -0.0124256017055478  5.7107738154675856
  4.2742429976214193  1.4263965625533848  7.1253127019004596
  2.8509034374711764 -0.0020719680658980  8.5428468270736726
  4.3107574315248334  1.4615294141538304  9.9333860191095287
  2.8562033948836887  2.8600464026027215 -0.0076001191035052
  4.2715574232108162  4.2715574486939971  1.4243995242281429
  2.8600463723337417  2.8562033059458534  2.8563991640906594
  4.2681497762663065  4.2738487062253370  4.2738078326388784
  2.8521019031119832  2.8413109953926567  5.7023222447211603
  4.2713795349690526  4.2713795580475189  7.1219976046198559
  2.8413110133459103  2.8521019121446667  8.5416730219740860
  4.2738487496611475  4.2681497767148091  9.9701874033171993
  2.8612245847316324  5.7107739114617413 -0.0124118890359438
  4.2743452285144432  7.1253551129091672  1.4262824501938292
  2.8522557337335694  5.7023420447773141  2.8414354412235356
  4.2714825148157303  7.1219976752944838  4.2714825037294410
  2.8618946105416638  5.7109617681580369  5.7110164977622100
  4.2790484451746851  7.1292301470790633  7.1292316740525985
  2.8531871968768141  5.7025052229894184  8.5529724910640503
  4.2796350995423031  7.1336479493954750  9.9643091125001764
  2.8508709440776565  8.5428468524651322 -0.0021043647798355
  4.3106092212458194  9.9332378791170619  1.4615294195742798
  2.8414354995610820  8.5416533372282739  2.8522556520948252
  4.2738078625311529  9.9701465700868468  4.2681497286716938
  2.8531948560262861  8.5529868687277677  5.7024382763277242
  4.2796861362599516  9.9643602351777663  7.1336478452770216
  2.8454848999379116  8.5418403725364591  8.5418857545228288
  4.3103465669480459  9.9336487786586236  9.9336487398802120
  5.7011484497546068 -0.0021043934346167 -0.0020719272236435
  7.1219976224164032  1.4245259751766324  1.4242731543381384
  5.7023222665505076  0.0074880791846050  2.8521019039775481
  7.1253127139631900  1.4224025574304584  4.2742429813239298
  5.6910227847963357 -0.0043881768480539  5.7025051513817857
  7.1220263075192625  1.4243995482504015  7.1220261876755560
  5.7021095746351014  0.0033141279901575  8.5418402813706695
  7.1186402306420451  1.4262825283948455  9.9696501488431348
  5.7023420156794229  2.8522556776918044  0.0073635011442144
  7.1253550607224350  4.2743451807098305  1.4225165267101689
  5.7107738562732724  2.8612246440173399  2.8612109422734271
  7.1336479407836118  4.2796350731509918  4.2796862042542232
  5.7025052183246689  2.8531872296619740  5.6910227952467229
  7.1292301813004251  4.2790484132091571  7.1147636097453422
  5.7109617344507244  2.8618946096260109  8.5329787126214516
  7.1219976935648459  4.2714825127259868  9.9725127987533373
  5.6910083673128176  5.7024382705465859 -0.0043959074252263
  7.1219689924761509  7.1219690523579446  1.4243994672813569
  5.7024382553816659  5.6910084134507253  2.8531949034088000
  7.1292316871348502  7.1147651554776239  4.2790484522973653
  5.6931349422944324  5.7004204243777732  5.7004614781342609
  7.1219976475596614  7.1219976519998189  7.1219976594730259
  5.7004204537378920  5.6931349514619933  8.5435338332807156
  7.1147651705286457  7.1292317751684582  9.9649467945866164
  5.7021549276756796  8.5418857781118547  0.0033140688679603
  7.1186824870301670  9.9697522514157644  1.4263965482692151
  5.7110165521667158  8.5330335131259041  2.8618946812834771
  7.1219975676620466  9.9726157535078741  4.2713795365984852
  5.7004614814896204  8.5435749158414627  5.6931349832907872
  7.1147636631195974  9.9649469169201481  7.1292300964246902
  5.7090523530101223  8.5349429595149484  8.5349428990227754
  7.1103473956648982  9.9643090737044808  9.9643602591987719
  8.5332213568321666 -0.0124118674957436 -0.0124255593401351
  9.9468971038053819  1.3856993519355221  1.3855571466415972
  8.5416729391461903 -0.0033028911261813  2.8413109674902128
  9.9333860690749489  1.3872696563309799  4.3107573947084363
  8.5329787278833340 -0.0130956298200546  5.7109616800159451
  9.9696501573328078  1.4225164876898286  7.1186401725199140
  8.5415570308759055 -0.0043957452001614  8.5529869307266964
  9.9724378943223790  1.4243995097218602  9.9724379312639826
  8.5416533236935859  2.8414355343790225 -0.0034566005109290
  9.9332379358539118  4.3106092529499351  1.3872696755159932
  8.5428469194937229  2.8508709413790561  2.8509034431133253
  9.9336487841411607  4.3103465713171341  4.3103465695610028
  8.5418404041185187  2.8454849622062381  5.7021095405650470
  9.9643602807634544  4.2796861823729095  7.1103474721934568
  8.5529868996567142  2.8531948632006854  8.5415570755534862
  9.9701466385376065  4.2738078370938126  9.9758454778151791
  8.5330336228012929  5.7110165137999100 -0.0130955980342534
  9.9697522055618943  7.1186825588119866  1.4224025193543497
  8.5418857118159490  5.7021550107041072  2.8454849343812643
  9.9643091322581707  7.1103473665349028  4.2796351168042284
  8.5349429211854684  5.7090523541586951  5.7090523830366235
  9.9649468265080490  7.1147636306940294  7.1147651836139865
  8.5435748522259622  5.7004615461839911  8.5508604136062569
  9.9726157447554140  7.1219977063148532  9.9726157677253155
  8.5414901151845726  8.5529725885170063 -0.0043881626373431
  9.9722887681540033  9.9722887988880196  1.4243995257212478
  8.5529724377590863  8.5414900927283632  2.8531872551292841
  9.9701873642547483  9.9758454817526356  4.2738487255283815
  8.5435337964591209  8.5508603436492727  5.7004204593471384
  9.9725127935874216  9.9725128872645801  7.1219976523965967
  8.5508603646011139  8.5435338649759522  8.5435748385620780
  9.9758454827371068  9.9701875173606904  9.9701466282862512
  2.8714463004863857 -0.0226472035335695 -0.0226471933075341
 -0.0226471149971738  2.8714461849967567  2.8714462698775152
