Fe Mo
 1.0000000000000000
    11.3745302981031724    0.0000000000000000    0.0000000000000000
     0.0000000000000000   11.3745303002584102    0.0000000000000000
     0.0000000000000000    0.0000000000000000   11.3745302948912972
 Fe  Mo 
 126   1
Cartesian
 -0.0048136183230901  0.0157389389164974  0.0154746606997565
  1.3194185137069532  1.5242139956607370  1.5242139280778226
 -0.0016665921086850 -0.0426870048038942  2.8452771315577499
  1.3727105804123463  1.4709098048185052  4.2129634028464222
  0.0062546188697705  0.0144951033242663  5.6769909920355452
  1.4218753349169646  1.4216379279351907  7.1188054067863780
 -0.0073880261472781  0.0083653689489370  8.5270014407522510
  1.3876708526014658  1.4562695556518062  9.9139217383019940
 -0.0016445868129569  2.8452991770231808 -0.0426870840458906
  1.3727229278162718  4.2129635073795351  1.4709220152298255
  1.3649498304826573  4.2020595066233621  4.2019374463445409
 -0.0016573428063779  2.8453158373157885  5.7295368447155077
  1.4227647037018736  4.2662368083682516  7.1119712935473016
 -0.0120831511508823  2.8557350930020862  8.5199515946842634
  1.4227891623225135  4.2644387480521670  9.9502714465487081
  0.0063216681968807  5.6768255943528709  0.0145093226143595
  1.4219946785423949  7.1188055128528012  1.4217572408544572
 -0.0016833376867850  5.7295368588820645  2.8452898343645399
  1.4225967292063757  7.1119343716420778  4.2663446914369265
  0.0040744549527858  5.6713495021295959  5.6713997363348163
  1.4195921840289245  7.1083828716418722  7.1084652694236397
 -0.0039329104404072  5.6769931953662498  8.5285900888706792
  1.4181205290640235  7.1137615126692992  9.9525837859532391
 -0.0073422228425596  8.5269240303433378  0.0082862778781273
  1.3873629599174939  9.9139217124060224  1.4559617719647573
 -0.0121022972332248  8.5199514817684783  2.8557156299558182
  1.4226188708792060  9.9503001400041651  4.2644977088649654
 -0.0039687012202820  8.5285100002032088  5.6770997891388770
  1.4181602211979725  9.9523996311600271  7.1137784231678607
 -0.0128236517874399  8.5212100559328832  8.5212686594396700
  1.3873695851226959  9.9247984350210210  9.9248212032634591
  4.3042411520453294  1.4559616011695733  1.4562697154343591
  2.8278935126913169  0.0154745506530562  2.8484462593742532
  4.2678913803662351  1.4208435981845360  4.2644387026393478
  2.8251155199148092  0.0184456234400735  5.6715273933344896
  4.2655791330332997  1.4255121405250541  7.1137614078914462
  2.8409270422823525  0.0025914486546100  8.5268543918227504
  4.2933414795115885  1.4562630054174261  9.9247984909786400
  2.8281580084048903  2.8484463069058119  0.0157391138579635
  4.2678625823502818  4.2644977478067734  1.4210136442654158
  2.8863197260832689  2.8452770811668531  2.8452990589872842
  4.2661113091601592  4.2659955027272058  4.2658254044384059
  2.8291232307151777  2.8373107597534313  5.6768257940711324
  4.2637757852819238  4.2643633093044988  7.1094313851751263
  2.8353461401541633  2.8509749103964483  8.5269239540310906
  4.2652836110447989  4.2608499218918716  9.9529267382589168
  2.8251868819527930  5.6715273737272538  0.0185170567102906
  4.2657631708760810  7.1137784972409666  1.4254724891452515
  2.8291374575276520  5.6769910864204176  2.8373780232433798
  4.2637238670399142  7.1095457038718202  4.2643353808337308
  2.8207331851371316  5.6652989628647878  5.6652754985131590
  4.2558236265838083  7.1005628266393970  7.1005653944811380
  2.8385697179871583  5.6821794675953017  8.5372805025954897
  4.2591414793581226  7.1052758782954601  9.9589504849224912
  2.8410411087496583  8.5268545020996669  0.0027054277991725
  4.2933643314752361  9.9248213739602189  1.4562630632677349
  2.8352670896073873  8.5270016188200817  2.8510203894158832
  4.2652361578216240  9.9528792017584724  4.2608499455185962
  2.8384962581888842  8.5372744803382918  5.6822135182997613
  4.2592124718022824  9.9590212904907247  7.1052758572877606
  2.8407894519612160  8.5257536901418050  8.5257990814746289
  4.2925041448187118  9.9256584587358869  9.9256586659075108
  5.6913082831497297  0.0027054250495809  0.0025914500254242
  7.0993574432900992  1.4217572622889976  1.4216379641040306
  5.6912389246054707  0.0082864527540710  2.8509748464528926
  7.1061915600130394  1.4208678158552748  4.2662366846117061
  5.6808824280478314  0.0050628609368653  5.6821796795700861
  7.1096974665528272  1.4240404581884563  7.1083829260987050
  5.6923637423612989  0.0028431222820007  8.5257536160342760
  7.1043843557638322  1.4254722014434953  9.9523995659345719
  5.6911613232230795  2.8510203629862279  0.0083653643003940
  7.1062285718555742  4.2663446211421494  1.4210357726743827
  5.6982112526576367  2.8557156333457372  2.8557349434288035
  7.1129316371899716  4.2709025194911279  4.2709793906962714
  5.6895728717051792  2.8475652362771178  5.6769934201234573
  7.1162079074928917  4.2690917222745348  7.1019209698590728
  5.6968943342714580  2.8564562073937032  8.5212101145352399
  7.1086170445689101  4.2643352888318597  9.9544389192992355
  5.6808882353549528  5.6822133787790152  0.0051364623450174
  7.1097801200238910  7.1084651071827665  1.4240404412406065
  5.6896528441903644  5.6770998239951815  2.8476011804676191
  7.1162418111937020  7.1019549229597549  4.2690918555182238
  5.6828721514525080  5.6818565942101920  5.6817944165995238
  7.1248960085855222  7.0932668994858545  7.0932669626375509
  5.6916501549259833  5.6852306543317921  8.5265053824442347
  7.1176000192508466  7.1005656457170607  9.9623391828201413
  5.6924092332410661  8.5257991096693129  0.0028429578463118
  7.1044011680099430  9.9525838602084864  1.4255121961355879
  5.6969527792366979  8.5212684835970762  2.8564562504663575
  7.1087314351572113  9.9543871765735563  4.2643629307857696
  5.6916575777665139  8.5265128974774118  5.6852306317377748
  7.1175971686705619  9.9623392252450813  7.1005627734069128
  5.7011792079959660  8.5169836965562578  8.5169838585139015
  7.1128868488891479  9.9589503264718431  9.9590213723867613
  8.5466354459140419  0.0185170758506651  0.0184457224953052
 10.0051992942992793  1.4709219690296504  1.4709097357285010
  8.5413370990148216  0.0145095345636279  2.8373109117659698
 10.0162255156490385  1.4786828721320409  4.2020594573153218
  8.5528872782388881  0.0228992979737173  5.6652989227375583
  9.9518183934561666  1.4210357686904285  7.1119344444717880
  8.5359493595353744  0.0051362606469624  8.5372744110949412
  9.9536651450045053  1.4210136472846766  9.9503001462457181
  8.5411720051346656  2.8373780693440165  0.0144949086359359
 10.0161033443435450  4.2019373701963429  1.4786827614752356
  8.4886259849896728  2.8452900944983281  2.8453159434388300
 10.0074582509764127  4.2107044932272482  4.2107047110713074
  8.5467629680576405  2.8395582453192834  5.6713495710529367
  9.9472600847252526  4.2709793584140510  7.1052314166641954
  8.5410633706442596  2.8476011092663538  8.5285098288864560
  9.9521674553962391  4.2658253018206382  9.9520516654632658
  8.5528639150618648  5.6652756298166160  0.0228994327967462
  9.9519260420428264  7.1119712938772501  1.4208678879670305
  8.5468132535421422  5.6713999290813426  2.8395582569167797
  9.9471834858046932  7.1052314336631506  4.2709027849839156
  8.5539562094486659  5.6642067204653026  5.6642063852513020
  9.9490714057258689  7.1019210421611074  7.1019551026352401
  8.5363063528325789  5.6817943712225674  8.5352910307658849
  9.9537996013189822  7.1094314988700846  9.9543871765196528
  8.5359832868396790  8.5372804600227106  0.0050629050958391
  9.9537240169184606  9.9502716034835537  1.4208435217197353
  8.5411695765919049  8.5285902146586547  2.8475653633895455
  9.9523374207183863  9.9520515043483453  4.2659952710595679
  8.5363684446208676  8.5352908472556042  5.6818565872854769
  9.9538275411127213  9.9544390127291500  7.1095455305335253
  8.5329321534959739  8.5265055093507467  8.5265129112674405
  9.9573128257770076  9.9529267339043948  9.9528792624095797
  2.8199221408262836  0.0237105475472883  0.0237103964994065
