Fe Pt
 1.0000000000000000
    11.4423719076788366    0.0000000000000000    0.0000000000000000
     0.0000000000000000   11.4403605048499095    0.0000000000000000
     0.0000000000000000    0.0000000000000000   11.4423719039721199
 Fe  Pt 
 126   2
Cartesian
  0.0066652283659307 -0.0012314822969065 -0.0028202721377652
  1.4005971188845496  1.4918809159412472  1.4604785407462519
 -0.0117697507807895  0.0042575064300636  2.8726249429116621
  1.4286247468931219  1.4322053188855337  4.3035566273289279
 -0.0042111138121910 -0.0093485489715668  5.7286542309673747
  1.4228796745260155  1.4331122727329055  7.1490357077814348
 -0.0169433771692412 -0.0152009117619095  8.5572979667078517
  1.3871980123682521  1.4450923738451289  9.9673718755715495
 -0.0447034971644235  2.8450427147212238 -0.0430984528969159
 -0.0579482372963945  2.8541634735951407  2.9182230278676000
  1.4276874165387889  4.2952583476972892  4.2927146386488442
 -0.0129277948748502  2.8613886408944129  5.7206756690629028
  1.4256202500744211  4.2959002375939557  7.1405831593599576
 -0.0366708469717076  2.8813093413569755  8.5493389989609021
  1.4274761149658859  4.2913666263912402 10.0187405872807478
 -0.0167791380081144  5.7308192255255053 -0.0110883550395734
  1.4297077023440423  7.1691649077009032  1.4313979409925577
 -0.0128087217766518  5.7295961842936478  2.8732613384743688
  1.4269372147780137  7.1510225949463058  4.3056752096459832
  0.0006007106358290  5.7243437196794407  5.7164671487590315
  1.4234431384660626  7.1421303302410868  7.1438992858979784
 -0.0086408491969560  5.7184544168767077  8.5761497769357344
  1.4228883050120458  7.1531778847026546  9.9996086647374085
 -0.0124667184643731  8.5773180195308889 -0.0074081569286090
  1.4162861754588110 10.0093165938812447  1.4446175716881267
 -0.0241709546620470  8.5669916197002021  2.8847189168823979
  1.4295511378044947 10.0104610000589744  4.2924709918247395
 -0.0083777375887106  8.5837747025425823  5.7271058527332670
  1.4278321710971906 10.0064276610652563  7.1520095569294719
 -0.0229122256152685  8.5725930194427615  8.5559541514727453
  1.4192083770149719  9.9996764681164336  9.9952964238494513
  4.3359816912112219  1.4452418935353448  1.4727143382897467
  2.8639534634621708 -0.0006943499592936  2.8536901390879503
  4.3278309421820440  1.4087266281281579  4.3233197369073864
  2.8651355340416411 -0.0055951067009920  5.7321889669923571
  4.3035383807398970  1.4290111164835622  7.1518953850406941
  2.8630271315532139 -0.0051445297125443  8.5798751639048536
  4.3485196548310761  1.4359718620007493  9.9541270000323134
  2.8907749965579672  2.7982543402160474 -0.0296993404272762
  4.2839866163412434  4.2908294963372882  1.4336568105895675
  2.9030108389285689  2.8448932340336910  2.9056853402106242
  4.3078539439500716  4.3052635951589515  4.3151579557958257
  2.8675698859539467  2.8568591762069069  5.7236919217059796
  4.2949884065952268  4.2993433715648193  7.1438658876388690
  2.8624507507660772  2.8581456105644132  8.5690268101984390
  4.3029213931993358  4.2858777206415484 10.0003056883348229
  2.8749141546149990  5.7211790947512906 -0.0140102356940870
  4.3037187482292101  7.1532923657800529  1.4376466862570125
  2.8717761915877449  5.7305498129504411  2.8772901997509654
  4.3138585813094235  7.1579482560715819  4.3168390408325834
  2.8633136602656601  5.7237758909677341  5.7205895209755910
  4.2992885044791498  7.1466919736877674  7.1455074778322789
  2.8613295756158261  5.7203499354671035  8.5800842388884142
  4.3150154913411063  7.1635040447936049  9.9879044996650173
  2.8616945652333108  8.5613308843270683 -0.0005889247769802
  4.3075865373468973  9.9999458504056644  1.4414796478080660
  2.8679431042571806  8.5772032478313651  2.8734224934049135
  4.2993639597377999 10.0119086581166439  4.2966673588353412
  2.8674645133909444  8.5884075940754769  5.7286590019263031
  4.2903915674406639 10.0063456391304690  7.1561937318123654
  2.8639896471806683  8.5793275723709286  8.5670124923384883
  4.3035577000061007 10.0008994622952674  9.9992666755353081
  5.7230112730736007 -0.0051232408005312 -0.0026090252198341
  7.1539884037078041  1.4332759346116601  1.4372734750556404
  5.7454542963825626 -0.0151283891615656  2.8775576296047620
  7.1628922464883145  1.4274968978302891  4.3075373701650213
  5.7324219374330667 -0.0130082608099271  5.7328930568814593
  7.1620216398801899  1.4344587965248048  7.1410102228766759
  5.7410024213331310 -0.0124607990737189  8.5619804462250073
  7.1509721083619224  1.4287466671042046  9.9991476210571122
  5.7338530544032693  2.8579300631857385 -0.0016718645518237
  7.1624855505426988  4.2957301683948517  1.4348391928453244
  5.7536163448824711  2.8814085999934487  2.8975344793554210
  7.1631895884595549  4.3031432434679102  4.3021254588783542
  5.7378338940854077  2.8626382457104098  5.7325957025584691
  7.1626250662106239  4.3033072504696204  7.1403341456382865
  5.7567083390577327  2.8793594857805851  8.5462261652313583
  7.1589506122118207  4.2994837173257636 10.0078643102192419
  5.7227675830112394  5.7200346317306607 -0.0007453136840810
  7.1589555037333783  7.1420879604436474  1.4371681154116767
  5.7269639598268940  5.7185869543637446  2.8690674227292789
  7.1570129951232619  7.1481512536461960  4.2991468196601890
  5.7293296622342824  5.7284751755064711  5.7319549146799709
  7.1575118024668392  7.1455602799623854  7.1453958761690890
  5.7355943552304254  5.7241378387507460  8.5673745478711503
  7.1574022825915744  7.1467209990743292 10.0036977262176006
  5.7359717125049690  8.5794730437398581 -0.0033592946468586
  7.1508860293080225 10.0067197834230992  1.4330171714475148
  5.7471355350766613  8.5725473707611268  2.8835621389576405
  7.1622512232730706 10.0020205084866429  4.2990332341994950
  5.7294434151536153  8.5823444017671893  5.7267165020710058
  7.1595532306315368  9.9968665719681660  7.1432731424559597
  5.7438186954172332  8.5697705075312172  8.5591422854523600
  7.1467635810687709 10.0061519886562174 10.0126761363833090
  8.5708797485778572 -0.0057651416238121 -0.0046762718005459
  9.9993232356449404  1.4319896423397938  1.4321543161441006
  8.5741624812624977 -0.0092080953927052  2.8646919604009344
  9.9765227424675746  1.4107757468720978  4.3264117674294935
  8.5706306736344740 -0.0131720175283258  5.7323286995662119
  9.9954598550421103  1.4275350565571068  7.1400284138946821
  8.5700268227372121 -0.0131038555037229  8.5705014706296456
  9.9796355537440373  1.4088258708494856  9.9754045650268051
  8.5793322042728057  2.8570228185179585 -0.0074167977947931
 10.0101716091659636  4.2952797592262444  1.4327306214285527
  8.5821918046139292  2.8611241746620149  2.8732418247757074
  9.9922768055078883  4.3025959787488199  4.3107059175781730
  8.5713066100959008  2.8556764113833242  5.7317251771183102
 10.0007981395118257  4.3032390701484164  7.1397302475422668
  8.5703249441956029  2.8626001875428839  8.5651635065938869
  9.9875944057197383  4.3053362077735056  9.9951321235272594
  8.5823061358979036  5.7240681325633824 -0.0024644073118217
  9.9973089814902387  7.1511682331401900  1.4336931659633465
  8.5864901503854938  5.7241500951632771  2.8600951558786707
  9.9894389220925799  7.1607253125539918  4.3135221091252784
  8.5735695793587592  5.7336291313183256  5.7292567148733777
 10.0038108757266464  7.1481646093565887  7.1459134044535473
  8.5710231305208318  5.7285812538994803  8.5735202250445308
  9.9862506062429794  7.1579027386598950  9.9891631692305278
  8.5741956911607851  8.5883653068920669 -0.0068534886317345
 10.0103807090534040 10.0101457333266026  1.4310330830438514
  8.5758040876351451  8.5838036499583446  2.8689919663565586
  9.9976710641810627 10.0063578153683590  4.3052979010375072
  8.5756924415685400  8.5849352680098434  5.7272153833156088
 10.0038166541248259 10.0019144002241038  7.1407266994647420
  8.5762099692629779  8.5823310871066081  8.5735144277162920
 10.0064462327673507 10.0120412194703157 10.0034345976143140
  2.8646515670082833  0.0413343722186988 -0.0041852835663198
  1.4261111913118745  4.2488007059320205  1.4343551264496721
