Fe Tc
 1.0000000000000000
    11.4085040182130513    0.0000000000000000    0.0000000000000000
     0.0000000000000000   11.4085040119486880    0.0000000000000000
     0.0000000000000000    0.0000000000000000   11.4085040123668744
 Fe  Tc 
 126   2
Cartesian
  0.0636875786298298  0.0085839664544968  0.0084102634762656
  1.4260629944033070  1.4260630318988130  1.4260629471232016
  0.0085837580600893  0.0636877163018080  2.8437156629204607
  1.4606220810061099  1.3914102627843912  4.2800531488978768
  0.0057473171683960  0.0180530335792150  5.6902905469169767
  1.4259558286574239  1.4259559538635624  7.1303150406093412
  0.0180529377514082  0.0057472787972720  8.5703395413786154
  1.3914102521377971  1.4606219213634626  9.9805765324037878
  0.0084103331285877  2.8435422699107074  0.0636876411856223
  1.4607158875737498  4.2800535297511564  1.3915038119245684
  1.4540826481584046  4.3118875978257218  4.3119074902011301
  0.0031953435842432  2.8489516981084435  5.6391024105539591
  1.4173811527034124  4.2712378358800782  7.1265998175463334
 -0.0009937823399418  2.8530412153126172  8.5548555079622268
  1.4260630266478698  4.2734612393866023  9.9871687385755870
  0.0057091944163213  5.6904133992565198  0.0179614618609239
  1.4261701815504353  7.1303149716878043  1.4261700862095781
  0.0031741789392415  5.6391022247595499  2.8489304286610921
  1.4171540874889768  7.1264132586973954  4.2714950832953686
  0.0057418790639981  5.6856968347861399  5.6858453415598422
  1.4260630438691675  7.1302669948714819  7.1303631600088044
 -0.0003387177418516  5.6991325114018476  8.5564832782811475
  1.4347447863476215  7.1340301803736850  9.9893920564142267
  0.0179614138344164  8.5702167129570590  0.0057092586358982
  1.3915038282067627  9.9805766685321142  1.4607156094034583
 -0.0009152967374522  8.5548554452844670  2.8531195385930328
  1.4260628812492615  9.9869738105170747  4.2736563101737621
 -0.0003952857542715  8.5563457350607113  5.6993332022912364
  1.4349718821378157  9.9891346018701537  7.1342167535526588
 -0.0054367477804711  8.5506104652325945  8.5506931069520906
  1.3980434642089283  9.9487226457994904  9.9487422764250297
  4.2800534287315530  1.4607157597501885  1.4606222950282883
  2.8435421252598525  0.0084102869569126  2.7884384712778436
  4.2734612147222384  1.4260630846327631  4.2734612356490800
  2.8530413573000937 -0.0009934848099651  5.7057743027181678
  4.2712380153128082  1.4173812389382294  7.1340304193703492
  2.8489518548709873  0.0031955374485788  8.6215277097249210
  4.3118879007083857  1.4540826323246652  9.9487224291197620
  2.8437157807648439  2.7884385532329823  0.0085837900615489
  4.2736562198145034  4.2736565373263895  1.4260628389119085
  2.7884384607880723  2.8437157013870342  2.8435421380658563
  4.2750687141902066  4.2726898201313066  4.2724407586638335
  2.8341648838407396  2.8464168053870536  5.6904131838242291
  4.2782697311693054  4.2782695361804350  7.1303151448626565
  2.8464168184517975  2.8341646400906941  8.5702165454763577
  4.2726899017331972  4.2750689528991046  9.9881893797796355
  2.8531194250024789  5.7057745113998157 -0.0009153409360105
  4.2714952575013356  7.1342168074352683  1.4171540889934156
  2.8340729685998114  5.6902903894714951  2.8463787638449460
  4.2781576568356101  7.1303149664175418  4.2781575595774299
  2.8575627166902517  5.7099366918844110  5.7100196680351916
  4.2818743139438729  7.1322165934945838  7.1323054008758726
  2.8524646802979658  5.7041465067669215  8.5614976346720777
  4.2685424677871318  7.1353650350131179  9.9920105494080254
  2.8489305862058867  8.6215277280231302  0.0031742633517935
  4.3119075548828754  9.9487421526801540  1.4540827464166153
  2.8463785984974490  8.5703396473746558  2.8340730070498115
  4.2724407276527705  9.9879402328570155  4.2750688817555771
  2.8525213070951336  8.5612968652172476  5.7042842880300286
  4.2686196547497577  9.9920875794384507  7.1353650690289765
  2.8463838154090686  8.5747847430718682  8.5749332104391520
  4.3003384474593700  9.9602916980529983  9.9602915895798443
  5.6391023687183814  0.0031743318758956  0.0031953907941234
  7.1303151371042670  1.4261700307198208  1.4259559098601597
  5.6904132635555653  0.0057093653729381  2.8341647112137580
  7.1340301340373857  1.4347448250466814  4.2712380358633899
  5.6991325985501113 -0.0003388148355022  5.7041467803731640
  7.1302669828534464  1.4260629109416691  7.1302671553532155
  5.6856968739599427  0.0057421843438045  8.5747848482684699
  7.1264132792316373  1.4171540650780126  9.9891347349095980
  5.6902904028798726  2.8340730893462807  0.0057470920396561
  7.1342167981102813  4.2714953584862538  1.4349717724424724
  5.7057745485299458  2.8531195454741378  2.8530412971524122
  7.1353649864039808  4.2685424657682676  4.2686196348634846
  5.7041466310193503  2.8524647405034216  5.6991325736038831
  7.1322166585164135  4.2818741672556007  7.1283245713135246
  5.7099367121948106  2.8575626793348414  8.5506103762574881
  7.1303148170592001  4.2781575152812081  9.9824723040361416
  5.6993331701498740  5.7042843634761544 -0.0003952050775414
  7.1303631339525850  7.1303628734268472  1.4260629253888621
  5.7042843537733372  5.6993331038759818  2.8525213537591600
  7.1323055092363834  7.1284136501287740  4.2818743193691580
  5.6961966549533951  5.7017137892281520  5.7016257357884070
  7.1303150223426108  7.1303152074148590  7.1303150393720092
  5.7017138257887581  5.6961964977675832  8.5590044118259936
  7.1284135137345750  7.1323056111635568  9.9787557485481155
  5.6858453059613474  8.5749332025170961  0.0057418810654843
  7.1265997287292144  9.9893921275987907  1.4173813504829622
  5.7100194694854292  8.5506933503968270  2.8575629893178189
  7.1303150337009535  9.9823604792282552  4.2782695200727181
  5.7016257263712813  8.5589162627808548  5.6961965799734982
  7.1283243961340812  9.9787558035471520  7.1322164242721060
  5.7036783537845670  8.5569518295499840  8.5569518791388557
  7.1252649203411913  9.9920104019885994  9.9920875181882085
  8.5548557529566640 -0.0009151950573379 -0.0009935758940452
  9.9805765922097525  1.3915036595560746  1.3914101303933863
  8.5702167993469320  0.0179613068004043  2.8464165790128426
  9.9487228275723645  1.3980434734388762  4.3118875211009557
  8.5506105815278630 -0.0054370282251458  5.7099366035033645
  9.9891348805067519  1.4349719513172801  7.1264135411619289
  8.5563457970142753 -0.0003952284696345  8.5612969051267456
  9.9869737694832406  1.4260629058626344  9.9869738023756511
  8.5703396562112868  2.8463787844323516  0.0180529224806998
  9.9487422579979370  4.3119076363422444  1.3980431411112257
  8.6215276182157954  2.8489304907463664  2.8489519219231436
  9.9602917463174840  4.3003382917039268  4.3003381844483197
  8.5747848868695566  2.8463840992483966  5.6856970345484505
  9.9920874268540203  4.2686197361212592  7.1252649509938273
  8.5612968263808984  2.8525210977175131  8.5563454869162783
  9.9879402674631343  4.2724405922544504  9.9855611397017299
  8.5506934358433302  5.7100194616566160 -0.0054364965018056
  9.9893919792164958  7.1265998268398105  1.4347447123858093
  8.5749330821036676  5.6858451427792369  2.8463837942631316
  9.9920104455882637  7.1252650963993034  4.2685424037923436
  8.5569519762033721  5.7036783219032126  5.7036783070051307
  9.9787558329498829  7.1283243418669757  7.1284134812027462
  8.5589164049796231  5.7016256463042971  8.5644334010506000
  9.9823603391708566  7.1303149571594489  9.9823604366481504
  8.5564832762380867  8.5614973748689529 -0.0003388905092079
  9.9871686270617879  9.9871688955663185  1.4260628934645414
  8.5614975834670570  8.5564833918659318  2.8524647747948442
  9.9881893181323971  9.9855612217396690  4.2726898239618123
  8.5590043128141993  8.5644333620364463  5.7017138661357061
  9.9824724159419382  9.9824724702558960  7.1303150110735780
  8.5644334350791382  8.5590043750346609  8.5589162729119934
  9.9855611689984460  9.9881893340103147  9.9879402667842214
  2.8612740540158565 -0.0091481009008795 -0.0091481089162823
 -0.0091482163216498  2.8612738907661246  2.8612747105916867
