Fe Pd
 1.0000000000000000
    11.3938877467970432    0.0000000000000000    0.0000000000000000
     0.0000000000000000   11.3938877532502474    0.0000000000000000
     0.0000000000000000    0.0000000000000000   11.3938877494910091
 Fe  Pd 
 126   1
Cartesian
  0.0246199232549623  0.0154658253117864  0.0154422286422528
  1.3369918678585455  1.5114800312536627  1.5114799005515944
 -0.0020856187573669 -0.0378832543619722  2.8504877315964272
  1.3736891712565460  1.4748770645395712  4.2191249719364166
 -0.0005455005258794  0.0118896970663009  5.6875605333948149
  1.4209961606128212  1.4270825540993304  7.1302902583463617
 -0.0082612326161545  0.0094113710924530  8.5415653470282642
  1.3930863503341959  1.4553631600685257  9.9339361140670785
 -0.0020158280400480  2.8505575997288735 -0.0378832075990604
  1.3735948560164313  4.2191250160716560  1.4747828625984241
  1.3679057181593099  4.2237635853067141  4.2237797558496819
 -0.0035732110048567  2.8521084743510814  5.7360690269656267
  1.4212187732130337  4.2844219461746107  7.1117605080476762
 -0.0240885605365100  2.8726100489964401  8.5232090946298111
  1.4207864898304892  4.2683682346432024  9.9645685119251581
 -0.0004455599046274  5.6875808045167107  0.0119313406815920
  1.4213893693659270  7.1302901929230611  1.4274757544928340
 -0.0036365284908096  5.7360689538178002  2.8520450829267405
  1.4211038408355046  7.1117573283886975  4.2844563096571893
  0.0048825791860948  5.6823381741124699  5.6823608665997627
  1.4179572716214954  7.1085361558025184  7.1085289946754573
 -0.0048089519919327  5.6870636653422704  8.5415239223910859
  1.4194626066037475  7.1242920250279749  9.9692585427828107
 -0.0081865925650111  8.5414671050415762  0.0093887751419773
  1.3931086262886161  9.9339359150120039  1.4553857630252378
 -0.0241380987723079  8.5232091984335749  2.8725605249075339
  1.4206393967850417  9.9647829842927216  4.2682520955045451
 -0.0048365005013490  8.5415343079586741  5.6870766263497305
  1.4195950103165884  9.9690027128193606  7.1243183672111376
 -0.0200892558184569  8.5258069090034514  8.5258282397906484
  1.3989284890172398  9.9439217315845845  9.9440277638820493
  4.3084236347946376  1.4553855734296204  1.4553632662451621
  2.8330062103647822  0.0154422664676735  2.8238520766116877
  4.2777911962916146  1.4276854544383066  4.2683682153186009
  2.8292614681218584  0.0191071127332031  5.6758484440520709
  4.2731010333927300  1.4290092746970353  7.1242919443896966
  2.8447420642233765  0.0036769375378115  8.5650875460343130
  4.2983320441932769  1.4495433883093631  9.9439218381943633
  2.8330297003955671  2.8238519999782614  0.0154657742688721
  4.2775767847537791  4.2682521990659295  1.4278325122742079
  2.8863551919930091  2.8504876837897215  2.8505576464299103
  4.2774063601859593  4.2841866932553021  4.2840028965007244
  2.8365405528212810  2.8489175413605441  5.6875807973624033
  4.2763573388948890  4.2836337787430976  7.1117228566482353
  2.8390831910890442  2.8566585938418685  8.5414670147087044
  4.2766655327784235  4.2707724860357992  9.9657903087371391
  2.8293648332584644  5.6758484224178254  0.0192105634017688
  4.2733570068906070  7.1243184193904989  1.4288768639760570
  2.8365822319255125  5.6875606054154684  2.8490173332725002
  4.2763594382888410  7.1118527637240359  4.2837104508135226
  2.8288218171413062  5.6771833279207202  5.6771641676639071
  4.2653467860215306  7.1032570309977583  7.1033224636935950
  2.8418304106487762  5.6916156068908084  8.5456767797275539
  4.2678572903106939  7.1150521691053052  9.9743082777474061
  2.8447950145504550  8.5650875743743384  0.0037298925752346
  4.2984380291332247  9.9440276702639601  1.4495433887055293
  2.8390605180548354  8.5415653764333843  2.8567331920038588
  4.2765693352086220  9.9656941122644511  4.2707725159265166
  2.8418121867102428  8.5457227973052916  5.6916664180802501
  4.2680514121243540  9.9745024615665034  7.1150520834119790
  2.8426360340614489  8.5387976831848160  8.5387950413377336
  4.2853156029387183  9.9570441330085213  9.9570441691742015
  5.6772721379131639  0.0037298607265405  0.0036769060056731
  7.1120694636480639  1.4274758122037374  1.4270825415882933
  5.7008925486866495  0.0093888364866525  2.8566584567819957
  7.1305991186016913  1.4272531915175377  4.2844219427506731
  5.6966828754524226  0.0066414361357485  5.6916156181005944
  7.1338308000952475  1.4305147880075857  7.1085360721527220
  5.7035646450734294  0.0058358105301669  8.5387977324634843
  7.1180413583111637  1.4288768565817926  9.9690027273579300
  5.7007943567151562  2.8567332215156540  0.0094113533764479
  7.1306024890194646  4.2844562486690467  1.4273681520866999
  5.7191505417653143  2.8725604577606729  2.8726100337609561
  7.1295385659256105  4.2844489878407348  4.2845668159810222
  5.7008358434356623  2.8532809225577234  5.6870635777378951
  7.1320256992946840  4.2803490644441169  7.1103519955063472
  5.7165314876205358  2.8685612508537908  8.5258069601941422
  7.1305068084987591  4.2837104645802144  9.9660003514220907
  5.6966369355393685  5.6916664451914789  0.0066597548513774
  7.1338235919068005  7.1085289197520014  1.4305147114467849
  5.7008253458499674  5.6870765729615922  2.8533084425806368
  7.1320077010530252  7.1103339937316665  4.2803490405799876
  5.6902901347910211  5.6916344610555791  5.6916297582745266
  7.1397036781476295  7.1026560964198220  7.1026560194991761
  5.7025111856848678  5.6980014549920375  8.5398274999125068
  7.1391027470703650  7.1033224267663826  9.9770129395173459
  5.7035619545932255  8.5387950709393508  0.0058358142924234
  7.1180677168266175  9.9692586500303388  1.4290092757643924
  5.7165526988565594  8.5258282622375692  2.8685612160012979
  7.1306368385340679  9.9660022638451782  4.2836337844548700
  5.7025322215144705  8.5398485584790667  5.6980014885572743
  7.1390371823249907  9.9770128799889193  7.1032568724942511
  5.7165540464373947  8.5258056867116085  8.5258056319431077
  7.1273075192648241  9.9743083638162648  9.9745024224476193
  8.5665112157795278  0.0192105672384139  0.0191071531833880
 10.0232347150579244  1.4747827991415174  1.4748770573177283
  8.5547788899179604  0.0119313744794356  2.8489175087557994
 10.0185798790371479  1.4805662103868140  4.2237635440911685
  8.5651955404049254  0.0196501513211126  5.6771832693182320
  9.9579033982738459  1.4273681214161400  7.1117572298483740
  8.5506933139196697  0.0066598412507115  8.5457228416775681
  9.9741074656521569  1.4278324841672732  9.9647829229512368
  8.5547990862657937  2.8490174041276943  0.0118897379249744
 10.0185960968953047  4.2237797349249098  1.4805662738812408
  8.5062907289528606  2.8520452046550080  2.8521083865824228
 10.0215773834768971  4.2207822822607799  4.2207822286115002
  8.5599988300800582  2.8435893477145400  5.6823382022971893
  9.9579106537722950  4.2845669501670152  7.1128210668356111
  8.5552830945040927  2.8533084609385737  8.5415342178527016
  9.9581730535965054  4.2840029035297400  9.9649533536124739
  8.5651764053071009  5.6771642482792775  0.0196500157845050
  9.9579378500690119  7.1117605970370281  1.4272531130401043
  8.5600215148712984  5.6823608126266070  2.8435893774353782
  9.9577928618044229  7.1128210241369274  4.2844489646815802
  8.5665386067143583  5.6758210999630228  5.6758211359035000
  9.9620105962716856  7.1103519564421127  7.1103340400274178
  8.5507252817588775  5.6916297555948674  8.5520695264327706
  9.9587259152588974  7.1117228382174664  9.9660023089197409
  8.5507441060027904  8.5456767442147221  0.0066415022833156
  9.9739915545955018  9.9645685007244271  1.4276854794937981
  8.5552960875024375  8.5415239121541013  2.8532809378467223
  9.9583568131578861  9.9649533286109975  4.2841866555626966
  8.5507299154940988  8.5520695756455378  5.6916344837867134
  9.9586492138719613  9.9660003086473203  7.1118527861209762
  8.5443581956514443  8.5398274762154571  8.5398485360877618
  9.9715872997301975  9.9657903699499908  9.9656941256570626
  2.8222335187230390  0.0262386392599487  0.0262384056769619
