Fe Tc
 1.0000000000000000
    11.4163884778996838    0.0000000000000000    0.0000000000000000
     0.0000000000000000   11.3620886708597784    0.0000000000000000
     0.0000000000000000    0.0000000000000000   11.4163884904802266
 Fe  Tc 
 126   2
Cartesian
  0.0866719801915262  0.0326131923204840  0.0003282655934859
  1.3154300977240778  1.4202611759463624  1.5386670172924566
 -0.0161910545624489 -0.0027907689043374  2.8705292420771551
  1.4269694239902084  1.4203175730553506  4.2650697459570903
 -0.0001687927422912 -0.0017166276535913  5.7082361885080877
  1.4269693293078081  1.4202045179874212  7.1513186936683644
 -0.0164320659931236 -0.0027907845032429  8.5461004653854573
  1.3154300608104530  1.4202611252820259  9.8777213684926561
  0.0866721595540170  2.8079089422988535 -0.0003284282086004
  1.4045708643376873  4.2375677445388202  1.4497448691619144
 -0.0164319438456222  2.8433128829841872  2.8702881225167962
  1.4367830199675340  4.2541516014297454  4.2777750587241599
 -0.0001687798601554  2.8422387964140423  5.7081522257710047
  1.4366463800369307  4.2541366009620303  7.1388626914445314
 -0.0161911327643102  2.8433127814506354  8.5458592136397264
  1.4043521343856100  4.2375678570682833  9.9668621097185710
  0.0326437337961650  5.6564797829740714 -0.0001467453851965
  1.4465060753768006  7.1013054263563733  1.4075910271987095
  0.0041508380920324  5.6847971122767653  2.8500363445661687
  1.4313833850960767  7.1013716028643881  4.2742486629273380
  0.0169281289116289  5.6888947335336244  5.7082022462472866
  1.4313833438155636  7.1012393007580972  7.1421398406230114
  0.0040609103066951  5.6847970967657675  8.5664422658102275
  1.4465060904119524  7.1013055451741485 10.0087973523757192
  0.0326437560271848  8.5461310998158417  0.0001465032382186
  1.4043521577227889  9.9650428346692674  1.4495263126398106
  0.0040608021418397  8.5178137458631920  2.8499462353220477
  1.4366465365248515  9.9484742184322439  4.2775258334872550
  0.0169281504449836  8.5137162019058454  5.7081861584757236
  1.4367829967757104  9.9484592029399472  7.1386133948862414
  0.0041508978474569  8.5178137688241033  8.5663521852930860
  1.4045708327675623  9.9650430200916347  9.9666435559465043
  4.3927639599124459  1.4202610505150888  1.5386668217393191
  2.8544254850916784  0.0326132632096121  2.7674251749637735
  4.2812249233066755  1.4202046924550591  4.2650698481858855
  2.8540971459295057  0.0169638876180906  5.7081943234555155
  4.2812248444108949  1.4203175160108354  7.1513186212653554
  2.8537687338054720  0.0326133125490815  8.6489633235805776
  4.3927640266386083  1.4202610569670631  9.8777214828261357
  4.3038420061228582  4.2375679285259622  1.4495262805087505
  2.8537686327942944  2.8079089638837895  2.7674251546532043
  4.2715477431310926  4.2541368071839063  4.2775256259577583
  2.8540971241421866  2.8235582081541688  5.7081943731174229
  4.2714111910996539  4.2541516521365201  7.1386133752931675
  2.8544255338115896  2.8079089429510913  8.6489633888738648
  4.3036232657252507  4.2375677911982246  9.9666437159887806
  2.8540971008485863  5.5816439141543857 -0.0000000928602619
  4.2616881029863167  7.1013054828742925  1.4075909294085647
  2.8539504956068207  5.6564798758038810  2.8214533920072968
  4.2768107247450127  7.1012392132410573  4.2742485046091252
  2.8540972376225713  5.6838719374050442  5.7081941548828086
  4.2768108689195428  7.1013715630614680  7.1421398336046540
  2.8542437250585113  5.6564797520634569  8.5949351091294588
  4.2616881241780504  7.1013055290345459 10.0087975074263635
  2.8540970169714286  8.6209668950030824 -0.0000000162614051
  4.3036233241258453  9.9650430156906555  1.4497448310987837
  2.8542437182132181  8.5461310427251735  2.8214534036746990
  4.2714111386504969  9.9484592025886549  4.2777751733295633
  2.8540972966754059  8.5187389486075471  5.7081941998090819
  4.2715476608843019  9.9484740873102346  7.1388628002121761
  2.8539505042625382  8.5461310129108909  8.5949351495569459
  4.3038419950030837  9.9650428512644407  9.9668620886425945
  5.6215221250941534  0.0326132748895127 -0.0003282156200695
  7.1191669927519259  1.4203175068376395  1.4271277224187637
  5.7246261597169958 -0.0027906705392143  2.8702880014441288
  7.1483533317003296  1.4202611055775940  4.2942560189019936
  5.7083630818406466 -0.0017165226971818  5.7081522124063575
  7.1483534278892362  1.4202611284136086  7.1221321784807001
  5.7243851956789324 -0.0027906008013516  8.5458593985583011
  7.1191668931761454  1.4202045938016368  9.9892607455367095
  5.6215221182575990  2.8079089384629441  0.0003282420300207
  7.1318721841506818  4.2541516805255926  1.4173139335333704
  5.7243852937989361  2.8433128805293904  2.8705291424182326
  7.1440097084584382  4.2857180614428438  4.2898771548274528
  5.7083630728007524  2.8422387473940693  5.7082362122291244
  7.1439743349456792  4.2857180720063033  7.1264758162630111
  5.7246263243379998  2.8433130214877647  8.5461004173319530
  7.1316228968217485  4.2541365686286401  9.9989379308489994
  5.6755505710381629  5.6564797451930602  0.0001466181204005
  7.1283457508053845  7.1013715576932013  1.4227136401578055
  5.7041333590553469  5.6847970627072408  2.8499461381420987
  7.1267074014131904  7.1013054581740347  4.2726101856700938
  5.6912660311803744  5.6888946993186007  5.7081860710310499
  7.1267072696386844  7.1013053830532415  7.1437782772246692
  5.7040432906035541  5.6847971642193311  8.5663520528310126
  7.1283455940247515  7.1012392825381117  9.9936749198237234
  5.6755504381457742  8.5461310449238130 -0.0001467045531968
  7.1316228496193963  9.9484743225966472  1.4174505852734145
  5.7040433155752224  8.5178138692821737  2.8500362564076611
  7.1439742730347771  9.9168927209034923  4.2899127342945542
  5.6912660039674172  8.5137162565669833  5.7082022740091922
  7.1440098945824770  9.9168926992471604  7.1265111685588005
  5.7041334485038435  8.5178136883167568  8.5664423158615346
  7.1318722696685697  9.9484592736204789  9.9990745517386568
  8.5622913315737073  0.0169639637685438 -0.0000000741612438
 10.0054158079186486  1.4202045433431889  1.4271277371816415
  8.5623333564980388 -0.0017164744606565  2.8542659314932939
  9.9762292065815785  1.4202610652051710  4.2942562059484608
  8.5622913147548161 -0.0125243346829335  5.7081941937940321
  9.9762292902991021  1.4202610122301971  7.1221321632889181
  8.5622494606105235 -0.0017164106832951  8.5621225292429965
 10.0054157494778284  1.4203174703931818  9.9892607159946589
  8.5622913457345220  2.8235582534096788  0.0000000604141139
  9.9929598638147645  4.2541365808009157  1.4174505468859677
  8.5622493647265774  2.8422387303157524  2.8542659315870713
  9.9806084402544215  4.2857181512196636  4.2899126913858900
  8.5622912713777968  2.8530464399915147  5.7081941920898753
  9.9805728861584768  4.2857180869684539  7.1265112883350747
  8.5623332002220955  2.8422387920123531  8.5621226480110000
  9.9927104600309509  4.2541515875515366  9.9990744214712048
  8.5622914510443326  5.6838718937207604 -0.0000000614791504
  9.9962368837223003  7.1012392448606869  1.4227136465824448
  8.5622994956408522  5.6888946387047801  2.8371688653016327
  9.9978753707677974  7.1013053621641591  4.2726101615493315
  8.5622914991694081  5.7044321905107891  5.7081942852097978
  9.9978753122621011  7.1013055058936780  7.1437783080844275
  8.5622832560398763  5.6888946392648476  8.5792195656146717
  9.9962369739555790  7.1013714812493482  9.9936747806621842
  8.5622914406382993  8.5187389867748244 -0.0000000999522483
  9.9927105213761358  9.9484593059723299  1.4173139203075265
  8.5622832182545050  8.5137161448693401  2.8371689614520124
  9.9805727649973193  9.9168927223673933  4.2898773325688424
  8.5622913620876222  8.4981788107306606  5.7081941965075274
  9.9806083977548212  9.9168928308677451  7.1264757096707001
  8.5622994363112781  8.5137161428645012  8.5792195739513843
  9.9929597925592208  9.9484742758388194  9.9989377922278120
  2.8540972804747131  0.0886314668895150  0.0000000958094864
  2.8540971586938224  2.7518906194629449 -0.0000000440300414
