Fe Rh
 1.0000000000000000
    11.4014320481993554    0.0000000000000000    0.0000000000000000
     0.0000000000000000   11.4014320402330362    0.0000000000000000
     0.0000000000000000    0.0000000000000000   11.4014320460467840
 Fe  Rh 
 127   1
Cartesian
  0.0288569347618925  0.0000000126762535 -0.0000000366720758
  1.4012337527074701  1.4491242483198374  1.4491243203550066
 -0.0043623979905167  0.0000000039975796  2.8547204103707391
  1.4240416253545918  1.4265058049282946  4.2711235562759722
  0.0052057863936207 -0.0000000024195802  5.7007159921984591
  1.4238521762419134  1.4263163853228296  7.1303084213406711
 -0.0043624614768925 -0.0000000012130672  8.5467116174975466
  1.4012337328973128  1.4491242773187485  9.9523077588228777
 -0.0043624110497073  2.8547204044325900  0.0000000405840434
  1.4238521615680577  4.2711236362519447  1.4263163823753804
 -0.0182450186432451  2.8686031085625197  2.8686030401410987
  1.4209584975712009  4.2830427009829890  4.2830801608632623
 -0.0027415771045346  2.8530995470109244  5.7007160134213111
  1.4209584419240189  4.2830801009469006  7.1183894018923519
 -0.0182450430275680  2.8686030756345260  8.5328290045138253
  1.4240416050748634  4.2711235668854339  9.9749262147019628
  0.0052058409085357  5.7007160573374689 -0.0000000699908994
  1.4240416454424563  7.1303084436351494  1.4265057908414247
 -0.0027415080924889  5.7007160894371829  2.8530995388861142
  1.4209584872969243  7.1183519129060624  4.2830426782120128
  0.0027499174411446  5.7007160291040107  5.7007160256847147
  1.4209584625183440  7.1183893333751751  7.1183518761887106
 -0.0027415473533133  5.7007160040743443  8.5483324916789432
  1.4238522066320849  7.1303084289962682  9.9751156932986458
 -0.0043624405224145  8.5467116510264596 -0.0000000602531089
  1.4012337363921274  9.9523077382148291  1.4491242424452830
 -0.0182450067916827  8.5328289817981755  2.8686029946377065
  1.4238521961058781  9.9751156350238350  4.2711236115832394
 -0.0027415227822043  8.5483324470757545  5.7007160895275728
  1.4240416672459986  9.9749262171792399  7.1303083830575194
 -0.0182450342188358  8.5328289654502552  8.5328290341913124
  1.4012338355552694  9.9523077604223076  9.9523077773862063
  4.2994822932528312  1.4491241885776196  1.4491242349659474
  2.8503580225437211 -0.0000000189673703  2.8215011105275809
  4.2768638169134370  1.4263163484906793  4.2711235548165920
  2.8503580160687183 -0.0000000103881220  5.7007160131084600
  4.2766743861359506  1.4265057662213383  7.1303084149644391
  2.8503579996840149  0.0000000252767768  8.5799309206676178
  4.2994822606276069  1.4491242169703586  9.9523078586709950
  2.8503580122405121  2.8215010958604125  0.0000000050681835
  4.2766744076441734  4.2711235207905931  1.4265057368108260
  2.8503579773902801  2.8547204510799262  2.8547203733197093
  4.2797575014203204  4.2830801411489636  4.2830427499189652
  2.8503579983438776  2.8451521572675045  5.7007160138029382
  4.2797575178181768  4.2830426909567025  7.1183519128139094
  2.8503579794702532  2.8547203549442997  8.5467116281494135
  4.2768638191942649  4.2711236663769281  9.9751156393100562
  2.8503580166447104  5.7007159848151092 -0.0000000154457919
  4.2768638084018971  7.1303084523330273  1.4263163980814331
  2.8503580441604242  5.7007159935769804  2.8451521755230393
  4.2797575154303411  7.1183892780040754  4.2830801725999477
  2.8503579919065145  5.7007160171452025  5.7007160544084163
  4.2797575732681139  7.1183518144401337  7.1183893560022353
  2.8503579483192594  5.7007160124073115  8.5562798479686304
  4.2766743628885573  7.1303084017926821  9.9749261697321909
  2.8503580229971535  8.5799308902787779 -0.0000000069575400
  4.2994822590391033  9.9523077562878868  1.4491242935182924
  2.8503579965813559  8.5467115966535765  2.8547203980251030
  4.2766743778813048  9.9749262376827570  4.2711235847552018
  2.8503580493976908  8.5562798217556768  5.7007160455085595
  4.2768638434452342  9.9751156510523256  7.1303084198895830
  2.8503580004759081  8.5467116098405640  8.5467115454102114
  4.2994822528809786  9.9523077269702025  9.9523077939677975
  5.6718592336042937 -0.0000001015224041  0.0000000231621782
  7.1214816477027698  1.4265058395980934  1.4263163149934142
  5.7050784780100861 -0.0000000303625129  2.8547203723869319
  7.1334006657466986  1.4293995465314890  4.2830801739456179
  5.6955102157010975  0.0000000093990287  5.7007159967438890
  7.1334381941893481  1.4293995310397356  7.1183893560810265
  5.7050784614938133  0.0000000025247324  8.5467116681686530
  7.1214816808090777  1.4263163736248212  9.9749262695312950
  5.7050784647344930  2.8547204273713551  0.0000000074223262
  7.1334382360632791  4.2830426840197706  1.4293995202167258
  5.7189610416685444  2.8686030844239783  2.8686030045916366
  7.1331735842908088  4.2828156210727997  4.2828156882445079
  5.7034575180082481  2.8530995363820453  5.7007160236890044
  7.1331736135077257  4.2828156844239693  7.1186163827212932
  5.7189610454150053  2.8686030087587637  8.5328290237669222
  7.1334007290085308  4.2830801734416095  9.9720325124359963
  5.6955101733785050  5.7007160055495740 -0.0000000316562500
  7.1334007514410143  7.1183518625336086  1.4293995468041010
  5.7034575294529271  5.7007159831207570  2.8530995198148124
  7.1331735912822491  7.1186163749576998  4.2828156053486515
  5.6979661375297912  5.7007160398351253  5.7007160402121420
  7.1331736657760780  7.1186164128266425  7.1186163864707108
  5.7034576342033869  5.7007160024485932  8.5483325259258915
  7.1334381910087910  7.1183893951854333  9.9720325137606594
  5.7050784563166035  8.5467115882060245  0.0000000311275021
  7.1214816967307613  9.9751156073324641  1.4265057876599874
  5.7189610587788273  8.5328289270246138  2.8686030025196585
  7.1334381330201184  9.9720324692001832  4.2830427235196602
  5.7034575129379634  8.5483324523218602  5.7007160479527714
  7.1334007104266233  9.9720324892006609  7.1183518341293830
  5.7189609969947144  8.5328289653325218  8.5328290493213057
  7.1214817021695396  9.9749262400620520  9.9751156253815356
  8.5510740834057959 -0.0000000007738121  0.0000000348333551
  9.9806664720467282  1.4263163990787011  1.4265058339499539
  8.5510740540696233  0.0000000071802708  2.8451522824399880
  9.9687098763095001  1.4293995595378020  4.2830426288072552
  8.5510740279235637  0.0000000170228470  5.7007160069101435
  9.9687473577515995  1.4293995736255887  7.1183518129745549
  8.5510740196466983  0.0000000394776987  8.5562797948521148
  9.9806664039365334  1.4265058998138092  9.9751156027586170
  8.5510740358811077  2.8451522295499516  0.0000000289425917
  9.9687473813904965  4.2830802100195120  1.4293995064284919
  8.5510740001128394  2.8530996004224685  2.8530995576195006
  9.9689744342758306  4.2828156327960727  4.2828156367434245
  8.5510739994506952  2.8476081035302161  5.7007159825729801
  9.9689744288399016  4.2828155963698364  7.1186163915177021
  8.5510740330944781  2.8530995686672527  8.5483325017352279
  9.9687099192870310  4.2830426922844493  9.9720325498598843
  8.5510739870479497  5.7007160443208438 -0.0000000391259727
  9.9687098844789777  7.1183893714390400  1.4293995323427520
  8.5510740541436370  5.7007160367826666  2.8476080953455840
  9.9689744780842915  7.1186164200920459  4.2828156194470148
  8.5510740660149249  5.7007159983581044  5.7007160139455548
  9.9689744026647542  7.1186163479172668  7.1186163983129891
  8.5510740448474660  5.7007159631407660  8.5538239841089876
  9.9687473173616610  7.1183518573368119  9.9720325362008673
  8.5510740335948885  8.5562798122694232  0.0000000302811301
  9.9806664822160531  9.9749262045447527  1.4263163823507341
  8.5510740510540391  8.5483324964153891  2.8530996175584797
  9.9687473950260355  9.9720325002088224  4.2830801467172179
  8.5510740206069045  8.5538239273558130  5.7007160114445785
  9.9687098638452998  9.9720324748937497  7.1183893691047375
  8.5510740715478946  8.5483324832644971  8.5483324876685316
  9.9806664693369811  9.9751156403321701  9.9749262688527214
  2.8503581006986112  0.0000000027701862 -0.0000000399438525
