Fe Ti
 1.0000000000000000
    11.3825675639911399    0.0000000000000000    0.0000000000000000
     0.0000000000000000   11.3825675642860791    0.0000000000000000
     0.0000000000000000    0.0000000000000000   11.3825675640233239
 Fe  Ti 
 126   2
Cartesian
 -0.0175300466345704 -0.0405608415420555 -0.0410132346638557
 -0.0380419759032088 -0.0505471647469848  2.8840775373843228
  1.4247432894808865  1.4212815094873807  4.2599841732175658
  0.0010883751389568  0.0016245898360858  5.6842528577208666
  1.4241684608774317  1.4212643337159372  7.1187285106976281
  0.0094297576453838  0.0054869498796234  8.5483541366839422
  1.3818077223689782  1.4633817773823119  9.9422166139656021
 -0.0384356347602869  2.8836838993449350 -0.0505472326910716
  1.4243603733429073  4.2599842226527613  1.4208986375633466
 -0.0755327126065116  2.9211746548471158  2.9211746734064001
  1.4259149388366601  4.2610195711623264  4.2610724345983320
 -0.0039546951821670  2.8496934082455172  5.6841556262185673
  1.4259016323754923  4.2674240556675862  7.1127650330974168
 -0.0182134846836227  2.8638237235066892  8.5229890035264173
  1.4283661316018601  4.2568452138254038  9.9694455828462978
  0.0011446139452714  5.6844869378472485  0.0013813844539063
  1.4243775182227736  7.1187284942689599  1.4214734362779411
 -0.0040514971113832  5.6841555771118806  2.8495965628862310
  1.4258505091743841  7.1127189689691344  4.2675273215149341
  0.0040843015675265  5.6904436454479521  5.6905623218421901
  1.4255127969145003  7.1136797666506748  7.1137109974535413
  0.0013197515121996  5.6922579950552663  8.5341618905735412
  1.4242023120901510  7.1209015842748178  9.9608912535647551
  0.0096989889698954  8.5485433131313968  0.0055451711749861
  1.3822600794599909  9.9422165742320541  1.4638341906634320
 -0.0181818371756488  8.5229889947214961  2.8638553472690766
  1.4283078846220316  9.9691763858931619  4.2570343742782502
  0.0012701630643544  8.5341407922972881  5.6923657959204963
  1.4244455604184785  9.9608350098185543  7.1211356847899507
 -0.0187781130771184  8.5121274598956411  8.5121197272903277
  1.3722737241359395  9.9217046301894669  9.9213109591048187
  4.2859928817638000  1.4638341631525067  1.4633818100087588
  2.8862027308772054 -0.0410132238651827  2.8631719252855872
  4.2587638340168219  1.4172757959511457  4.2568451820616033
  2.8440852663295688  0.0013475268255165  5.6866600340178159
  4.2673181719113513  1.4214395516917888  7.1209015328842158
  2.8441024492346787  0.0019223334606512  8.5454042987872381
  4.3068984432832611  1.4733681634210449  9.9217046473982418
  2.8866551354066368  2.8631719419882646 -0.0405608815697296
  4.2590330982071309  4.2570343403482624  1.4173340096834042
  2.8961891243714066  2.8840775216307639  2.8836838821666237
  4.2872409614835174  4.2932687801545599  4.2932610293896394
  2.8442604730141081  2.8444972267478938  5.6844869614907632
  4.2671430500942114  4.2712266756469628  7.1131304955989432
  2.8400967175456748  2.8359429279618591  8.5485433126335852
  4.2866762815287380  4.2823995051296873  9.9415647767728981
  2.8442943699782854  5.6866600119596162  0.0015565715997477
  4.2673744587666897  7.1211356691989538  1.4211963403024528
  2.8440173054380256  5.6842528382316218  2.8445535364014640
  4.2671927165517243  7.1130227313155068  4.2712477451878543
  2.8429500962411480  5.6916774927063916  5.6917087644314739
  4.2643785040484206  7.1148262193354794  7.1149448521352667
  2.8425612364469441  5.6926234127532460  8.5379644157533132
  4.2724175244363218  7.1212329243576056  9.9556951217204119
  2.8437195918437550  8.5454042611681817  0.0015394374580747
  4.3065048063599400  9.9213109945182545  1.4733681627549986
  2.8401549307827980  8.5483541758026522  2.8362121457582128
  4.2866446708656580  9.9415331704251653  4.2823995031023623
  2.8426123040339664  8.5378611665970912  5.6926695573728514
  4.2725143279290192  9.9557919503406342  7.1212328963284222
  2.8425478812211646  8.5443160625412453  8.5443689815554933
  4.3439956313754742  9.8842138680572518  9.8842138783106641
  5.6828051418579131  0.0015394197717561  0.0019223581439848
  7.1094809745496930  1.4214734142029104  1.4212643343047777
  5.6796661658520931  0.0055451377058375  2.8359429085973180
  7.1154444028664106  1.4197402857760570  4.2674240647273072
  5.6902450042603645  0.0030806312041342  5.6926234360460750
  7.1144984345145188  1.4201291362172486  7.1136797592485124
  5.6838404968910954  0.0030940308363068  8.5443160536459644
  7.1070738042679249  1.4211963577068729  9.9608349747446443
  5.6798552896591072  2.8362121261832041  0.0054869440646864
  7.1154904872928455  4.2675273542870249  1.4197913727365523
  5.7052204299201845  2.8638553345515474  2.8638237142930740
  7.1194175529935073  4.2741069987467810  4.2740660886174524
  5.6940475896203422  2.8443220848310071  5.6922580010445971
  7.1173236453025970  4.2698239608894788  7.1109000811832219
  5.7160897651586033  2.8644200304442129  8.5121274779955183
  7.1151867443552081  4.2712477409249310  9.9610167563090055
  5.6903482737779649  5.6926695430068275  0.0030295696669407
  7.1145297157132275  7.1137110143119795  1.4201291305720296
  5.6940686675891650  5.6923657960218970  2.8443717783254314
  7.1173093859804677  7.1108857798996414  4.2698239485837171
  5.6926449041783513  5.6945027041772827  5.6944884463230743
  7.1178437027506805  7.1103657575898005  7.1103657455054670
  5.6969279625684237  5.6965965899645994  8.5313224559468210
  7.1133832499091545  7.1149448878829604  9.9638309380333006
  5.6838934066428202  8.5443689752158800  0.0030939808978644
  7.1073078798964033  9.9608912775040110  1.4214395308895158
  5.7160819919676547  8.5121197074455495  2.8644200126439019
  7.1150789247202306  9.9610664101380237  4.2712266441041828
  5.6968870192685594  8.5312815110147469  5.6965965983968614
  7.1132645691907372  9.9638309448210887  7.1148262093525991
  5.7236535499372465  8.5045558990094587  8.5045558802649968
  7.1069765782194496  9.9556950879446617  9.9557918983544376
  8.5415494422146878  0.0015566141632800  0.0013475366001392
  9.9682252783053293  1.4208986326423345  1.4212814976981547
  8.5437225007192854  0.0013814019270121  2.8444972318386195
  9.9671369975976400  1.4197269369742078  4.2610195527793033
  8.5365006786565782  0.0026918229835060  5.6916774785221467
  9.9606821328279711  1.4197913698590128  7.1127189460911087
  8.5355398990709812  0.0030295707214296  8.5378611843573768
  9.9711751135589974  1.4173339930695468  9.9691763888226497
  8.5439566429244476  2.8445535053592370  0.0016245851582474
  9.9671899243883608  4.2610724792951835  1.4197269197045057
  8.5440538346503878  2.8495965452501668  2.8496933901065766
  9.9273768219982710  4.3008326056208173  4.3008325966447583
  8.5376471863649268  2.8415575713555077  5.6904436251477097
  9.9541024281680759  4.2740660447684125  7.1087918848773439
  8.5358436960848678  2.8443717772371695  8.5341407773351285
  9.9349406561666811  4.2932610725140279  9.9409684957909334
  8.5365319600265863  5.6917087896615319  0.0026918505441271
  9.9607853687012486  7.1127650444142603  1.4197403162048243
  8.5377657954522466  5.6905622818099122  2.8415575975905427
  9.9541433668819614  7.1087918887417061  4.2741070053913601
  8.5331867018946781  5.6950227590483111  5.6950227689096700
  9.9583855099230192  7.1109000928687331  7.1108858219920821
  8.5337067728856280  5.6944884098126742  8.5355645689352482
  9.9569828202921791  7.1131305245109928  9.9610663982783230
  8.5355859762340227  8.5379644400321091  0.0030806712230475
  9.9713642388779835  9.9694455911946545  1.4172757766773596
  8.5359514197431956  8.5341618268795933  2.8443221037266992
  9.9349484245090256  9.9409684872958124  4.2932688471471669
  8.5337210421354222  8.5355645520537902  5.6945026900126727
  9.9569617280720681  9.9610167656016859  7.1130227686496630
  8.5316128505795170  8.5313224340698550  8.5312815061195959
  9.9458099363394901  9.9415647697815928  9.9415331228002444
  2.9478260680018837 -0.1021841558643755 -0.1021841206403191
  1.3206368616963344  1.5250050321427884  1.5250050755380775
