Fe Au
 1.0000000000000000
    11.4431753365406728    0.0000000000000000    0.0000000000000000
     0.0000000000000000   11.4431753262150888    0.0000000000000000
     0.0000000000000000    0.0000000000000000   11.4431753321871454
 Fe  Au 
 126   2
Cartesian
 -0.0817800562796164 -0.0420107046855660 -0.0414855732671996
 -0.0473953004713645 -0.0453886721179441  2.9074661461979181
  1.4199783903452479  1.4409663161367339  4.2674867415559214
 -0.0157819838297564 -0.0103399295438938  5.7216227910776043
  1.4207612624130950  1.4398750801400424  7.1314112680460182
 -0.0286906837677515 -0.0104415671442500  8.5595598858907191
  1.3889112989014705  1.4724076742835994  9.9309983185439457
 -0.0466724123406653  2.9081891140615133 -0.0453887081060393
  1.4198275121336537  4.2674866606276254  1.4408155041918516
 -0.0564486344961692  2.9172424310397580  2.9172424668296446
  1.4241336566917031  4.3086945578394529  4.3086775879063230
 -0.0202710558457325  2.8814201059252911  5.7147151348688148
  1.4226988560269755  4.3079072560642544  7.1419166246254804
 -0.0398162777379899  2.9006254860636633  8.5517665774260170
  1.4196659942418470  4.3141016607593539  9.9837478107396986
 -0.0157502891971889  5.7216541150686551 -0.0106406300770800
  1.4209187472619116  7.1314112507683847  1.4400325611867504
 -0.0206262595882466  5.7147151183492095  2.8810648703409365
  1.4225923955406785  7.1419202532711754  4.3077459110808833
 -0.0038435704587718  5.7306965656328854  5.7307085882140667
  1.4245394085766840  7.1442120666427709  7.1440603946540806
 -0.0193615379437084  5.7328486771899652  8.5598239917595684
  1.4197562834851625  7.1519180731972991  9.9970281272468657
 -0.0290306294177779  8.5594705314084418 -0.0107309698629430
  1.3883861599494829  9.9309983165695588  1.4718825891122824
 -0.0398316725669580  8.5517665649179921  2.9006100697919441
  1.4199553617066312  9.9840877523914422  4.3140123420644461
 -0.0193238135845221  8.5598878714559827  5.7326558838250987
  1.4200570174816025  9.9969963924876240  7.1519494530839260
 -0.0336173889194831  8.5468411526937942  8.5466396647587395
  1.3850082368073229  9.9653830931162517  9.9661060382943916
  4.3729708415791828  1.4718825253969370  1.4724076367845906
  2.9028045315977153 -0.0414855792507655  2.9425739053817312
  4.3202213942831111  1.4411278026208598  4.3141016952676337
  2.8702720244553799 -0.0096356388658249  5.7421609469207402
  4.3069410497587617  1.4410375661181405  7.1519181188095855
  2.8713632363617938 -0.0104185385444036  8.6060854788184855
  4.3378630827053621  1.4757855968620828  9.9653830987874841
  2.9022794501738898  2.9425739209151685 -0.0420107322430932
  4.3198814593237893  4.3140123791348310  1.4408384751155041
  2.9061825191061499  2.9074661673115951  2.9081891670307018
  4.3248081402522223  4.3269326300129034  4.3267311316003410
  2.8714345049065018  2.8765441145412649  5.7216541272321759
  4.3105523203546792  4.3137482890182133  7.1407235644810925
  2.8715247907297088  2.8898244312355303  8.5594705719413380
  4.3310070089662496  4.3218056994346554  9.9729467384201573
  2.8704294884094272  5.7421609519967394 -0.0094781108172861
  4.3069727459630505  7.1519494503936425  1.4407368179948237
  2.8711337287163068  5.7216227955999299  2.8765758518301046
  4.3105145554833024  7.1409163419174169  4.3136843835558594
  2.8666513733666528  5.7295118417963620  5.7293602010593423
  4.2950342816223532  7.1428636469925895  7.1428756727485236
  2.8684918622413087  5.7316556217282573  8.5656650214175283
  4.3114617662709271  7.1588571013734477  9.9921521306027064
  2.8712123773037708  8.6060855336539053 -0.0105694330777414
  4.3385861207397056  9.9661060105329415  1.4757855862683331
  2.8712353699921866  8.5595598501040779  2.8894844763678806
  4.3310224466027423  9.9729621190990247  4.3218056556871796
  2.8685983078694108  8.5658262773353151  5.7316519543740370
  4.3118170212990545  9.9925073524270420  7.1588571370165264
  2.8670570918179239  8.5648946678067848  8.5648776827549451
  4.3476393662555344  9.9563298098006587  9.9563297899507504
  5.6978836233555645 -0.0105694312963985 -0.0104185081850937
  7.1725578988914656  1.4400325854383564  1.4398751161991603
  5.7444986238840183 -0.0107309488883089  2.8898244369184836
  7.1620525874542302  1.4380949251849959  4.3079072755339700
  5.7383042171100369 -0.0076980856533634  5.7316556385067168
  7.1599087608595022  1.4362544282436744  7.1442120478796101
  5.7390914975091354 -0.0062632696517268  8.5648946585954118
  7.1520196992228584  1.4407368484552989  9.9969963859642199
  5.7444093227674733  2.8894845255815969 -0.0104415941117576
  7.1620489017291362  4.3077459724136551  1.4382013838871015
  5.7522025903254193  2.9006101084014513  2.9006254709135186
  7.1662205667224788  4.3163519160245274  4.3164051590484753
  5.7441451819328746  2.8801553888337112  5.7328487275616906
  7.1659382345449751  4.3029492908377422  7.1380013625093426
  5.7573295277977339  2.8944112084589753  8.5468411604653092
  7.1630528264567630  4.3136843968994176  9.9934545801135641
  5.7381428553654530  5.7316519674381894 -0.0078044788673891
  7.1597570812134288  7.1440604431645660  1.4362543673162651
  5.7440813103152646  5.7326558833148162  2.8801176273192688
  7.1659677925610277  7.1380308843263123  4.3029493479210910
  5.7333462712283367  5.7355413930218546  5.7355708576614761
  7.1649702376667674  7.1389988627494665  7.1389988789175893
  5.7467488515567897  5.7358236831256200  8.5571671200885930
  7.1611054865366253  7.1428756889421186 10.0089348802759783
  5.7390744959812610  8.5648776536100719 -0.0062632904526557
  7.1520510607449399  9.9970281277489903  1.4410375269664280
  5.7571279941252032  8.5466396191773679  2.8944111785104374
  7.1632456444281463  9.9934168491620206  4.3137482386962160
  5.7468020492517473  8.5572203205951425  5.7358236506215414
  7.1610934711562075 10.0089348611881803  7.1428636633364722
  5.7620582835491181  8.5419108744215038  8.5419109148192653
  7.1451119892065549  9.9921521109290481  9.9925073615939031
  8.5618081654828035 -0.0094781544836342 -0.0096356700575776
 10.0364824092926224  1.4408154755795928  1.4409662955710425
  8.5823150265238777 -0.0106406773926920  2.8765441006617234
  9.9952915235753785  1.4366601745797039  4.3086946091946521
  8.5746089611528902 -0.0058575267800658  5.7295118434560610
  9.9962231999185249  1.4382013881979279  7.1419202386812612
  8.5723171801727300 -0.0078045024357232  8.5658262724705292
  9.9899568004250643  1.4408384309476912  9.9840877278024784
  8.5823463932971382  2.8765758691833221 -0.0103399161572874
  9.9952745881040919  4.3086775620236635  1.4366601988972365
  8.5892540235467365  2.8810648389126610  2.8814201485274249
  9.9723077736455661  4.3316613344838029  4.3316613695724815
  8.5732606042465651  2.8646373882382186  5.7306965613806176
  9.9876172414372171  4.3164051070915477  7.1377485864478460
  8.5713132880478202  2.8801176391037631  8.5598878707546522
  9.9770365951463926  4.3267310680680895  9.9791610370699431
  8.5744573291271067  5.7293602027284383 -0.0058575098008874
  9.9960619129116015  7.1419165741025585  1.4380949691298677
  8.5732725476377905  5.7307085857948987  2.8646373737807709
  9.9875640567106636  7.1377486041383280  4.3163519183791141
  8.5693957871779673  5.7345734055427950  5.7345734169740945
 10.0010198626223481  7.1380013732913037  7.1380309095282692
  8.5684278391665050  5.7355709046670835  8.5706229267424678
  9.9902208763830984  7.1407235082902263  9.9934168744686112
  8.5723135217522373  8.5656649764893924 -0.0076980722064605
  9.9898674451622647  9.9837477772321233  1.4411278567748391
  8.5711204324853369  8.5598239764046546  2.8801553676553375
  9.9772380957367854  9.9791610294219701  4.3269325575405304
  8.5683982581298554  8.5706229153205093  5.7355413427429855
  9.9902848017387793  9.9934545996568325  7.1409163397551483
  8.5681455330893304  8.5571671480464602  8.5572203443867689
  9.9821635106225663  9.9729467512181493  9.9729621210537633
  2.9179748511330121 -0.0571810869241928 -0.0571809795833175
  1.3732159050525004  1.4875780349117729  1.4875780081596404
