Fe Cr
 1.0000000000000000
    11.3733232513625602    0.0000000000000000    0.0000000000000000
     0.0000000000000000   11.3884471194799310    0.0000000000000000
     0.0000000000000000    0.0000000000000000   11.3733232514530940
 Fe  Cr 
 126   2
Cartesian
  0.0217321055087517  0.0022675562554302 -0.0001287499748791
  1.4308603016729406  1.4235558511337132  1.4124705486755407
  0.0032353435102476 -0.0053391875504845  2.8401309038372089
  1.4302280330100845  1.4237344078566994  4.2494834561531496
  0.0053946620982502  0.0020821105460907  5.6866605941496280
  1.4302280401613912  1.4233774013589748  7.1238397955169361
  0.0031999732620325 -0.0053391903583189  8.5332277788960305
  1.4308602435546367  1.4235559081367914  9.9608527045893123
  0.0217321202663035  2.8448442428329552  0.0001287638957867
  1.4308488452710999  4.2595897639681324  1.4124048256988959
  0.0031999302560495  2.8524509936487643  2.8400955699869068
  1.4246949054640627  4.2709598513417131  4.2613766787497349
  0.0053946208864379  2.8450297657002084  5.6866627240278920
  1.4245335765212686  4.2707496322195047  7.1118636172603802
  0.0032353425405309  2.8524509901442578  8.5331923805938761
  1.4309260215892730  4.2595897637975471  9.9608413512595071
  0.0064221285029587  5.6914291050448957 -0.0000436837472097
  1.4262357118593303  7.1177795002221496  1.4170951329510559
 -0.0055179436351743  5.7024245292440270  2.8488318561639643
  1.4201849069296100  7.1178650745096057  4.2714793776174309
  0.0012338445553547  5.6919967623460668  5.6866567286914442
  1.4201848953233822  7.1176938278714603  7.1018438981879495
 -0.0055009315060629  5.7024245456897971  8.5244744921852575
  1.4262357270787156  7.1177795171882297  9.9562282266891220
  0.0064220994996403  8.5441298774225753  0.0000436706773433
  1.4309260101846228  9.9759691956851579  1.4124819770956125
 -0.0055009986910245  8.5331343445396914  2.8488488461518777
  1.4245335981032223  9.9648093384729766  4.2614596950759553
  0.0012338597712333  8.5435622268522415  5.6866665945922596
  1.4246949381333620  9.9645991412406243  7.1119466367452224
 -0.0055179159319988  8.5331344288527244  8.5244914220344938
  1.4308489711929089  9.9759692253178329  9.9609185090233847
  4.2558012049879457  1.4235559375380551  1.4124704405817954
  2.8432020840655090  0.0022675600914217  2.8215986803259954
  4.2564336565212999  1.4233774568631761  4.2494834540596376
  2.8433308293624169  0.0019684140075060  5.6866616935764256
  4.2564335623349132  1.4237343860329490  7.1238398410858235
  2.8434596376033237  0.0022675657933380  8.5517246386897270
  4.2558012529422413  1.4235559366358375  9.9608528609156899
  4.2557355961108776  4.2595896403662143  1.4124819152180983
  2.8434596145443898  2.8448443045011955  2.8215987469532586
  4.2621280192723514  4.2707495675163107  4.2614597205389888
  2.8433308251682297  2.8451433880620605  5.6866616573744162
  4.2619666175233428  4.2709597210416659  7.1119466006199863
  2.8432020453110036  2.8448443082179100  8.5517246333582762
  4.2558126627924286  4.2595896942533633  9.9609185609172517
  2.8433308302692004  5.6812900063443239  0.0000000302054344
  4.2604258406042019  7.1177794901899309  1.4170950738915384
  2.8432871013674501  5.6914291055463311  2.8369087182826709
  4.2664767584052372  7.1176938258832418  4.2714793206817125
  2.8433308454646538  5.6925064768084805  5.6866616645270351
  4.2664767604168299  7.1178650583995422  7.1018439573284127
  2.8433744710772646  5.6914290669652017  8.5364145976507952
  4.2604258978608209  7.1177794728435346  9.9562283011991983
  2.8433308090664142  8.5542690107623240  0.0000000219058451
  4.2558126963311471  9.9759693127138309  1.4124047387231806
  2.8433745267243298  8.5441298509968959  2.8369087423123331
  4.2619667506419132  9.9645991871632802  4.2613766841571801
  2.8433308242239419  8.5430524433599011  5.6866616714159726
  4.2621280509764743  9.9648093189074931  7.1118636584533554
  2.8432870591598274  8.5441298716350147  8.5364146231565492
  4.2557354935322023  9.9759693273616481  9.9608414195267532
  5.6649294746577521  0.0022674604417034  0.0001287597034801
  7.0928143086712714  1.4237343447484796  1.4131028424298515
  5.6834617271391989 -0.0053391842891313  2.8400955364193594
  7.1107763238264194  1.4235559311469761  4.2674455000830012
  5.6812670036490012  0.0020820885292641  5.6866627002899222
  7.1107763335314234  1.4235559548870280  7.1058777047095303
  5.6834263196516197 -0.0053392419502936  8.5331923513806522
  7.0928142866384531  1.4233774523631906  9.9602204952378592
  5.6649294949523892  2.8448443113543718 -0.0001287738427448
  7.1047075706281273  4.2709597169991831  1.4186358218167956
  5.6834263209182847  2.8524510593106656  2.8401309398715777
  7.1098920436641615  4.2684150147282320  4.2664624057578378
  5.6812669836567578  2.8450297782085081  5.6866605986907839
  7.1097932240285582  4.2684150229912170  7.1067620757597707
  5.6834617206078928  2.8524510539570134  8.5332277361439495
  7.1047905046682986  4.2707496162897050  9.9545260303822545
  5.6802394818658453  5.6914291072971821  0.0000437177623242
  7.1148101942493129  7.1178650666078793  1.4231459606467316
  5.6921626786485584  5.7024245045193869  2.8488488687922882
  7.1090415666578295  7.1177794326909822  4.2657108212848520
  5.6854277289070669  5.6919967791784840  5.6866665664324572
  7.1090415729354337  7.1177794642372447  7.1076125304350430
  5.6921795974985558  5.7024245443683466  8.5244914297881458
  7.1148102357517953  7.1176937698781328  9.9501773361678882
  5.6802394912399343  8.5441298239781140 -0.0000436128955860
  7.1047905217292380  9.9648093501046517  1.4187972759929992
  5.6921796483164639  8.5331343914479181  2.8488318593133748
  7.1097932656980332  9.9671439158343684  4.2665612662875354
  5.6854277511657481  8.5435621473420973  5.6866567538783839
  7.1098920235027325  9.9671438978619964  7.1068609000550964
  5.6921626711434286  8.5331343515536666  8.5244744602643863
  7.1047075799604436  9.9645991657380186  9.9546874143014676
  8.5299924455843481  0.0019683724814817  0.0000000617513168
  9.9671706251753580  1.4233774599058011  1.4131028615551648
  8.5299913865720498  0.0020821132815696  2.8379362150315530
  9.9492086122941750  1.4235559110267713  4.2674455631592609
  8.5299924056806820  0.0028565912073351  5.6866615963080545
  9.9492085425626691  1.4235559471244992  7.1058777766890984
  8.5299935030547243  0.0020821476244651  8.5353870875952680
  9.9671706630063355  1.4237344053036136  9.9602204478661704
  8.5299924787475767  2.8451434186743931  0.0000000287200308
  9.9551944013168363  4.2707496291900808  1.4187972583877098
  8.5299935059075729  2.8450297447352160  2.8379362198680660
  9.9501916340473677  4.2684151003362061  4.2665612627582234
  8.5299924375385991  2.8442552235198804  5.6866616854258289
  9.9500928442201548  4.2684150198951087  7.1068608991909130
  8.5299914454787142  2.8450297007580452  8.5353871314605474
  9.9552773987164258  4.2709597553685619  9.9546874268770846
  8.5299924726669456  5.6925064974836070  0.0000001008469068
  9.9451747102351362  7.1176938125364684  1.4231460412961658
  8.5299875304212271  5.6919967586021301  2.8420969756329439
  9.9509432513293454  7.1177794670035119  4.2657107821243159
  8.5299924729022489  5.6914809928645127  5.6866616380207189
  9.9509433360660910  7.1177794638936636  7.1076124539332133
  8.5299974091566906  5.6919967434387555  8.5312263205123475
  9.9451747687923842  7.1178651449879871  9.9501772775372253
  8.5299924505086775  8.5430524493758266 -0.0000000201960076
  9.9552773809550512  9.9645991424802336  1.4186359099242056
  8.5299973967223259  8.5435622170277181  2.8420969373190292
  9.9500927755125570  9.9671438960569834  4.2664624553445414
  8.5299924802471949  8.5440778361590777  5.6866616783895747
  9.9501917081032225  9.9671439257588048  7.1067620416191577
  8.5299874466831724  8.5435621619255446  8.5312263713878007
  9.9551944109999777  9.9648092995164177  9.9545260179899291
  2.8433308686440153 -0.0115363341139635  0.0000000368333691
  2.8433309270310865  2.8586481440408900  0.0000000888192135
