Fe V 
 1.0000000000000000
    11.3678593800256706    0.0000000000000000    0.0000000000000000
     0.0000000000000000   11.3678593663143044    0.0000000000000000
     0.0000000000000000    0.0000000000000000   11.3678593733701057
 Fe  V  
 126   1
Cartesian
  0.0193212469225495  0.0128808141599928  0.0126994085926125
  1.3545017788691744  1.4874631202619568  1.4874630485018481
  0.0067991018752113 -0.0414696042041027  2.8351824604898304
  1.3704642204375155  1.4715195016174658  4.2036429093226468
  0.0016354729874979  0.0143849721904538  5.6724897416033793
  1.4235980621731250  1.4181111209206263  7.1117373017434105
  0.0036981021612010  0.0093555482057219  8.5316665754133840
  1.4107352107924043  1.4314574407731637  9.9355738795159425
  0.0067823143134151  2.8351656701261079 -0.0414696128420802
  1.3704456585367244  4.2036428452648691  1.4715006071335655
  1.3662488611133625  4.2079571972334291  4.2078525718289912
  0.0018395797678502  2.8401642572889201  5.7254361757042478
  1.4227146996785840  4.2674618170032748  7.1044005255184342
 -0.0043961078543255  2.8463875985449070  8.5223605163036229
  1.4237458272301609  4.2618744993645636  9.9461056385624413
  0.0016908220685531  5.6724686503899653  0.0144273390241920
  1.4238539424457426  7.1117374930194153  1.4183668153059992
  0.0018003821995125  5.7254363829322941  2.8401252425168599
  1.4225720903972097  7.1044188339035896  4.2676045021817739
  0.0026613442821081  5.6702693486743447  5.6702809785181865
  1.4195819150672579  7.1014187707159424  7.1015274818734566
  0.0009388095337778  5.6739261550728193  8.5280943561418390
  1.4205423221962459  7.1081599710840253  9.9496029020280776
  0.0037322816818274  8.5315963085099664  0.0093419550184748
  1.4105076215616434  9.9355738481832354  1.4312295619319535
 -0.0044228066060840  8.5223605688281747  2.8463612287170164
  1.4235817256291139  9.9461862566582102  4.2618000449399505
  0.0008886255653749  8.5280451751674153  5.6739538423423364
  1.4206658254665430  9.9493748083160582  7.1081193141800139
 -0.0049044484150363  8.5223181990585708  8.5223417129095758
  1.4097916636417902  9.9392648614738786  9.9392529368312825
  4.2742502438146932  1.4312295689059289  1.4314574561100168
  2.8290839537740289  0.0126993784763096  2.8226435302862676
  4.2637183381053516  1.4182190559031320  4.2618744956771035
  2.8225311641150741  0.0193636231998021  5.6644861825841790
  4.2602211907466243  1.4214223724659338  7.1081599737227030
  2.8380253674093732  0.0038483188998886  8.5450282336279990
  4.2705715720225799  1.4321732816282227  9.9392649190165461
  2.8292653865858179  2.8226435711290656  0.0128808505661878
  4.2636378058233033  4.2618002266467707  1.4183830875626113
  2.8834342980089676  2.8351824353449659  2.8351656982886029
  4.2638634713201844  4.2667127140925727  4.2666793133855627
  2.8275372667090721  2.8402739052922863  5.6724686834838307
  4.2614283353312414  4.2648095749831931  7.1023702624772751
  2.8326229479834417  2.8382327117605337  8.5315963476330250
  4.2612583948965437  4.2588238651597159  9.9486729835208827
  2.8226013651752382  5.6644859751007965  0.0194336655604631
  4.2604493840789335  7.1081193773001026  1.4212990914891410
  2.8275800989332378  5.6724896263582831  2.8403293935216083
  4.2613896294645484  7.1023791073290461  4.2647240616742215
  2.8217459204326611  5.6637890945556952  5.6637750664759192
  4.2523814517786436  7.0934470101858471  7.0934067372552700
  2.8367905120516586  5.6787469792441785  8.5281600216637212
  4.2529460364129781  7.1003547251272083  9.9567518759447786
  2.8381164406611803  8.5450281284938772  0.0039394514259476
  4.2705593059394236  9.9392528431536071  1.4321733537498971
  2.8326091624740610  8.5316665167468226  2.8382666454137095
  4.2611512665638269  9.9485656867533034  4.2588240160535049
  2.8367510555478943  8.5281490162376379  5.6787504033239413
  4.2530723330550817  9.9568783309358757  7.1003546570324740
  2.8389659016049720  8.5291548698380790  8.5291545264762352
  4.2662202752146978  9.9436040554026963  9.9436038974010899
  5.6647960046758392  0.0039393514830014  0.0038483764774402
  7.0980867162667352  1.4183668721647178  1.4181109396451073
  5.6782279311466244  0.0093417114487507  2.8382325728333213
  7.1054239829474950  1.4192501379318849  4.2674618919890142
  5.6816641522155651  0.0051741283022713  5.6787470185699043
  7.1082967067824523  1.4223831038365400  7.1014190351192026
  5.6806697381707272  0.0029988464072662  8.5291548827594976
  7.1017049278160034  1.4212990895099344  9.9493748345690882
  5.6781576522117296  2.8382667448460031  0.0093555422483414
  7.1054054440662089  4.2676043548627423  1.4193928535500038
  5.6874635684978978  2.8463611056454723  2.8463875854829155
  7.1024749532752161  4.2633270399571286  4.2634311805338223
  5.6817298529006592  2.8410260181103038  5.6739262830265780
  7.1051715545013368  4.2606585039504736  7.1046456447850321
  5.6874826643470229  2.8468693635245210  8.5223183294199156
  7.1074451377444134  4.2647241555001161  9.9484344639555395
  5.6816752140229392  5.6787505086400030  0.0052138183160647
  7.1084052967947375  7.1015274124199017  1.4223829836320963
  5.6817789164526316  5.6739539324959303  2.8410761946531995
  7.1051786431071369  7.1046526608133425  4.2606584940276448
  5.6803439800901643  5.6787782799797304  5.6787510990643524
  7.1134493992942200  7.0963748805974785  7.0963748342395796
  5.6833945350615531  5.6828637473820436  8.5264348599875426
  7.1163772147508562  7.0934065951016150  9.9574425948181862
  5.6806692948990660  8.5291544466321731  0.0029989304919809
  7.1016642418687050  9.9496029747137573  1.4214223950944032
  5.6875060104926014  8.5223417300065574  2.8468694181165191
  7.1074539145546751  9.9483958058110566  4.2648095939475388
  5.6833893244821869  8.5264296779209499  5.6828636711510923
  7.1164175496398130  9.9574427221494055  7.0934470353235302
  5.6902866573452622  8.5195377648366648  8.5195377202047471
  7.1094694723667651  9.9567517940328862  9.9568783835259342
  8.5453381230071823  0.0194337250957238  0.0193635990946463
 10.0061814263682098  1.4715006484117310  1.4715193111632554
  8.5373554847182653  0.0144274217040781  2.8402740377296460
 10.0019716159076193  1.4757159057592029  4.2079572012002897
  8.5460490063368422  0.0202190026904751  5.6637891444726680
  9.9422198274371798  1.4193927486878974  7.1044188255186791
  8.5310738031818456  0.0052137476541552  8.5281489965287154
  9.9480241149415498  1.4183832183977687  9.9461863972488214
  8.5373345085782208  2.8403292904443265  0.0143849697380330
 10.0018670477227811  4.2078525579985309  1.4757159499839365
  8.4843880498098407  2.8401253010380110  2.8401643924715323
 10.0034743717592605  4.2063497387524622  4.2063497787913233
  8.5395431681056646  2.8393036480389142  5.6702692206883878
  9.9464971864111824  4.2634309757490918  7.1073492398674665
  8.5358702464111076  2.8410764835510012  8.5280451353538513
  9.9431115612488217  4.2666792725251739  9.9459607332903737
  8.5460351262579817  5.6637751531438569  0.0202189453331895
  9.9423624689526626  7.1044002572158078  1.4192499673407151
  8.5395548816207096  5.6702810031309365  2.8393036064290782
  9.9463931308034272  7.1073492613648632  4.2633271196439324
  8.5462597729588747  5.6635642788090648  5.6635643466133700
  9.9491658166981374  7.1046456913215401  7.1046527060645159
  8.5310459297806158  5.6787511954847760  8.5294801593875142
  9.9450146384041975  7.1023703502919986  9.9483957409869319
  8.5310773316013204  8.5281600471071393  0.0051740803090174
  9.9479497875775849  9.9461055977560289  1.4182190311033125
  8.5358979476281966  8.5280942897931009  2.8410260053504937
  9.9431448609767266  9.9459606943242882  4.2667127515116885
  8.5310730595920088  8.5294801892025678  5.6787781983586498
  9.9451000238046081  9.9484345936531451  7.1023790939809297
  8.5269604547609479  8.5264347935541309  8.5264295361462796
  9.9510003804258638  9.9486729721840348  9.9485656187942109
  2.8237337657241159  0.0182310884874045  0.0182311173791782
