Fe Hf
 1.0000000000000000
    11.3903498065971203    0.0000000000000000    0.0000000000000000
     0.0000000000000000   11.3903498019960772    0.0000000000000000
     0.0000000000000000    0.0000000000000000   11.3903497984906448
 Fe  Hf 
 127   1
Cartesian
 -0.0221190064168182  0.0000000203635028 -0.0000000413066014
  1.3359615638028344  1.5116257537511524  1.5116258522186328
  0.0140460649314881  0.0000000646650906  2.8335413394003113
  1.4231951877890192  1.4244638309821818  4.2612704484032173
 -0.0024962917342680  0.0000000066338181  5.6951749182425679
  1.4231236542833257  1.4243922147941117  7.1290793524483185
  0.0140461155456140 -0.0000000401978434  8.5568084093383305
  1.3359617883550325  1.5116257869769045  9.8787238398591768
  0.0140461449598109  2.8335413644121266  0.0000000633487451
  1.4231237063523856  4.2612703743238090  1.4243922120572421
 -0.0312530660859500  2.8788405492233680  2.8788404869458586
  1.4255896213465191  4.2705121661578671  4.2705098765024001
 -0.0053279739024486  2.8529153723060450  5.6951749177035289
  1.4255895917028751  4.2705098026448374  7.1198375580411675
 -0.0312530633932783  2.8788404732685988  8.5115093224971510
  1.4231952692713175  4.2612703907023404  9.9658861261720890
 -0.0024962852449384  5.6951748197525829  0.0000000628834387
  1.4231952127626721  7.1290794211940884  1.4244637178749184
 -0.0053279009502688  5.6951749261320277  2.8529153910310407
  1.4255895833181609  7.1198399379609620  4.2705122696861197
  0.0016703345857036  5.6951748457889479  5.6951749606677700
  1.4255895551954212  7.1198375208702425  7.1198399788012141
 -0.0053278973299601  5.6951749438758332  8.5374344367215258
  1.4231236433567833  7.1290793473144749  9.9659577362191776
  0.0140460552794195  8.5568084696467732 -0.0000000775688797
  1.3359617005228690  9.8787240916775936  1.5116257078872877
 -0.0312529508505014  8.5115092702191646  2.8788405679922140
  1.4231235863694829  9.9659577040559277  4.2612705150481425
 -0.0053280106741433  8.5374343251821720  5.6951750130012995
  1.4231953373413839  9.9658860505862901  7.1290792626748134
 -0.0312529882826235  8.5115092624711757  8.5115094066006662
  1.3359618418592019  9.8787241032931359  9.8787240336699664
  4.3592130562964986  1.5116257207479442  1.5116257872596368
  2.8475873771359588 -0.0000001618566195  2.8697065996158240
  4.2720512256235095  1.4243922148283281  4.2612704352847874
  2.8475874194040074 -0.0000000157437039  5.6951748073516857
  4.2719796358587852  1.4244638212170864  7.1290793562634924
  2.8475874206081140  0.0000001028425779  8.5206431695280109
  4.3592131599126960  1.5116258826607845  9.8787239580003732
  2.8475874987349021  2.8697065864878941  0.0000000086273264
  4.2719796596078563  4.2612704124817498  1.4244637534709474
  2.8475874556679308  2.8335414258545208  2.8335413539667718
  4.2695853841023022  4.2705099421865533  4.2705123089133519
  2.8475874535381749  2.8500837344328906  5.6951749220672792
  4.2695854677092857  4.2705122478225750  7.1198397995861651
  2.8475874972870594  2.8335414304551110  8.5568083721514796
  4.2720512352088793  4.2612704767093357  9.9659576590973735
  2.8475875349963897  5.6951749661843927 -0.0000000200458094
  4.2720511426692367  7.1290794450454120  1.4243922002589873
  2.8475874936165693  5.6951749946245167  2.8500837104564742
  4.2695854961039812  7.1198376158023180  4.2705098447884087
  2.8475874261567968  5.6951749495448007  5.6951748125852957
  4.2695852697122199  7.1198398839325963  7.1198374532467721
  2.8475874466515472  5.6951748732458292  8.5402660520607974
  4.2719797043516952  7.1290793983651133  9.9658859167005662
  2.8475874522891989  8.5206432540761217 -0.0000000131287428
  4.3592131077980572  9.8787241377533093  1.5116256210422310
  2.8475874457095278  8.5568083876781706  2.8335414623329296
  4.2719796758664517  9.9658860257173032  4.2612705495578114
  2.8475874835276800  8.5402659834609658  5.6951748929476400
  4.2720512433954516  9.9659576044878957  7.1290793962362002
  2.8475874344330250  8.5568083477171974  8.5568084799689199
  4.3592131783078116  9.8787240850043165  9.8787239555582449
  5.7172939403011842 -0.0000000018865132 -0.0000000006916399
  7.1088579657484319  1.4244637739101884  1.4243922211174740
  5.6811287895603142  0.0000000047408372  2.8335412488811245
  7.1180995753292979  1.4219979042858948  4.2705099131751680
  5.6976711920435310 -0.0000000711796513  5.6951750030585933
  7.1180973202376778  1.4219978221141241  7.1198376386924203
  5.6811288380910439  0.0000000205249543  8.5568083585361503
  7.1088578623606864  1.4243922506100417  9.9658860890661813
  5.6811288588622499  2.8335413437893857  0.0000000852415143
  7.1180972520456107  4.2705122600974139  1.4219979283343962
  5.7264278677012834  2.8788405111720694  2.8788404510332284
  7.1300949577458317  4.2825074816979836  4.2825076268837190
  5.7005028503410298  2.8529154217634876  5.6951749363395274
  7.1300948861044544  4.2825075180173231  7.1078422543984834
  5.7264278767341050  2.8788405643963606  8.5115093223730494
  7.1180995506385907  4.2705099359238607  9.9683519000079315
  5.6976712572360890  5.6951749559283371  0.0000000471093544
  7.1180996878961453  7.1198399028090709  1.4219978897487320
  5.7005028446392352  5.6951748104558639  2.8529153976566652
  7.1300950658626716  7.1078422533250842  4.2825075309012446
  5.6935046876671738  5.6951750843174258  5.6951748179631689
  7.1300949351054648  7.1078422872870082  7.1078422754591033
  5.7005027929751648  5.6951749104370277  8.5374342933203575
  7.1180973218255925  7.1198375866193748  9.9683518997012719
  5.6811287331297056  8.5568084261149284 -0.0000000181468479
  7.1088578550571651  9.9659575588855862  1.4244638217710495
  5.7264278900157661  8.5115092391551723  2.8788404398559035
  7.1180973594586554  9.9683517956554688  4.2705122470546595
  5.7005029116113866  8.5374343146765863  5.6951748271534672
  7.1180996205386888  9.9683518394642814  7.1198399261448566
  5.7264278696217321  8.5115092788209523  8.5115092801901522
  7.1088578329890959  9.9658860232193351  9.9659576404658221
  8.5427624032050904  0.0000000840400400  0.0000000067596172
  9.9766668225115041  1.4243922213639648  1.4244637507940168
  8.5427624100075921 -0.0000000728751685  2.8500837079973897
  9.9674274165066432  1.4219979126571298  4.2705121841895890
  8.5427623295969397 -0.0000000123306454  5.6951749311323496
  9.9674250148901677  1.4219979083503773  7.1198399727716071
  8.5427623356060138 -0.0000000715335484  8.5402660750637764
  9.9766668696023455  1.4244637347572202  9.9659576424005927
  8.5427623493290241  2.8500837695385592 -0.0000000090040466
  9.9674249645196209  4.2705099044582839  1.4219979341122553
  8.5427623336041858  2.8529154043514109  2.8529154581955067
  9.9554298165260864  4.2825075661115397  4.2825075454647887
  8.5427622551647300  2.8459171682474773  5.6951749011568120
  9.9554297443004707  4.2825074162803745  7.1078423397455799
  8.5427622613087877  2.8529153917455909  8.5374344011126855
  9.9674274478060312  4.2705123011316415  9.9683519216514274
  8.5427622695265466  5.6951749603154367  0.0000000447760369
  9.9674274505472109  7.1198375889113246  1.4219978978642946
  8.5427623053346391  5.6951748648513547  2.8459172292111203
  9.9554298503311145  7.1078422487676916  4.2825075752646287
  8.5427623673402451  5.6951749650942238  5.6951749561585698
  9.9554296825286901  7.1078422979944111  7.1078422868300919
  8.5427623706102036  5.6951748746601911  8.5444326001796114
  9.9674249432893767  7.1198398766295963  9.9683519623882848
  8.5427623116478433  8.5402661424825421  0.0000000391858858
  9.9766668790661495  9.9658859691452477  1.4243922285629911
  8.5427624367162309  8.5374343339164867  2.8529154800961383
  9.9674249809484916  9.9683518964631439  4.2705099419208628
  8.5427622848879565  8.5444326113420814  5.6951750077045391
  9.9674273880739932  9.9683518872720196  7.1198376479245225
  8.5427623498224641  8.5374342707195723  8.5374343611785157
  9.9766668024296390  9.9659576213033887  9.9658860622846355
  2.8475873776094391  0.0000002171543823 -0.0000000366348315
