Fe Ni
 1.0000000000000000
    11.3855218210865949    0.0000000000000000    0.0000000000000000
     0.0000000000000000   11.3840376127496334    0.0000000000000000
     0.0000000000000000    0.0000000000000000   11.3855218208605802
 Fe  Ni 
 126   2
Cartesian
  0.0126615587522111  0.0000000302500182  0.0126616708831269
  1.4231903610937351  1.4108585535745051  1.4231902251126405
  1.4256396419600856  1.4220169253380666  4.2656892194392855
 -0.0013438508998179 -0.0000549570228562  5.6767704375419985
  1.4231902968173313  1.4260495543793594  7.1159512086614516
 -0.0041053099986937 -0.0000531017144399  8.5366665779570443
  1.4207408529145233  1.4220167685026688  9.9662130335955599
 -0.0041116497322932  2.8515719526925078 -0.0042631529001597
  1.4231902578392472  4.2582136134503417  1.4231902539627199
 -0.0119949906311127  2.8410270708514336  2.8583506058488877
  1.4235924363632602  4.2691545693887534  4.2755380424240341
  0.0009465236088566  2.8487963037343862  5.6961244619176181
  1.4231903591572559  4.2780016212189702  7.1159513483057442
 -0.0126605068200555  2.8584120943936688  8.5264925099796720
  1.4227877758859238  4.2691547526310005  9.9563644409232843
  0.0006172892632518  5.6920188775656504  0.0006172340686043
  1.4231903104827612  7.1258241228114780  1.4231901122797139
  0.0013244002839001  5.6920187898730159  2.8450559025373860
  1.4236059484216057  7.1149431571711768  4.2755078630948429
 -0.0007597256883447  5.6920382081949974  5.6925260366394816
  1.4231904057405225  7.1059777179564305  7.1159512337656903
  0.0012291885485149  5.6920465171567107  8.5406013897475130
  1.4227744996642357  7.1149430770422413  9.9563946262715000
 -0.0042627041207205  8.5324655415553661 -0.0041117524875318
  1.4231902107772647  9.9731789349758984  1.4231903236980283
 -0.0119700545980150  8.5430106725384078  2.8583752990145124
  1.4257687168683288  9.9619559287272477  4.2656739526416168
  0.0009396086916737  8.5352461306836869  5.6961253907852072
  1.4231900908786317  9.9578696706142775  7.1159510764566134
 -0.0126614440539234  8.5255813483501051  8.5265124128003915
  1.4206118956259965  9.9619559914026823  9.9662285174780845
  4.2656738456542556  1.4220818835667468  1.4257688526349290
  2.8337187942518800  0.0000000943885084  2.8337187226965757
  4.2688290986694346  1.4268802028938501  4.2688157737550210
  2.8504857933181200 -0.0000533542002779  5.6952357447703790
  4.2760918739949494  1.4256667514128509  7.1228876182779155
  2.8477242326092846 -0.0000546931941537  8.5551319356256101
  4.2745777985577575  1.4244673676633770  9.9573442027186783
  2.8583754075234542  2.8410272478681460 -0.0119699037811708
  4.2755077598725446  4.2690945498326736  1.4236057164395168
  2.8504920696337321  2.8515719400843693  2.8506433748822646
  4.2750460814278375  4.2785261829713370  4.2750885763960742
  2.8590410516951001  2.8584122678781720  5.7054096507979297
  4.2733666205422747  4.2771810367494201  7.1155635238898487
  2.8454341744721448  2.8487963662118743  8.5357777285053036
  4.2748819834347120  4.2699395671486302  9.9570099158871344
  2.8450560195680623  5.6920186737304688  0.0013244008967765
  4.2755379639453510  7.1148828584196666  1.4235925096519924
  2.8457631613752494  5.6920187097418582  2.8457629746199182
  4.2750887490392513  7.1055111597100096  4.2750460608743976
  2.8451511533798826  5.6920465414362349  5.6913009086715007
  4.2734237684834859  7.1069210884708047  7.1155217957714116
  2.8471401673127255  5.6920382501302331  8.5393761720021555
  4.2748925431937588  7.1140979743457669  9.9570202692452412
  2.8583504082593283  8.5430107052085660 -0.0119950867009229
  4.2656893162387348  9.9620207421288072  1.4256394276289954
  2.8506432014002345  8.5324655778002949  2.8504920905136917
  4.2688158995127736  9.9571574814125405  4.2688293743588819
  2.8590418416899119  8.5255815101264218  5.7053900061578036
  4.2761444597113591  9.9583313364437132  7.1229334870542509
  2.8454407951380332  8.5352462902302264  8.5357770211305439
  4.2745579023359159  9.9595702374895048  9.9573245841520706
  5.6767704361872431  0.0000547805471437 -0.0013438278824084
  7.1159510830081860  1.4261680040733957  1.4231901682220869
  5.6952359550327367  0.0000532399768530  2.8504858361047329
  7.1229335076394182  1.4257061514055076  4.2761443621725057
  5.6926723459900561 -0.0000001482544447  5.6926724035080589
  7.1159509482129231  1.4254249767684752  7.1159511127429660
  5.6965900431108674  0.0000000702703687  8.5353120181963948
  7.1089687274084534  1.4257062548884583  9.9557578333892103
  5.6961252298439522  2.8487913619463145  0.0009396568144905
  7.1159510625508382  4.2780596049005872  1.4231902185885217
  5.7053897458821945  2.8584562291960083  2.8590417936635255
  7.1155219013307134  4.2771165173981123  4.2734234956507189
  5.6915928634455026  2.8461170615119822  5.6916446530220677
  7.1159512823758106  4.2755375110520442  7.1159512518118149
  5.7050859572320727  2.8594955243263045  8.5267640900786432
  7.1163803547469238  4.2771162560677380  9.9584785519331778
  5.6925259970566673  5.6919994735215953 -0.0007597387606439
  7.1159510394089320  7.1060360500305721  1.4231901687367938
  5.6913009022121823  5.6919911623682413  2.8451513035843066
  7.1155633840218693  7.1068566391281891  4.2733663770825574
  5.6943914216373877  5.6920187737195720  5.6943914417824262
  7.1159513167937360  7.1085000608576125  7.1159514254758562
  5.6919928116034040  5.6920188015227424  8.5399096372980292
  7.1163386479019985  7.1068566818248726  9.9585356969443080
  5.6961244122827956  8.5352413750722125  0.0009464571357428
  7.1159511569811524  9.9579879681710093  1.4231903374585744
  5.7054098093214440  8.5256252877504703  2.8590411467684502
  7.1228874428182092  9.9583710540039103  4.2760918624379141
  5.6916447182294716  8.5379205573820443  5.6915927754569822
  7.1159510468748008  9.9586123902528350  7.1159511376423872
  5.7051383102715265  8.5245421396556065  8.5268164115828373
  7.1090147342544467  9.9583708808910565  9.9558103900979713
  8.5366664185072469  0.0000532010777168 -0.0041052843820286
  9.9662283870181732  1.4220815998861633  1.4206117525626478
  8.5551320573615879  0.0000547543728868  2.8477242436244357
  9.9573246738747656  1.4244674445272190  4.2745580401283387
  8.5353120247264425 -0.0000000556614117  5.6965902359362595
  9.9558105076120977  1.4256666353447318  7.1090147621847786
  8.5392299706382744  0.0000001926061265  8.5392300981880815
  9.9630730945190127  1.4268801819983354  9.9630864578858862
  8.5265123624158807  2.8584562554555588 -0.0126611265514525
  9.9563946723097949  4.2690947124803698  1.4227745566694963
  8.5357768378708609  2.8487916543808334  2.8454409388420085
  9.9570202670700159  4.2699396300000094  4.2748923037332576
  8.5268163274099447  2.8594953250227548  5.7051383192466334
  9.9585358011149037  4.2771812663556883  7.1163386133814805
  8.5403096603665656  2.8461169473962626  8.5402576757511017
  9.9568562456235412  4.2785264928137874  9.9568136541344163
  8.5406014439427178  5.6919911801562844  0.0012292332028330
  9.9563644834446752  7.1148827885284653  1.4227878311467466
  8.5393761803714643  5.6919994987703655  2.8471401303771322
  9.9570098871558006  7.1140982160933035  4.2748819924003323
  8.5399095761225627  5.6920188542674977  5.6919927396534575
  9.9584786669705636  7.1069211234230281  7.1163803727145032
  8.5375105151568214  5.6920185708493678  8.5375105028040466
  9.9568136562393725  7.1055114665266066  9.9568563902873812
  8.5264925542057295  8.5256252802135020 -0.0126606116153785
  9.9662130465181793  9.9620211022404757  1.4207409812437815
  8.5357776508716618  8.5352413283335071  2.8454341682519000
  9.9573442923781545  9.9595703332933709  4.2745777476809925
  8.5267640720451219  8.5245421250113225  5.7050861199344487
  9.9557578809517100  9.9583315041345628  7.1089687396077936
  8.5402576505205179  8.5379206821502791  8.5403092363220487
  9.9630864821060925  9.9571574262052192  9.9630729667244058
  2.8550239147096343 -0.0000004240733877 -0.0086439776644059
 -0.0086440121810562 -0.0000001688867267  2.8550238115425794
