Fe Zr
 1.0000000000000000
    11.4018643603289753    0.0000000000000000    0.0000000000000000
     0.0000000000000000   11.3235930475818840    0.0000000000000000
     0.0000000000000000    0.0000000000000000   11.4018643449999661
 Fe  Zr 
 126   2
Cartesian
 -0.0248487958301223  0.0379663206335138  0.0003539052929118
  1.1903516715206073  1.4154489918055981  1.6601140034132260
 -0.0382975926181913 -0.0141003796573932  2.8890881738110363
  1.4095518394202275  1.4157028407438785  4.2468619083970411
 -0.0168440641248896 -0.0071427087784074  5.7009449688775709
  1.4095517768239194  1.4151955928698030  7.1550032484012487
 -0.0386214337215423 -0.0141003263215504  8.5131009262119051
  1.1903515206109569  1.4154490397681971  9.7417503677247055
 -0.0248487367922644  2.7929318618471326 -0.0003538627770512
  1.2805807917386645  4.3006239164874911  1.5701504770854908
 -0.0386217600027827  2.8449982198998769  2.8887633007837348
  1.4236891030808889  4.2417315836456631  4.2571367415314700
 -0.0168436305010385  2.8380406866334327  5.7009192018396622
  1.4238373329652110  4.2417286085963637  7.1446882099861453
 -0.0382967890960996  2.8449984908806885  8.5127764542395035
  1.2803157104140148  4.3006239476061978  9.8319794835220620
  0.0349251208513545  5.6282755053856457  0.0000024085348037
  1.4274357946183498  7.0772455336109985  1.4230302380148634
 -0.0377038027428352  5.6952585646239422  2.8880919751033849
  1.4368642758257486  7.0772932746893327  4.2648860919162894
  0.0004038588666621  5.6737281723043216  5.7009149236594965
  1.4368640155616426  7.0771975794396154  7.1369781413102427
 -0.0376260614943717  5.6952585294259883  8.5136946644318598
  1.4274359550830076  7.0772453172189600  9.9788336311610486
  0.0349249674589491  8.5262158669539296 -0.0000020231442536
  1.2803157457938223  9.8538672709287702  1.5698848959442475
 -0.0376259452599423  8.4592328291197685  2.8881694374374249
  1.4238373883619992  9.9127625660299667  4.2571765802452530
  0.0004040484957570  8.4807627236570955  5.7009496546266591
  1.4236891869241142  9.9127593944962644  7.1447282232998859
 -0.0377035981195561  8.4592328249687352  8.5137722271189329
  1.2805810909852477  9.8538675141879963  9.8317137000154773
  4.5105807336858028  1.4154491782835252  1.6601143572595463
  2.8508200061815065  0.0379663773660161  2.8753149449384550
  4.2913801141977768  1.4151951948530530  4.2468619670472201
  2.8504662632828306 -0.0011863712017423  5.7009323420287705
  4.2913801813460637  1.4157028227587407  7.1550025706875759
  2.8501126413439368  0.0379662384406051  8.5265495485558702
  4.5105805874559302  1.4154491633117048  9.7417500061718965
  4.4206167132507943  4.3006237963347616  1.5698847512225600
  2.8501121979456365  2.7929318459152901  2.8753144853638148
  4.2770948002722191  4.2417290358791755  4.2571773873003185
  2.8504658857693461  2.8320841910107020  5.7009318693955144
  4.2772429688733311  4.2417312990931606  7.1447278446867379
  2.8508199036321473  2.7929317531853264  8.5265494280299734
  4.4203513634937091  4.3006237939273175  9.8317136695716734
  2.8504659406409187  5.7017739558360159  0.0000002718429036
  4.2734964814641954  7.0772456731669298  1.4230301916460220
  2.8504682739317362  5.6282755860210569  2.8155406440452944
  4.2640678128511151  7.0771975623145309  4.2648862413841568
  2.8504662100096647  5.6630271077625256  5.7009319009741386
  4.2640681370664328  7.0772939505025994  7.1369781865337645
  2.8504637269569217  5.6282753998691968  8.5863235637766167
  4.2734965347513159  7.0772455778761731  9.9788341378967171
  2.8504662627812345  8.4527175121455524  0.0000001472571210
  4.4203509336503428  9.8538674591617124  1.5701503641804027
  2.8504636102849914  8.5262155470239982  2.8155407235895193
  4.2772429233425440  9.9127601458471908  4.2571370400069242
  2.8504660916069109  8.4914644127838592  5.7009321762128176
  4.2770945809846577  9.9127618699792315  7.1446880195745566
  2.8504684292019355  8.5262161120731079  8.5863230104041275
  4.4206167106109993  9.8538673479623871  9.8319792564207500
  5.7257810099748481  0.0379665866732781 -0.0003538278499033
  7.0973275167256906  1.4157031454856910  1.4409144906196791
  5.7395541419343408 -0.0141003206052421  2.8887631108513059
  7.1390067586573869  1.4154491967032059  4.2885400118053081
  5.7177754531333527 -0.0071426686618916  5.7009190194363626
  7.1390065200209794  1.4154489989078931  7.1133242297768806
  5.7392294004642137 -0.0141005187838327  8.5127767016590461
  7.0973275709831594  1.4151954533923357  9.9609502476670109
  5.7257811547260964  2.7929317256136104  0.0003536127752830
  7.1076026827385563  4.2417316329054762  1.4267769283899743
  5.7392294353185234  2.8449984797032126  2.8890878348031128
  7.1415819725107887  4.2705739971851688  4.2911161666655504
  5.7177758083225987  2.8380406455941127  5.7009448918645029
  7.1415821399084587  4.2705741155499890  7.1107481335418399
  5.7395537231426772  2.8449983932791811  8.5131015636104781
  7.1076427697000240  4.2417289433968515  9.9752353950961172
  5.6660071068457656  5.6282756229115671 -0.0000019177328019
  7.1153520511139527  7.0772932830917927  1.4136022139872855
  5.7385582831395707  5.6952585536619438  2.8881692738272973
  7.1544135780339904  7.0772456334885954  4.3039473249694566
  5.7005286602489873  5.6737280615386174  5.7009496012082188
  7.1544131437666652  7.0772454600813166  7.0979174397177083
  5.7386358226577840  5.6952584546760958  8.5137725220946372
  7.1153521338741363  7.0771973815582507  9.9882623772245580
  5.6660071604278590  8.5262155813567446  0.0000021677266053
  7.1076428622742744  9.9127620746944718  1.4266286567074584
  5.7386362106226638  8.4592328100336474  2.8880919928851765
  7.1415818896398040  9.8839169424320179  4.2911156573469702
  5.7005283757417962  8.4807632086032854  5.7009150506967980
  7.1415815962676481  9.8839175841611571  7.1107488367416343
  5.7385580946367876  8.4592328259180860  8.5136948543601374
  7.1076029600988262  9.9127600465212922  9.9750874349359542
  8.5513982423960080 -0.0011865741937910 -0.0000001546024091
 10.0054687427097200  1.4151952691559055  1.4409146378997486
  8.5514109065017809 -0.0071422936036021  2.8673096507647111
  9.9637905331503163  1.4154487147239136  4.2885400639480231
  8.5513986499789709 -0.0226717706066256  5.7009323196977872
  9.9637901517681122  1.4154487605759554  7.1133240032283567
  8.5513850701281893 -0.0071425676268783  8.5345545407435335
 10.0054688522737045  1.4157027264899034  9.9609502661783065
  8.5513983579198438  2.8320843727960385 -0.0000001586569614
  9.9951532529891889  4.2417291136341975  1.4266286691780137
  8.5513849971596390  2.8380403409464985  2.8673100008218602
  9.9612149391689435  4.2705742610220385  4.2911161173940311
  8.5513980168144919  2.8535703437461990  5.7009327922897137
  9.9612146120591571  4.2705740336897158  7.1107486522013641
  8.5514112028262677  2.8380407745561516  8.5345544803751725
  9.9951939407380390  4.2417313500742537  9.9750875872612319
  8.5513980742859044  5.6630265275761600  0.0000002348937351
  9.9874446966307957  7.0771976255265185  1.4136019185779021
  8.5513810063838900  5.6737281885789432  2.8500623012109063
  9.9483834182045587  7.0772457510706328  4.3039469186895394
  8.5513979741370818  5.6706749216485939  5.7009323661475264
  9.9483837566123494  7.0772454881367324  7.0979174885339882
  8.5514157521604641  5.6737282490636369  8.5518018636469453
  9.9874442877681453  7.0772940294252242  9.9882622231169975
  8.5513980937347647  8.4914646710864119  0.0000000119771094
  9.9951936810711111  9.9127596148218799  1.4267768783480184
  8.5514151840800849  8.4807630124769187  2.8500622965747082
  9.9612148689130890  9.8839171865332887  4.2911157605904222
  8.5513983026373470  8.4838158263566488  5.7009320107761186
  9.9612145558976195  9.8839171536584125  7.1107485289145638
  8.5513811394912267  8.4807632282279144  8.5518022972338574
  9.9951538251667760  9.9127621334246925  9.9752358417697469
  2.8504665117449322 -0.1647763647756336 -0.0000001942983131
  2.8504663268347219  2.9956752010629435  0.0000003812372066
