Fe Ti
 1.0000000000000000
    11.3787102106574114    0.0000000000000000    0.0000000000000000
     0.0000000000000000   11.3972819882765073    0.0000000000000000
     0.0000000000000000    0.0000000000000000   11.3787102068208501
 Fe  Ti 
 126   2
Cartesian
  0.0142446184263670 -0.0000001005395524  0.0142489021015942
  1.4223379297252623  1.6278974637972132  1.4223397536827336
  1.4621040547464530  1.4629545302623264  4.2775422371951857
  0.0125604846650021 -0.0001004674176979  5.6805413431794172
  1.4223382759766769  1.4278024605844364  7.1116938588319814
  0.0192142640161700 -0.0000561746643766  8.5429339868324323
  1.3825730337484585  1.4629550228158421  9.9458449431734532
  0.0032603228879739  2.8557584232686195  0.0031986449229049
  1.4223388316862604  4.2700996222693677  1.4223390139335035
 -0.0245084428032759  2.8827424232897041  2.8692286027263068
  1.4270850414915863  4.2746177023509047  4.2731742669872856
 -0.0037351305463529  2.8454327273805262  5.6823037449057896
  1.4223385975540681  4.2752746726254403  7.1116939899051967
 -0.0244991146878801  2.8690422796802086  8.5124684241906472
  1.4175927015597010  4.2746173447967060  9.9502130417626340
 -0.0017105534420370  5.6986409242142750 -0.0017109929504518
  1.4223390034302350  7.1271829975638274  1.4223384634898106
 -0.0045930989567082  5.6986409741183026  2.8492702208635996
  1.4272596129386828  7.1226368449359763  4.2730742924530096
 -0.0019926012533937  5.6987181113338528  5.6925191324836284
  1.4223385042821737  7.1221168755512814  7.1116933902353647
 -0.0084267088083259  5.6986562646241792  8.5265666268280231
  1.4174185846083203  7.1226368571421208  9.9503135211005418
  0.0031991657767852  8.5415235405976180  0.0032601451236656
  1.4223398949207964  9.7693845419649907  1.4223377783641304
 -0.0245533324409519  8.5145386933130229  2.8691852311679593
  1.4620150155439313  9.9342718106153995  4.2775083227687114
 -0.0037627881967570  8.5519266575496502  5.6822158899111308
  1.4223385963829087  9.9689839370377786  7.1116938860640699
 -0.0246647819042213  8.5282246304764069  8.5126157336262196
  1.3826632473735967  9.9342719436376825  9.9458800417535400
  4.2775047386230192  1.4630068623331516  1.4620120529489422
  2.8304323262173767 -0.0000001976826081  2.8304289711328492
  4.2508581773256706  1.4187176436250186  4.2509438073562800
  2.8254640889344813 -0.0000566421545702  5.6804528793933500
  4.2612889519623716  1.4155704928699533  7.1141647681387843
  2.8321173527129928 -0.0001005610964869  8.5428473306517123
  4.2876745572733697  1.4422655423012496  9.9357007276102784
  2.8691867449824535  2.8827433023387719 -0.0245515649057646
  4.2730738151176135  4.2746446132300493  1.4272584343615886
  2.8414168690415891  2.8557591820059920  2.8414788950384309
  4.2709778431267553  4.2807695331479705  4.2710755435013787
  2.8691770315034004  2.8690420546848707  5.7109199673413178
  4.2735498321004473  4.2749835791074142  7.1146893876367887
  2.8484136398170570  2.8454330159581946  8.5410845888499995
  4.2774698027242835  4.2805988829282713  9.9459334788779721
  2.8492702932084657  5.6986411450052978 -0.0045924890449487
  4.2731733710480926  7.1226641328795264  1.4270841007099828
  2.8463882192636065  5.6986409434856444  2.8463884852008592
  4.2710758626904548  7.1165124815217418  4.2709775316038785
  2.8531042479266491  5.6986568592570075  5.6968205787907662
  4.2735539105198024  7.1223855327446373  7.1146053285752036
  2.8466698369217833  5.6987176136600821  8.5308691313458418
  4.2774545436101592  7.1166821341025424  9.9459186248520002
  2.8692297481119282  8.5145395493199967 -0.0245072290063427
  4.2775383022249827  9.9343313337913290  1.4621009322340794
  2.8414782815083939  8.5415229365600851  2.8414172830629965
  4.2509430892424085  9.9785648249956953  4.2508594296703288
  2.8693424252419746  8.5282246269379041  5.7107718791700748
  4.2614276984911852  9.9818236705529806  7.1141745375878847
  2.8484399414937918  8.5519268906501633  8.5411724477146205
  4.2876872512765214  9.9550170341492841  9.9357143319366674
  5.6805382377108362  0.0001002990670340  0.0125610102604581
  7.1116937088654408  1.4282970408441851  1.4223391233284648
  5.6804542450927995  0.0000566094976580  2.8254635431009265
  7.1141741095907562  1.4154581708072900  4.2614281871816129
  5.6838979689726381 -0.0000001475313618  5.6838971440092880
  7.1116943165516631  1.4153100634138649  7.1116934710862845
  5.6770184186024286 -0.0000003481967603  8.5463696998833480
  7.1092134284121062  1.4154586662294890  9.9619596821956797
  5.6822143554487496  2.8453557221666630 -0.0037631922596484
  7.1116939965804020  4.2751654168495028  1.4223392331653313
  5.7107729503605738  2.8690586161902729  2.8693435731442078
  7.1146050743595692  4.2748970473909500  4.2735532720422738
  5.6884471142354389  2.8451686290585276  5.6885319849192610
  7.1116933356949730  4.2680753485083835  7.1116940344284112
  5.7061441090190836  2.8572166799031393  8.5172654969354795
  7.1087826124727691  4.2748973869007303  9.9498344975008521
  5.6925191773524215  5.6985641878998408 -0.0019929571939000
  7.1116940030580862  7.1220071204245272  1.4223390051863063
  5.6968222106554700  5.6986253662853015  2.8531050849090351
  7.1146883657071047  7.1222973490170007  4.2735494580351823
  5.6967973362802429  5.6986411916027997  5.6967967928050838
  7.1116941982845354  7.1292064585788593  7.1116938694009404
  5.6998357067173062  5.6986411236674632  8.5235519854912276
  7.1086989815769401  7.1222974249918130  9.9498386671709760
  5.6823031048007273  8.5518491502188194 -0.0037365732729014
  7.1116941951047394  9.9694802117448127  1.4223385205985544
  5.7109213311132656  8.5282380320903535  2.8691793407343842
  7.1141639242332175  9.9817112405967130  4.2612896227901853
  5.6885318015426156  8.5521139320946045  5.6884472828657344
  7.1116937598680652  9.9819718511789581  7.1116939394526213
  5.7061225030998877  8.5400658213503409  8.5172431954241610
  7.1092232480556827  9.9817112503203660  9.9620981249115612
  8.5429341273249264  0.0000564192592080  0.0192141781551107
  9.9458839660337208  1.4630063527000527  1.3826658426975931
  8.5428489754856116  0.0001009250516176  2.8321162414746412
  9.9357142091910227  1.4422649057045536  4.2876865278101448
  8.5463689501511890  0.0000002591447656  5.6770179857516458
  9.9620986926670270  1.4155703539523765  7.1092232579233627
  8.5394895688907830  0.0000000151860317  8.5394897988020517
  9.9725298685591444  1.4187178763230099  9.9724442138390739
  8.5126152081836501  2.8690589236031938 -0.0246668227455673
  9.9503137248237277  4.2746451297894339  1.4174189356804401
  8.5411724921112384  2.8453559531828243  2.8484404425098808
  9.9459176431541110  4.2805998212715970  4.2774541295590867
  8.5172433600194282  2.8572161768350308  5.7061227613697980
  9.9498382436733035  4.2749838339793031  7.1086986065738458
  8.5349404212782058  2.8451685768433674  8.5348560314271111
  9.9524100236940818  4.2807691716375578  9.9523125618957415
  8.5265656520924473  5.6986255101282657 -0.0084276695957518
  9.9502139355058912  7.1226649345960746  1.4175933410183563
  8.5308687276364701  5.6985639648638449  2.8466702682329386
  9.9459328555943731  7.1166823131117223  4.2774693248841213
  8.5235525015170452  5.6986415477645327  5.6998352144249260
  9.9498341036672215  7.1223857109377251  7.1087821433107239
  8.5265903304973527  5.6986405093221473  8.5265907315749008
  9.9523116624248171  7.1165123928474490  9.9524103961238044
  8.5124671465025905  8.5282385657506090 -0.0245009616194931
  9.9458486387249501  9.9343307082311583  1.3825757073781744
  8.5410848755834738  8.5518489131964497  2.8484135593154516
  9.9357000805360158  9.9550165950524097  4.2876739350709423
  8.5172654966309960  8.5400658220043368  5.7061438933142199
  9.9619605482092144  9.9818238939265012  7.1092132028447388
  8.5348555684703822  8.5521137550418622  8.5349405793860260
  9.9724447576743529  9.9785641744030187  9.9725293640099313
  2.7608396488029094 -0.0000017290981120  0.0838454701320582
  0.0838378302553798  0.0000023491307429  2.7608324479689945
