Fe Rh
 1.0000000000000000
    11.4213807571356387    0.0000000000000000    0.0000000000000000
     0.0000000000000000   11.4156949182771239    0.0000000000000000
     0.0000000000000000    0.0000000000000000   11.4213807513926966
 Fe  Rh 
 126   2
Cartesian
  0.0471280786083088 -0.0000001878436646  0.0471279689786604
  1.4276730594395151  1.4890309903415524  1.4276722981276670
  1.4598442528182425  1.4450252298092834  4.3054969213144352
  0.0030925331876724 -0.0000243899436580  5.6756006508697121
  1.4276727508492719  1.4250350934739293  7.1383632285256464
 -0.0072264075568289 -0.0001635496058465  8.5572261837791981
  1.3955013435000485  1.4450247636709337  9.9712293684723878
  0.0013905329039570  2.8650756064530820  0.0012278669023621
  1.4276726400760897  4.2812030671400523  1.4276726967824764
 -0.0163637009199781  2.8442615665082251  2.8717941099175630
  1.4233760822517796  4.2873051582231847  4.2920484726345292
 -0.0010761300556260  2.8603147618483367  5.7117979564802903
  1.4276726007939986  4.2954066529883983  7.1383631650228434
 -0.0160626704678773  2.8654408955255279  8.5499525728087757
  1.4319692691862640  4.2873052564396232  9.9846773956847503
  0.0011832422880038  5.7078474601563380  0.0011832542252561
  1.4276728410832924  7.1344919477132027  1.4276725433374668
 -0.0037848772463006  5.7078473540458985  2.8591299107653958
  1.4236070246319938  7.1283896586438784  4.2917543826388282
  0.0012224905912572  5.7078781686630062  5.7081376813145557
  1.4276723311084920  7.1203194432144263  7.1383628010741269
 -0.0038509840423315  5.7078869985552991  8.5642049548521832
  1.4317381545953147  7.1283894726790082  9.9849714191672341
  0.0012281216678868  8.5506194592489972  0.0013904700388191
  1.4276737112347440  9.9266637164482283  1.4276718187244644
 -0.0164490864964054  8.5714333604015369  2.8717088990114537
  1.4596272423136751  9.9705314253879731  4.3052931262607927
 -0.0011170318561692  8.5553255024655694  5.7117850289122964
  1.4276726449585733  9.9901909357643532  7.1383630334520305
 -0.0159969230601390  8.5502497519400169  8.5500667371399199
  1.3957188787511432  9.9705323235353625  9.9714337075871118
  4.3052927507982313  1.4451628252103952  1.4596269012093541
  2.8082172988628820  0.0000000763578934  2.8082169376747137
  4.2783573345821253  1.4218956974945294  4.2783254308581311
  2.8625713803606976 -0.0001635912232897  5.7195001177618305
  4.2892173234830757  1.4313294053826449  7.1499850975168293
  2.8522521750512491 -0.0000239524612709  8.6011253176366296
  4.3157323126680449  1.4482954105262302  9.9612903374694852
  2.8717087308699960  2.8442614391172540 -0.0164488315116848
  4.2917544666221579  4.2873052362439772  1.4236067277690108
  2.8539547000521024  2.8650756592941993  2.8541174044656836
  4.2951991843201602  4.2940587519754443  4.2951980545733326
  2.8714076601974501  2.8654410962564190  5.7267733089711843
  4.2942940958219937  4.2929412622945300  7.1390568716175427
  2.8564216792994674  2.8603143526269652  8.5649278404393900
  4.2920498351642697  4.2842941370290690  9.9847952018020312
  2.8591300253392959  5.7078477101004568 -0.0037849957529452
  4.2920486385245677  7.1283899043512644  1.4233760019537824
  2.8541618815858607  5.7078473767508919  2.8541618749444915
  4.2951976070549494  7.1216360775322336  4.2951991185669165
  2.8591959448922428  5.7078869886102002  5.7125209685274951
  4.2943727095439730  7.1228025604923744  7.1390543493085756
  2.8541225099039886  5.7078777374678884  8.5685882336497983
  4.2919304526468505  7.1314009952545554  9.9846764431423658
  2.8717939145097362  8.5714333926255630 -0.0163635699360974
  4.3054964570913352  9.9706700112027704  1.4598441807896703
  2.8541172830890011  8.5506195206497360  2.8539547791434225
  4.2783253182482959  9.9937989728627343  4.2783571326710454
  2.8713419934978961  8.5502497490582439  5.7266587880257838
  4.2895511720662167  9.9844468117763228  7.1498703774857733
  2.8564623643494711  8.5553256011623873  8.5649409379577222
  4.3154351988665312  9.9673996438645940  9.9609939003373835
  5.6756011039713501  0.0000242693827908  0.0030928396196604
  7.1383626723869718  1.4255036096444369  1.4276725227217804
  5.7194999218943359  0.0001633592800451  2.8625714132071534
  7.1498703869408908  1.4312481413696785  4.2895506211281553
  5.7078484111389072 -0.0000001267261934  5.7078482669091688
  7.1383628532038674  1.4376238859000392  7.1383628985858172
  5.7162526093816490  0.0000001278710535  8.5604732379427819
  7.1268556376272292  1.4312478054447875  9.9871753545034743
  5.7117852950686627  2.8603695445595583 -0.0011171161218024
  7.1383628226597695  4.2953752041223625  1.4276724218673187
  5.7266590442690530  2.8654452253026168  2.8713423082555964
  7.1390544318492992  4.2928923497263343  4.2943725659672971
  5.7115921012551221  2.8569609326640584  5.7116829272243885
  7.1383627092903152  4.2921639172851540  7.1383627451402472
  5.7273078064451202  2.8668983343164767  8.5493598546443206
  7.1376714611789502  4.2928924081809452  9.9823535093150895
  5.7081377830244957  5.7078172468077879  0.0012224193360322
  7.1383629763846983  7.1202883257542595  1.4276726100895483
  5.7125209287207817  5.7078077252682284  2.8591958501852264
  7.1390570271065208  7.1227536732780266  4.2942939346808053
  5.7092507786548108  5.7078473524698863  5.7092505953283261
  7.1383632566104565  7.1235312439250746  7.1383628203072798
  5.7131965681855990  5.7078472953431163  8.5635290658090462
  7.1376692778581869  7.1227532449829702  9.9824319041308520
  5.7117975563514154  8.5553803655528284 -0.0010765888898105
  7.1383627091413722  9.9906597742464953  1.4276723415731105
  5.7267734348976225  8.5502539318949591  2.8714077469060340
  7.1499849177590074  9.9843654238357953  4.2892175655952114
  5.7116826839235273  8.5587341771211243  5.7115920011059913
  7.1383627965637952  9.9780708657832271  7.1383629690506929
  5.7273659992712656  8.5487970206274699  8.5494180798765775
  7.1267410777541418  9.9843657258939214  9.9875085683453833
  8.5572257494814323  0.0001636461502239 -0.0072261338595037
  9.9714340972718034  1.4451618519043181  1.3957194357441478
  8.6011257090343047  0.0000242025614984  2.8522523756459108
  9.9609950389841853  1.4482939783729103  4.3154340989100755
  8.5604732177193466  0.0000000328493108  5.7162528130783290
  9.9875086888699034  1.4313293271487268  7.1267413162788076
  8.5688775659828682 -0.0000000925616240  8.5688771457431105
  9.9983687078671846  1.4218958012797549  9.9983999863898934
  8.5500666138389807  2.8654456047517862 -0.0159970813607999
  9.9849715111996140  4.2873052746592881  1.4317384750435040
  8.5649408262458735  2.8603696016178390  2.8564621860117838
  9.9846760162340011  4.2842941536808512  4.2919304046950870
  8.5494176390744521  2.8668984363780763  5.7273662411438195
  9.9824318341216376  4.2929413459171348  7.1376689209364335
  8.5651340724145673  2.8569608987636932  8.5650431117794685
  9.9815268641124533  4.2940587584428567  9.9815281721666302
  8.5642050554063953  5.7078081006278403 -0.0038511164055745
  9.9846772405516440  7.1283895549483969  1.4319691963524337
  8.5685881078637109  5.7078171581351453  2.8541228604422022
  9.9847954186584182  7.1314005901373498  4.2920499647923975
  8.5635292225538517  5.7078474435039297  5.7131966401951306
  9.9823532029831341  7.1228027825979954  7.1376716829856894
  8.5674750761135670  5.7078474406878579  8.5674754027357061
  9.9815280831181603  7.1216359990582436  9.9815267043213964
  8.5499523312797159  8.5502536354637666 -0.0160624821870091
  9.9712298946672711  9.9706703899873581  1.3955017157927967
  8.5649279340279527  8.5553801644794447  2.8564216227725003
  9.9612914149895886  9.9674004013145243  4.3157315866878534
  8.5493598354601037  8.5487966716575432  5.7273079500087025
  9.9871751905920849  9.9844468370663826  7.1268553687142155
  8.5650431812526779  8.5587337469767757  8.5651338152001184
  9.9984003508272483  9.9937990885640033  9.9983685822634225
  2.8678918310441981 -0.0000007498704715 -0.0125478551054177
 -0.0125519267991261  0.0000007325910394  2.8678934672077818
