Fe Rh
 1.0000000000000000
    11.4109570651286383    0.0000000000000000    0.0000000000000000
     0.0000000000000000   11.4109570605748321    0.0000000000000000
     0.0000000000000000    0.0000000000000000   11.4109570649541610
 Fe  Rh 
 126   2
Cartesian
  0.0392673062575030 -0.0078098269109069 -0.0075635061019424
  1.4263696132743755  1.4263696698152173  1.4263696159529600
 -0.0078098637548283  0.0392671653698378  2.8603028429816417
  1.4522539250145416  1.4005337938586211  4.2817571309625340
  0.0051491685757290 -0.0025216960096615  5.7093594061496002
  1.4261911027342209  1.4261910489559790  7.1318482030150294
 -0.0025216620748070  0.0051490853531519  8.5543369119717774
  1.4005337993755658  1.4522539042170732  9.9819391676322997
 -0.0075634879696892  2.8605491431448353  0.0392671802477772
  1.4522055178446183  4.2817570971863255  1.4004852876912082
  1.4480970459372242  4.3099486589717628  4.3098680053226612
  0.0002336538433303  2.8526368942025497  5.6687962734981676
  1.4230333491052123  4.2831194136431234  7.1189104132482663
 -0.0128077879769994  2.8655078534502421  8.5463115025353513
  1.4263697029386486  4.2770470939760656  9.9866491689373067
  0.0052107018565661  5.7093666823015443 -0.0024987000213199
  1.4265482094412905  7.1318481569645611  1.4265482140638535
  0.0001023912073113  5.6687963087648612  2.8525055826986416
  1.4227890473381839  7.1188072334723058  4.2833273009478159
  0.0045208867267613  5.7058255561681408  5.7059038802518272
  1.4263696514750759  7.1318805121704916  7.1318157031244871
 -0.0022412178994960  5.6973339716449347  8.5565048256786778
  1.4297058292014273  7.1447858325931985  9.9805768458642756
 -0.0024986318783790  8.5543296004540537  0.0052106341884759
  1.4004853056554507  9.9819392011174664  1.4522055754762575
 -0.0127685535541764  8.5463114921545618  2.8655470523149766
  1.4263696701358519  9.9869095057369677  4.2767867330037523
 -0.0022102708258091  8.5565275445936759  5.6973453363061477
  1.4299502813781311  9.9803690226388451  7.1448890478716942
 -0.0162047789596878  8.5432015467768494  8.5432414423876661
  1.4046422733527302  9.9538283367306839  9.9537476225560066
  4.2817571356944404  1.4522054596849283  1.4522539639068366
  2.8605490333287067 -0.0075634767126045  2.8134720203243964
  4.2770471259981147  1.4263697476564090  4.2770471761480602
  2.8655078232197275 -0.0128077532809873  5.7173847899719989
  4.2831194388529914  1.4230333814359561  7.1447859179931452
  2.8526369924011470  0.0002336684023275  8.5949000072878476
  4.3099486936540998  1.4480970356079705  9.9538283360688098
  2.8603027478225562  2.8134719950051998 -0.0078098093488461
  4.2767866811825783  4.2767867727437814  1.4263696284627729
  2.8134720666339534  2.8603028087786666  2.8605491012781434
  4.2756278012727762  4.2851243679600177  4.2848996261451671
  2.8552378655194741  2.8475285249705951  5.7093667204989984
  4.2883819716059328  4.2883819408956318  7.1318481295342133
  2.8475285984881040  2.8552379448592102  8.5543296216118172
  4.2851244210050874  4.2756277707971915  9.9787966468882328
  2.8655470017240638  5.7173848775399465 -0.0127685586912761
  4.2833272901617150  7.1448890536560725  1.4227889997987717
  2.8552609668664939  5.7093593510996454  2.8475901558767691
  4.2883920406892040  7.1318481157619571  4.2883920081123108
  2.8689441229499066  5.7204547463546191  5.7204948280840151
  4.2885560049870568  7.1324562303625854  7.1324976074302802
  2.8549803860465524  5.7071915437975234  8.5663623289054964
  4.2836675032819169  7.1442917434722624  9.9799163704312868
  2.8525055254375866  8.5949000317832969  0.0001023512509465
  4.3098680607064344  9.9537475691240083  1.4480970644274698
  2.8475901630999081  8.5543369133910829  2.8552609857070954
  4.2848996708814147  9.9785718300403854  4.2756277110490508
  2.8549495849529523  8.5663509644409270  5.7071686907270820
  4.2837799325239176  9.9800287532604948  7.1442915935773446
  2.8482182972942360  8.5577924257596045  8.5578706404336344
  4.3108462864417918  9.9528499973635718  9.9528500893467395
  5.6687963206659564  0.0001023524208062  0.0002336785157875
  7.1318481652608154  1.4265481067718686  1.4261911353746843
  5.7093667076856329  0.0052105978888328  2.8552380198774947
  7.1447858961035324  1.4297057111427485  4.2831195095729591
  5.6973340102115939 -0.0022411802676455  5.7071915345811020
  7.1318805875388431  1.4263695615726206  7.1318806058490924
  5.7058256296201391  0.0045208979652620  8.5577924349490058
  7.1188072776521265  1.4227890290145890  9.9803691036458542
  5.7093593462156873  2.8552610712910518  0.0051491080182927
  7.1448890259075446  4.2833272988411464  1.4299502702188576
  5.7173849138584538  2.8655469656591137  2.8655078100722480
  7.1442917252555382  4.2836675428718571  4.2837800288146006
  5.7071915603569918  2.8549803629187074  5.6973339755602819
  7.1324561783647802  4.2885559484897762  7.1311986470138917
  5.7204547891593664  2.8689440297400082  8.5432014709917965
  7.1318481189095069  4.2883920055197144  9.9753042514699342
  5.6973453674712440  5.7071687409023975 -0.0022103395578939
  7.1318156373447250  7.1318157108124494  1.4263697009685865
  5.7071687080693456  5.6973452332856738  2.8549494996725668
  7.1324976146697781  7.1312400062217725  4.2885560023129967
  5.7019309426559408  5.7068421011138186  5.7068314674412708
  7.1318481695001053  7.1318482192366179  7.1318482343333356
  5.7068421983231437  5.7019310169589597  8.5568648616198644
  7.1312401044723615  7.1324976896630918  9.9751402988288245
  5.7059038695248097  8.5578706152444859  0.0045209468251987
  7.1189104223997832  9.9805768350409956  1.4230334221999370
  5.7204948248156775  8.5432414196279165  2.8689441833314948
  7.1318481594032370  9.9753142825123096  4.2883820223579683
  5.7068314928441790  8.5568540220336295  5.7019310256017395
  7.1311986989916214  9.9751403145184927  7.1324562371041873
  5.7207698207061366  8.5429265173985485  8.5429264537458156
  7.1194046344294293  9.9799162761956275  9.9800288706898463
  8.5463115648075885 -0.0127684990165374 -0.0128077121459139
  9.9819391354042057  1.4004853631631633  1.4005338394548770
  8.5543295661405843 -0.0024987312605036  2.8475286857245079
  9.9538282668408868  1.4046421733939376  4.3099486505063176
  8.5432015307017668 -0.0162047711664480  5.7204548647063520
  9.9803690385498651  1.4299501882778818  7.1188073455365846
  8.5565275832001078 -0.0022102585478575  8.5663511000295216
  9.9869095659729421  1.4263696370304844  9.9869095661375304
  8.5543368640907431  2.8475902575688083 -0.0025217465842324
  9.9537476622708709  4.3098680566893321  1.4046422486372696
  8.5948999919014053  2.8525055546179128  2.8526369834765384
  9.9528499816242082  4.3108463164383304  4.3108462705696047
  8.5577924112988324  2.8482182345033871  5.7058256392964068
  9.9800287924378051  4.2837799493284159  7.1194046303865584
  8.5663509407356511  2.8549495357247427  8.5565276214228057
  9.9785718436817668  4.2848996072671248  9.9880685943424368
  8.5432414796323997  5.7204948474120441 -0.0162047996206962
  9.9805769634740678  7.1189103577178265  1.4297058675288272
  8.5578706715163726  5.7059038508760453  2.8482183006387314
  9.9799163635783454  7.1194046131538009  4.2836675015523600
  8.5429264889818750  5.7207699217275430  5.7207699363499804
  9.9751403598374893  7.1311986955475772  7.1312401609151026
  8.5568541318632132  5.7068314296929632  8.5617653154463724
  9.9753143970167724  7.1318481604502812  9.9753143555960460
  8.5565048321643467  8.5663622818236576 -0.0022410873869761
  9.9866492324828382  9.9866492326916614  1.4263696370921304
  8.5663622934778765  8.5565048052045345  2.8549804350304613
  9.9787966800405083  9.9880685755258600  4.2851245096822943
  8.5568649611084897  8.5617653426613245  5.7068421901890956
  9.9753043092536462  9.9753043844417242  7.1318481737753512
  8.5617653931377014  8.5568649163528576  8.5568541809914986
  9.9880685589667095  9.9787967042831465  9.9785718916862773
  2.8682037926789903 -0.0154645668349144 -0.0154644845200994
 -0.0154644669304845  2.8682037521491170  2.8682037427648797
