Fe Mo
 1.0000000000000000
    11.3780187824021723    0.0000000000000000    0.0000000000000000
     0.0000000000000000   11.3763688469748647    0.0000000000000000
     0.0000000000000000    0.0000000000000000   11.3780187844205347
 Fe  Mo 
 126   1
Cartesian
 -0.0113173184017350  0.0001160671773022 -0.0415177800174858
  1.3441354369436833  1.3825179343835614  1.5000505654967462
  1.3762864838555142  1.3672153258043098  4.2095245244815382
  0.0062472327554233 -0.0000388916530551  5.7328605649786049
  1.4214198704034129  1.4263005147349250  7.1222312984024381
 -0.0091461006997010 -0.0000238944714536  8.5297368065481614
  1.3867563806571888  1.4565360225809296  9.9180716077542410
 -0.0069677547283232  2.8364633655823139  0.0147255639263693
  1.4239640371919662  4.2584635257033865  1.4205469611295418
 -0.0131457226668445  2.8968920690279565  2.8575836963965600
  1.4252658902468578  4.2666542903370628  4.2690167667306920
 -0.0026814491684042  2.8327642902890182  5.6749184968860451
  1.4204470201642425  4.2645801938804428  7.1127691177483747
 -0.0130243034623285  2.8489290518213117  8.5227956471052213
  1.4189237300073123  4.2588131895061805  9.9555998512714918
  0.0061476067999891  5.6881813046976211  0.0109242982511741
  1.4239576652267265  7.1179053916424824  1.4205407293886059
 -0.0029319412672903  5.6881845469213728  2.8474366435707861
  1.4253837206484301  7.1096998150024220  4.2688880147056407
  0.0056326903041344  5.6882280717751135  5.6804844594730364
  1.4204369801540182  7.1117541160743993  7.1127653476813908
 -0.0051554929233700  5.6882140066507567  8.5309659172630585
  1.4188930611140105  7.1176108300251597  9.9556877113108762
 -0.0070087309522692  8.5398688299716117  0.0147329383456235
  1.3444542195171871  9.9938509468334402  1.5003691870751368
 -0.0130790557676268  8.4794768595838068  2.8576504029552936
  1.3762778873786485 10.0090400449693480  4.2098102413269540
 -0.0027306966928767  8.5435726687301941  5.6749772138447616
  1.4214656814466204  9.9497929365028881  7.1222597592377612
 -0.0130744218043030  8.5274760232748683  8.5228434015257015
  1.3866472789643061  9.9200526329287069  9.9183523095796264
  4.3041710926339656  1.4563161924531582  1.4578575178310653
  2.8860225147736704 -0.0001161095711125  2.8558218962976487
  4.2712031993222137  1.4260775999727477  4.2644217457400595
  2.8322725614222439 -0.0000152911626065  5.6833334539067550
  4.2705424120499629  1.4244241841041303  7.1157415633654111
  2.8409790383275793 -0.0000774429340452  8.5267087723301476
  4.2992957237398164  1.4567200813137910  9.9232051926343168
  2.8270341857768622  2.8306525194859717  0.0174491403389172
  4.2668357075669210  4.2587579174870509  1.4256116401893320
  2.8297717544408658  2.8364998974359530  2.8515134624721590
  4.2642209274515102  4.2637512519405218  4.2647937596303453
  2.8250957599261417  2.8202993466567565  5.6742032091475352
  4.2581717501196144  4.2583715601108798  7.1053617156718456
  2.8415952669057498  2.8441188924240537  8.5312385420192864
  4.2599321224685198  4.2542398114224724  9.9625935881897938
  2.8394205827900940  5.6881843348770431  0.0050840759525115
  4.2669234814781785  7.1175556516308864  1.4255809204611243
  2.8335805505795437  5.6881877782507715  2.8383570952453550
  4.2642780780610625  7.1126578332484254  4.2648052416920406
  2.8401970855125223  5.6882211096392652  5.6857052901268430
  4.2582174704326228  7.1179828315334541  7.1054097080660510
  2.8405517235328288  5.6881940456284639  8.5402309986249065
  4.2599300169988341  7.1221290569546376  9.9625913344174943
  2.8270555174983723  8.5457163245036085  0.0174706596010349
  4.3044519859345396  9.9198327863446369  1.4577483577153487
  2.8297791033540558  8.5399054660427893  2.8514723832338320
  4.2711962065992370  9.9502047842259316  4.2645809945168116
  2.8251308813126048  8.5560138128110879  5.6743080674608661
  4.2706218981142507  9.9519508706177700  7.1157572230408919
  2.8415593695312471  8.5322055173401168  8.5313650531496048
  4.2993183592195869  9.9196485686256324  9.9232278022362355
  5.6958147084151696  0.0000775231427066  0.0035255515711309
  7.1002637379085733  1.4265759355080787  1.4230390825697961
  5.6927866298892820  0.0000239894360200  2.8536507487817886
  7.1065722558007502  1.4242438062491203  4.2695348127100345
  5.6833421259504995  0.0000020546667961  5.6809327957570233
  7.1113364600344076  1.4212225616015812  7.1112573563138737
  5.6937023508514315 -0.0000000628756545  8.5288210845766255
  7.1067661053959581  1.4244179710418927  9.9519016254883130
  5.6911585575287456  2.8441632793942384  0.0029453919609599
  7.1097581278645050  4.2646148114630895  1.4240677371708823
  5.6996800923600341  2.8488931135591051  2.8575790512263768
  7.1183192995947993  4.2708083711450113  4.2712986914244206
  5.6919080939661750  2.8451760170001532  5.6848601077500449
  7.1253767400206565  4.2637506051150069  7.0971155003074839
  5.7011932158208918  2.8560127793742502  8.5212651682612641
  7.1171137159260365  4.2583860455857288  9.9643060004487776
  5.6822925550317835  5.6881746884044189  0.0039528743770427
  7.1097541759624212  7.1117887921890457  1.4240575759219578
  5.6915573973579550  5.6881547096511644  2.8496602771941393
  7.1183549395880075  7.1055058897300176  4.2712967130615711
  5.6835967216348067  5.6881949229501512  5.6860428275490751
  7.1254080324194069  7.1126183349263856  7.0971467425691097
  5.6931067030089384  5.6881844331146638  8.5294167016063334
  7.1171617167482220  7.1179973417045330  9.9643516079082435
  5.6912848827484597  8.5322499922636670  0.0029093107355712
  7.1002923184066047  9.9500681867358427  1.4230849194512176
  5.6997277891254150  8.5274395876077573  2.8575288722419865
  7.1065856856394083  9.9520570452589059  4.2693949863840901
  5.6919457671704370  8.5311283300337095  5.6848798830336014
  7.1112659770615751  9.9551462988392192  7.1111870903822485
  5.7012582156826941  8.5203560474029683  8.5213303833032654
  7.1067818970169441  9.9519446141693244  9.9519810993315598
  8.5391899690192314  0.0000152529554776  0.0122321714337033
 10.0127132627308146  1.3673288270994364  1.4682267199131531
  8.4896628274971651  0.0000388197153792  2.8382574051575311
 10.0108905497042642  1.3663948934177090  4.2117035674632639
  8.5474886188417791  0.0000000342090034  5.6750349779009799
  9.9531285133555318  1.4243117371943168  7.1159379386493820
  8.5415908070781068 -0.0000020630611316  8.5391812824069930
  9.9579424931046443  1.4261641674418104  9.9513273241306646
  8.5482154990805554  2.8203551392592940  0.0193738229710434
  9.9536354083382825  4.2666690034258323  1.4191210215112633
  8.5475461827246058  2.8327961890534916  2.8472352361836668
  9.9481800634110691  4.2754770705158860  4.2742677780538250
  8.5539467756913421  2.8212030496370017  5.6685905585107568
  9.9512268173466243  4.2708630455705618  7.1041683831489930
  8.5376436567185348  2.8452403464935276  8.5305777882235567
  9.9577181460056234  4.2637110190514047  9.9582453000939815
  8.5368180956066659  5.6881477085995487  0.0043075087570187
  9.9535066061053730  7.1097146259926127  1.4192388702236605
  8.5420388870024127  5.6881409350614707  2.8388720715720810
  9.9482556792295611  7.1008918722446310  4.2743432891464437
  8.5376514525025300  5.6881844220070699  5.6848720671283228
  9.9512247733318429  7.1055605781291415  7.1042040430993243
  8.5364806823643740  5.6881738966008761  8.5389267628721743
  9.9577296169586891  7.1126177184811681  9.9583025368819165
  8.5483202446373454  8.5560694642894397  0.0194088484910981
 10.0129989518102196 10.0091535296551744  1.4682182602861154
  8.5476050751349888  8.5436045305014705  2.8471860196039427
 10.0108199203431401 10.0099740506408512  4.2116329994918473
  8.5539329464640375  8.5551656943758072  5.6685766052869218
  9.9529886833042767  9.9521250387423628  7.1159512960295048
  8.5376634618669343  8.5311927847119389  8.5306152696412969
  9.9581018019026182  9.9502912806004886  9.9513203052510075
  2.8548910005641379 -0.0000000580208985 -0.0103864642238967
