Fe Hf
 1.0000000000000000
    11.3799199943630338    0.0000000000000000    0.0000000000000000
     0.0000000000000000   11.4315005622276331    0.0000000000000000
     0.0000000000000000    0.0000000000000000   11.3799199825480883
 Fe  Hf 
 126   2
Cartesian
 -0.0569154040127993 -0.0000000553775437 -0.0569154245960451
  1.4224787200955367  1.8796588757655242  1.4225017351107527
  1.5227540482552862  1.5437209366268241  4.2907729211512811
  0.0230537496921242 -0.0000446416571438  5.6580118086538755
  1.4224899543113292  1.4434888604887679  7.1124499376295001
  0.0338715071586744 -0.0000038601496186  8.5623826101838851
  1.3222216502332935  1.5437238452045519  9.9341216113488997
 -0.0282080545805170  2.9056973866461568 -0.0284698901202773
  1.4224901342510614  4.2671255067020564  1.4224896467343733
 -0.0469877118479864  2.9419066392232476  2.8921614477663007
  1.4273327321066973  4.2895803663967005  4.2788617987985580
 -0.0055420498167463  2.8509581647913151  5.6704900796341358
  1.4224899393211159  4.2870035492583867  7.1124503659010916
 -0.0379178314445413  2.8927324742665088  8.5124251823122243
  1.4176490729062732  4.2895781398815753  9.9460389296837572
 -0.0154630788254836  5.7157504903096488 -0.0154631788338345
  1.4224892287277973  7.1643751471485002  1.4224904367535454
 -0.0164751614639375  5.7157508581582519  2.8614552342273920
  1.4277064322321931  7.1416915903782332  4.2787609905215804
 -0.0068240937247369  5.7158720282109066  5.7036403731122398
  1.4224903235761039  7.1444578412697535  7.1124496400437431
 -0.0183019686371196  5.7157522917772674  8.5151340893193765
  1.4172720828463736  7.1416893979005662  9.9461391757773043
 -0.0284699688844964  8.5258029542622857 -0.0282081011347220
  1.4225027476599086  9.5518418499989366  1.4224770960585367
 -0.0471900753930595  8.4895779634530690  2.8919765965530138
  1.5226869458800696  9.8878191797439570  4.2907546632758065
 -0.0054725483701056  8.5805860420741631  5.6704257113815970
  1.4224906799577162  9.9875695094492283  7.1124503157625769
 -0.0380365994443823  8.5386398044366096  8.5124599815847208
  1.3222978466929951  9.8878220646306918  9.9341509434289073
  4.2907549639880012  1.5436819113224824  1.5226874289544081
  2.9018957241575856 -0.0000000386075585  2.9018953419155387
  4.2489284977257897  1.4297236394207367  4.2489499339824377
  2.8111088347382616 -0.0000048879053679  5.6625178811466892
  4.2594383703297609  1.4205619025600862  7.1137631517457995
  2.8219258936032503 -0.0000463217234552  8.5668877635904206
  4.3164669420699822  1.4773275963308417  9.9085463893944734
  2.8919763790422333  2.9419232056113511 -0.0471896894478567
  4.2787608442941085  4.2898091078665974  1.4277064344200905
  2.8731865248584723  2.9056968126864589  2.8734511541527601
  4.2905659275734527  4.3037511160477013  4.2906423833178762
  2.8828992129418904  2.8927324325174339  5.7124779023997556
  4.2878843505198372  4.2925525636599575  7.1252386731886048
  2.8505230299099362  2.8509583214618006  8.5544117844495737
  4.3004323893777547  4.3063735829969696  9.9244191430399979
  2.8614547913501038  5.7157487854301268 -0.0164754388820457
  4.2788623739377023  7.1419200812704506  1.4273332349651398
  2.8604432319612769  5.7157498490226937  2.8604430545733592
  4.2906424258878380  7.1277502660820833  4.2905661884260677
  2.8632819276763701  5.7157539948737641  5.7097666583088085
  4.2879442325926833  7.1390135921726463  7.1250565824335350
  2.8518039522852741  5.7158723229667636  8.5212598330819969
  4.3004834665055034  7.1251228246716218  9.9244649882855533
  2.8921606985330865  8.4895949416782504 -0.0469872875358579
  4.2907723504177842  9.8877795813600642  1.5227536614866652
  2.8734510043593851  8.5258039603251490  2.8731870249230198
  4.2489500027364508 10.0017772191946257  4.2489276869350228
  2.8830139380317252  8.5386401225280899  5.7124378181340196
  4.2595139385242353 10.0111957291811180  7.1137800664024482
  2.8504519433742330  8.5805868378595491  8.5544725158145862
  4.3163492388408704  9.9541775463719517  9.9084371822516495
  5.6580127063156498  0.0000443010125414  0.0230541081860602
  7.1124494185407032  1.4439315713402827  1.4224903670404276
  5.6625172113600577  0.0000048329110199  2.8111090269514749
  7.1137796502515238  1.4203054676174989  4.2595141397644110
  5.6821585779732535 -0.0000001163220096  5.6821586678532947
  7.1124507831017922  1.4144866849702715  7.1124491827494323
  5.6652803595260233  0.0000000027559845  8.5596190591152332
  7.1111200882293844  1.4203060163597192  9.9653872484719734
  5.6704259823476102  2.8509141645575347 -0.0054722719093707
  7.1124493601104151  4.2870418155695855  1.4224903213886266
  5.7124378150899444  2.8928604635279611  2.8830140775512954
  7.1250568451482534  4.2924868786288011  4.2879434499419276
  5.6959496946897037  2.8582820259357229  5.6960066746570623
  7.1124503573860975  4.2827172666910709  7.1124503918221773
  5.7157340515184707  2.8651511209735250  8.5092455416099551
  7.0998424505221838  4.2924863120342494  9.9369564381215270
  5.7036399445422195  5.7156287657888214 -0.0068244623547096
  7.1124503928072409  7.1444977704361294  1.4224898447710701
  5.7097666411598338  5.7157470706125935  2.8632821592195516
  7.1252388391648980  7.1389486209592263  4.2878842063785081
  5.7138084881606579  5.7157500468724942  5.7138089371368013
  7.1124503246043034  7.1487835069979671  7.1124506526412326
  5.7151192390046468  5.7157505607688339  8.5097806754155343
  7.0996612099811740  7.1389481468417131  9.9370156470029603
  5.6704903796077577  8.5805424310040888 -0.0055426536288544
  7.1124496093938321  9.9880115725667533  1.4224898473562315
  5.7124779113808790  8.5387677907756334  2.8829000269353706
  7.1137630032265360 10.0109386814530250  4.2594383890567622
  5.6960063722373198  8.5732179719842119  5.6959493155817018
  7.1124494722341431 10.0170139259334974  7.1124509558880495
  5.7156566992410438  8.5663482215179716  8.5091641268259597
  7.1111366169392225 10.0109391169987916  9.9654611131747668
  8.5623826493286028  0.0000039322947072  0.0338707536284041
  9.9341505832290800  1.5436785608058550  1.3222975537742443
  8.5668882794181034  0.0000463822408730  2.8219267251563309
  9.9084371596834924  1.4773223269719122  4.3163491429463914
  8.5596195630144756  0.0000003588453629  5.6652811277582247
  9.9654603453585935  1.4205612665575176  7.1111367990382286
  8.5427418155309507  0.0000002107060940  8.5427410591424184
  9.9759718932326802  1.4297236192983287  9.9759496024938645
  8.5124597918843357  2.8928605645069765 -0.0380364163544941
  9.9461395726759818  4.2898107016458402  1.4172720916696655
  8.5544719412124124  2.8509143032215323  2.8504520172520489
  9.9244656748791087  4.3063778351305020  4.3004827372411771
  8.5091636080735729  2.8651522582772757  5.7156573035641074
  9.9370157683255869  4.2925530944407333  7.0996618052506957
  8.5289508168780621  2.8582821574829897  8.5288929660867403
  9.9343352868485155  4.3037499213768884  9.9342571119656178
  8.5151336814512586  5.7157477930275578 -0.0183021433069602
  9.9460387471885507  7.1419227617777556  1.4176489961211218
  8.5212600038605597  5.7156282706095203  2.8518041848875120
  9.9244190861221888  7.1251270616356708  4.3004329899442899
  8.5097809903210315  5.7157500157195953  5.7151199579317611
  9.9369561076230255  7.1390142562985321  7.0998423588589796
  8.5110903848312578  5.7157502952984496  8.5110903137550764
  9.9342568503933322  7.1277507272820566  9.9343350145567690
  8.5124248374713556  8.5387688255860574 -0.0379175303054768
  9.9341217633079673  9.8877762375357641  1.3222216437984118
  8.5544116980711475  8.5805424033895878  2.8505227647974105
  9.9085469371236563  9.9541735947197605  4.3164666594993140
  8.5092459634479294  8.5663487859783700  5.7157339215261525
  9.9653867737434485 10.0111951291032124  7.1111203298847645
  8.5288934394682787  8.5732185187791696  8.5289502380872282
  9.9759493235925945 10.0017769987393059  9.9759719127493014
  2.6424637997380094 -0.0000209768532785  0.2025156519202324
  0.2025145281175667  0.0000201881738613  2.6424652675141753
