Fe Rh
 1.0000000000000000
    11.3892055385733784    0.0000000000000000    0.0000000000000000
     0.0000000000000000   11.3895746676335623    0.0000000000000000
     0.0000000000000000    0.0000000000000000   11.3892196672392032
 Fe  Rh 
 126   1
Cartesian
  0.0286368343085191 -0.0033928755999552 -0.0002916009747788
  1.3980221344298012  1.4206441054850822  1.4494180342829901
 -0.0059379934563889 -0.0038551376762055  2.8532542020364735
  1.4228065244702539  1.4374959630485096  4.2579258717106807
  0.0060002223928875  0.0010553670681621  5.6936974192503591
  1.4229589399417144  1.4316891913923855  7.1231686764135862
 -0.0049985622921456  0.0005055784023655  8.5389601374881003
  1.4014684555360650  1.4575590181753821  9.9574269388615733
  0.0511687418565156  2.8976487599767728  0.0529189480017249
  0.0425949250829867  2.9200115090670486  2.8047832072544394
  1.4215050037216987  4.2813872126840939  4.3169671944429897
 -0.0031558863325126  2.8479156000062993  5.6945778130687499
  1.4199552760360761  4.2788850037598216  7.1102263504885475
 -0.0185072557634628  2.8652680806833133  8.5227879661410846
  1.4234859828259514  4.2678215967806583  9.9274291095309213
  0.0567807870669938  5.6474582712404517  0.0512194138739235
  1.4230441748248743  7.1740693119534429  1.4244766351574754
  0.0488113369183034  5.6470604945203329  2.7985843264880481
  1.4191852311584208  7.1000663488807785  4.2667409731795471
  0.0004275265298073  5.6970327972624242  5.6968793113531087
  1.4192973412967260  7.1027301142240402  7.1101822930752716
 -0.0041913453264678  5.6947648687754793  8.5387034265270643
  1.4214659617947702  7.1132947934149993  9.9770292244937746
 -0.0073687393044009  8.5455174631653978 -0.0014477121675533
  1.3987194293774712  9.9432977620597640  1.4485580749742915
 -0.0227799566367470  8.5266957584447898  2.8700582046781680
  1.4212721627636911  9.9626011538590085  4.2579935749968820
 -0.0031853812264890  8.5377384649042138  5.6944655937386104
  1.4209244644150982  9.9638967394357891  7.1216126901704504
 -0.0189886145083899  8.5229389452301376  8.5222808417850437
  1.3968774845900731  9.9413987967508852  9.9436383148636214
  4.2793043552507690  1.4573883304534878  1.4457027840459762
  2.8475993715205195 -0.0033526759931713  2.8185104466086690
  4.2561043264612017  1.4423003764833429  4.2522903454009180
  2.8454123475184967  0.0006539605199924  5.6904965971185266
  4.2671440809144805  1.4281376270736954  7.1246482640936213
  2.8439140489681169 -0.0031090361430876  8.5722521374160685
  4.2823720400036152  1.4599680494241429  9.9539517648581555
  2.7940563529294087  2.8607023537284189  0.0532623834200328
  4.3089117622289139  4.2679139358489637  1.4240985701446471
  2.7942013868616518  2.8977633148909536  2.7961202087413626
  4.2601643124140187  4.2781142625372253  4.2649141233340027
  2.8491870448904115  2.8405528240749773  5.6948970511221910
  4.2650916262331480  4.2780558199353083  7.1127697025838623
  2.8482657092956871  2.8463426990124567  8.5387923598098965
  4.2577332649278299  4.2669536190730311  9.9789946204168452
  2.7938751417151688  5.6427789560470503  0.0534621440832029
  4.2596058563234749  7.1134304147976781  1.4255912565132098
  2.7961486924225252  5.6475672402742951  2.7906458959952753
  4.2585853952600621  7.0943935329476497  4.2606953599108230
  2.8498069728245445  5.6964719448852250  5.6955882501635084
  4.2711146340193000  7.1062245593569475  7.1120846607448627
  2.8470201789775462  5.6964932331515072  8.5445890006711682
  4.2535469236343664  7.1035451783219239  9.9828755406443079
  2.8465856037582502  8.5741036995052564  0.0006755045548991
  4.2927645608657965  9.9415200950883875  1.4503671355209282
  2.8487448179737553  8.5455186356146893  2.8547964478601933
  4.2699877140889662  9.9653337959714570  4.2615179380863051
  2.8467450053938261  8.5463998326531918  5.6940108154098388
  4.2706687570813031  9.9648894426100636  7.1203075691500679
  2.8464810301297150  8.5383414870792063  8.5372397524451991
  4.2921813705464489  9.9434484022546918  9.9443537970762730
  5.6642958781914183 -0.0031952651293262  0.0032443907693256
  7.1133932515243083  1.4318948676404828  1.4240726492841143
  5.6975794367305044  0.0005349950347232  2.8522576281441037
  7.1258847818645661  1.4342650955876617  4.2737738980066160
  5.6834373428987082  0.0081909741430494  5.6877572430980159
  7.1266880314645524  1.4325002397698670  7.1098634613647498
  5.6957489662855165  0.0062853262113236  8.5408119820591892
  7.1118683867190731  1.4279541152222117  9.9690677049605654
  5.6976740364753677  2.8462178433246375 -0.0008281672345834
  7.1263191168570108  4.2787527875809515  1.4273601259522330
  5.7135979768832224  2.8652672512945432  2.8659601801439680
  7.1237837084941216  4.2773385219413038  4.2689497496584190
  5.6950402762370285  2.8520383121053725  5.6950843714324542
  7.1254967790700476  4.2788860786417562  7.1110378514285228
  5.7124809540249153  2.8686105868518008  8.5240875851566056
  7.1237359824120263  4.2780520680616698  9.9714040123225320
  5.6919515359465453  5.6963276149514233  0.0002029653272850
  7.1262439396411734  7.1026635466822823  1.4279849205034385
  5.6977861280538296  5.6949139115292793  2.8514298423652633
  7.1250036127686274  7.1050606438123989  4.2747677535088124
  5.6896753418682895  5.6923806841473983  5.6926857080365849
  7.1264158395375592  7.1063564769556207  7.1101160018047000
  5.6971716297817014  5.6930103907892278  8.5393531497502249
  7.1245147721991291  7.1062443124562611  9.9654459276124321
  5.6993106599991021  8.5382907740215135  0.0008657782223254
  7.1149188722880883  9.9641264938857130  1.4265074077170850
  5.7142025219817905  8.5230459489265975  2.8662017804888262
  7.1270274456680252  9.9620603573203574  4.2774457106969086
  5.6903514459001441  8.5315909642493963  5.6878599880249219
  7.1277803031110922  9.9601178689643479  7.1087138702436814
  5.7064836654525255  8.5160264054116226  8.5300747021126728
  7.1162828150822159  9.9646635418502409  9.9660367280819262
  8.5460380504577298  0.0007442019722331  0.0018879418440122
  9.9785781430572467  1.4374080119414954  1.4245998339636499
  8.5428011901328311  0.0010321787332802  2.8412996484727264
  9.9743664131038425  1.4484880218791776  4.2621086198947342
  8.5493457755014521  0.0099938419418663  5.6871504039214660
  9.9627437978003961  1.4342560044374042  7.1106005269581516
  8.5487835438858593  0.0081631004452406  8.5530714659554103
  9.9842696790970038  1.4424859064071880  9.9805888789287849
  8.5416640977494929  2.8406241126482028 -0.0020606923134664
  9.9196498860304985  4.2813363969280243  1.4258420449660401
  8.5418589561823524  2.8478410573608679  2.8503578123390225
  9.9732752883074713  4.2767893941499882  4.2632279845030085
  8.5430180786934358  2.8478809909659430  5.6934018929855403
  9.9675519472126730  4.2773573260118551  7.1126938039645751
  8.5414769979895002  2.8520313513508984  8.5413849028415321
  9.9716441507445381  4.2780026904749215  9.9763148287796053
  8.5409764463925697  5.6964526875957144 -0.0024244464989906
  9.9697969403442848  7.1000261406346832  1.4280650461671058
  8.5396110357849722  5.6969082473366734  2.8469326734836766
  9.9740799239794455  7.0927094803668025  4.2623747495854563
  8.5445285932709858  5.6905230198238437  5.6920049793751684
  9.9617267584388571  7.1050412345871390  7.1115169537948812
  8.5438352563013442  5.6923518166243303  8.5469032452714195
  9.9759324394879734  7.0943002572795848  9.9779910560003344
  8.5425786434268218  8.5464089227358642  0.0005944385203232
  9.9785249734310177  9.9624098929355807  1.4258913589300746
  8.5419574848263569  8.5376815953467009  2.8504351315602219
  9.9609514633728935  9.9627441839775610  4.2755634580688229
  8.5495789022749911  8.5354974033430384  5.6869226724057977
  9.9590188839113960  9.9620275395649216  7.1095038446124699
  8.5486878636871015  8.5315557584552835  8.5461774674475990
  9.9750065632232907  9.9654337361387437  9.9664044673382239
  2.8462371057044344 -0.0119368745613465  0.0009982658894045
