Fe Ru
 1.0000000000000000
    11.4322563437935614    0.0000000000000000    0.0000000000000000
     0.0000000000000000   11.4172165229754814    0.0000000000000000
     0.0000000000000000    0.0000000000000000   11.4322563375565167
 Fe  Ru 
 126   2
Cartesian
  0.0519110375500310  0.0150497676571156 -0.0001699690096161
  1.3394028703496135  1.4271521048780844  1.5186612666810384
 -0.0304815586294399 -0.0155099807519243  2.8888735222483062
  1.4200328904398907  1.4273912488103166  4.2762891186999727
 -0.0131168396877089 -0.0092280485930232  5.7161276980434064
  1.4200328360860819  1.4269128335122145  7.1559671865229557
 -0.0308093991490470 -0.0155101305032872  8.5437105937231603
  1.3394027928065992  1.4271519275040048  9.9135951327414809
  0.0519110560336165  2.8392544510000630  0.0001700885995686
  1.4373722027408762  4.2486832899246973  1.4209573671025071
 -0.0308093715740515  2.8698141705282136  2.8885455843226562
  1.4293938537029334  4.2829694323763992  4.2939981178905136
 -0.0131166989042746  2.8635321279430483  5.7161285126514620
  1.4291126797653289  4.2829540837305204  7.1383754726980602
 -0.0304814122635669  2.8698142663150343  8.5433828430653485
  1.4371066511713713  4.2486833398619881 10.0115644155093353
  0.0006726174690287  5.7019543151861871 -0.0000700712682383
  1.4292381647787185  7.1357602795381654  1.4288259375648555
 -0.0027800082357063  5.7089286616574118  2.8608863303793237
  1.4185634154038917  7.1357182471884721  4.2877245445419989
  0.0055096478460828  5.7160231849511893  5.7161463371695458
  1.4185633707345131  7.1358024237329891  7.1445317104256523
 -0.0028221645154623  5.7089286713976719  8.5714120952587507
  1.4292381632202187  7.1357603237235754 10.0034304046269771
  0.0006726332486911  8.5695663761252252  0.0000702030764606
  1.4371066717437997 10.0228373026045485  1.4206920470223841
 -0.0028221680385549  8.5625919857091120  2.8608441508975830
  1.4291126994259202  9.9885665925106686  4.2938808375645809
  0.0055096311620814  8.5554974851550707  5.7161099049333819
  1.4293937950043323  9.9885511236575137  7.1382581495298982
 -0.0027801099274603  8.5625918981902931  8.5713699837001975
  1.4373720406730350 10.0228373871231824 10.0112988786790886
  4.3767252096277769  1.4271521005277572  1.5186611442988014
  2.8578939948838595  0.0150498532654754  2.8061531274512315
  4.2960952544058699  1.4269129375090885  4.2762890729713163
  2.8580641393028161  0.0060573365792413  5.7161281363825553
  4.2960953062884339  1.4273912277235326  7.1559671273841339
  2.8582341351802145  0.0150497325286940  8.6261029948562502
  4.3767253098980268  1.4271519402396715  9.9135951716741424
  4.2790215040731825  4.2486832310815092  1.4206918820190708
  2.8582341830364855  2.8392543471333389  2.8061532411302172
  4.2870155421251059  4.2829540852598704  4.2938808327103288
  2.8580640800716237  2.8482468104283938  5.7161281667799306
  4.2867343609245507  4.2829694210270421  7.1382582787793112
  2.8578939795506333  2.8392542683674193  8.6261032145725576
  4.2787560806553397  4.2486833041069030 10.0112988524513291
  2.8580640269044761  5.6473114685880201 -0.0000000008005086
  4.2868899218520777  7.1357603071688347  1.4288259485934900
  2.8579940165008590  5.7019542762162025  2.8573915375308077
  4.2975647992851025  7.1358024265235152  4.2877245933499868
  2.8580641122064385  5.7175962106176801  5.7161281503950789
  4.2975647776220045  7.1357182369278931  7.1445317312070742
  2.8581340938823230  5.7019542726483134  8.5748648348032237
  4.2868899436573038  7.1357603500564881 10.0034304161008301
  2.8580640477089965  8.6242092355175828 -0.0000000142100844
  4.2787559436005855 10.0228373720154433  1.4209574828844209
  2.8581342016487952  8.5695663751534159  2.8573914924661237
  4.2867343075650188  9.9885511776403213  4.2939980205433264
  2.8580640400137800  8.5539243691854381  5.7161281132426218
  4.2870155521382474  9.9885664955229423  7.1383753678208315
  2.8579939717689338  8.5695663791037155  8.5748648899274933
  4.2790215643804546 10.0228374887937122 10.0115643512900281
  5.6642173655953805  0.0150498329273097  0.0001701309186134
  7.1343533049351260  1.4273913624666148  1.4380312725187070
  5.7469375384695365 -0.0155099239937542  2.8885455182593365
  7.1609038606193360  1.4271520295533275  4.3028397951615682
  5.7292449126629501 -0.0092279385923658  5.7161285120915348
  7.1609039335708804  1.4271521662399205  7.1294164908757640
  5.7466097043505568 -0.0155100572195010  8.5433827071002817
  7.1343533386981894  1.4269129133770002  9.9942250564951411
  5.6642173291514695  2.8392543320395647 -0.0001700892093337
  7.1520621544037866  4.2829694820293271  1.4286702679712586
  5.7466096740807195  2.8698142066234076  2.8888733730257417
  7.1611500793197402  4.3076034914048487  4.3029822886179758
  5.7292449182058531  2.8635321557189584  5.7161277483838191
  7.1610463659883887  4.3076034431036865  7.1291703617616760
  5.7469375583140927  2.8698140688923850  8.5437106740733739
  7.1519449669319233  4.2829541127117103 10.0033049089340036
  5.7154555438022685  5.7019542491153024  0.0000701061145981
  7.1457886662117920  7.1357181675202703  1.4395006940895414
  5.7189503511516193  5.7089287067871526  2.8608441511857512
  7.1354242851810943  7.1357603666632752  4.2773602946455780
  5.7106185144852448  5.7160231693088308  5.7161099290586996
  7.1354243287082477  7.1357603239061156  7.1548960448747039
  5.7189081771726382  5.7089287016387980  8.5713701086883614
  7.1457886544341820  7.1358023966978807  9.9927555657877853
  5.7154556242650454  8.5695663669518414 -0.0000701366244697
  7.1519449824128793  9.9885665896437690  1.4289514756405706
  5.7189082212251590  8.5625919472214136  2.8608862593856439
  7.1610462713766490  9.9639172165008922  4.3030859656012499
  5.7106184604310144  8.5554974929991552  5.7161463752418920
  7.1611501129909110  9.9639171589579618  7.1292739814325223
  5.7189503454132771  8.5625919790304437  8.5714122118416256
  7.1520622068001547  9.9885512145237225 10.0035861034144649
  8.5741922817805349  0.0060573514287771 -0.0000000057206742
 10.0140313244825112  1.4269129417593251  1.4380312028344528
  8.5741918207016994 -0.0092279265963311  2.8711808621493948
  9.9874806212623248  1.4271521018144420  4.3028397696734997
  8.5741922081675046 -0.0057820876634715  5.7161280575570164
  9.9874806585047331  1.4271521548329342  7.1294165234471807
  8.5741926869655281 -0.0092279723880562  8.5610753605911309
 10.0140314049608961  1.4273912289448543  9.9942251313234820
  8.5741923782347520  2.8482467837679799  0.0000000167494594
  9.9964394787730519  4.2829541743041197  1.4289515039228853
  8.5741926361330218  2.8635321532379834  2.8711809616652295
  9.9873381979872260  4.3076034553448705  4.3030860802305257
  8.5741922108539423  2.8600862981020159  5.7161281778785655
  9.9872344381729423  4.3076034392388580  7.1292739136789622
  8.5741920042547850  2.8635322043332683  8.5610755284997975
  9.9963223996611994  4.2829694944190466 10.0035861768741086
  8.5741921663778875  5.7175963188158008  0.0000000216570039
 10.0025958479929304  7.1358023035928380  1.4395007428163540
  8.5742104292958707  5.7160232105312225  2.8525544934270552
 10.0129602412114931  7.1357602916806915  4.2773602625338221
  8.5741922280271190  5.7352908788698107  5.7161281135245767
 10.0129600743015139  7.1357603040869915  7.1548959680720170
  8.5741742351843371  5.7160231481524768  8.5797018362694928
 10.0025958976387574  7.1357181881626266  9.9927556933414703
  8.5741922375102124  8.5539243684839033 -0.0000000418651028
  9.9963223647429480  9.9885512038322819  1.4286702073033857
  8.5741740204000507  8.5554974698376487  2.8525543887529721
  9.9872343830029386  9.9639171457371081  4.3029822576340013
  8.5741922344280379  8.5362296041251682  5.7161280820763940
  9.9873381087522741  9.9639171144773933  7.1291702953742577
  8.5742104437880027  8.5554974836657944  8.5797019066867666
  9.9964396301071972  9.9885665748760282 10.0033049316429281
  2.8580640302470042  0.0721927066929908  0.0000000045327359
  2.8580640498172554  2.7821112521841194 -0.0000001870164814
