Fe Au
 1.0000000000000000
    11.4518790431913917    0.0000000000000000    0.0000000000000000
     0.0000000000000000   11.4503455357626880    0.0000000000000000
     0.0000000000000000    0.0000000000000000   11.4518790417315479
 Fe  Au 
 126   2
Cartesian
 -0.0187338019415503 -0.0201598621333960  0.0001203847668748
  1.3366906287889821  1.4312932032337320  1.5262791857823870
 -0.0427529264584534 -0.0210481353568928  2.9056848073899570
  1.4148529612665004  1.4315152425971205  4.3200005689704666
 -0.0275199662343697 -0.0167090066600701  5.7259764182958772
  1.4148529556025786  1.4310712512230217  7.1318785436618217
 -0.0427149465812903 -0.0210480957671927  8.5461564355563358
  1.3366905723799321  1.4312932557728717  9.9256000171800505
 -0.0187338511361952  2.8827461546061488 -0.0001204382829174
  1.3824786672619997  4.3339332202442193  1.4803009512222514
 -0.0427151103077190  2.8836344551819342  2.9057226898256401
  1.4114867170502094  4.3098317129460542  4.3091418245539197
 -0.0275199817856277  2.8792953445887890  5.7259027393515112
  1.4111155461623595  4.3098804121731842  7.1427402212299711
 -0.0427528149243181  2.8836344440003807  8.5461942727575231
  1.3826687280720662  4.3339332786881775  9.9713879098091418
 -0.0309061536761441  5.7361812443813385  0.0001550329511902
  1.4197208442572922  7.1564658950443825  1.4432487581266846
 -0.0396074582255999  5.7537410004908427  2.9025742314678111
  1.4163761473900598  7.1563977173250191  4.3124616695453026
 -0.0100787942583441  5.7377687181336388  5.7259140761261156
  1.4163762706041196  7.1565340817630965  7.1394173915759405
 -0.0396044580781865  5.7537410181124935  8.5493018711500959
  1.4197209617514874  7.1564659396737715 10.0086303381005468
 -0.0309061843370725  8.5767505108794939 -0.0001550194364609
  1.3826687930674018  9.9789988295437908  1.4804911235651637
 -0.0396044679022478  8.5591908869744291  2.9025771468280519
  1.4111155559445252 10.0030514840869724  4.3091388143764631
 -0.0100787339536294  8.5751633415702493  5.7259649246215529
  1.4114868236379126 10.0031001760878873  7.1427371602770338
 -0.0396074086413015  8.5591909706054672  8.5493047589134807
  1.3824785719856629  9.9789986700931994  9.9715780954894875
  4.3892489536325536  1.4312930570143556  1.5262792201979962
  2.8630900865388251 -0.0201598550346192  2.8817035575775916
  4.3110866109378314  1.4310710504996489  4.3200005100818570
  2.8629698230177976 -0.0181922347445176  5.7259395432258984
  4.3110866318031267  1.4315151243689839  7.1318786072891660
  2.8628493230595002 -0.0201598048840779  8.5701754947514548
  4.3892489578062337  1.4312931474558088  9.9255997586428499
  4.3432706871015876  4.3339332374519302  1.4804912327413600
  2.8628493208258479  2.8827462726004272  2.8817036431989784
  4.3148241258751749  4.3098804908452895  4.3091389248709797
  2.8629697137413204  2.8807785875968195  5.7259395829817068
  4.3144527865387534  4.3098318353332523  7.1427371562815569
  2.8630901809446865  2.8827462835688786  8.5701754993143933
  4.3434609865761988  4.3339331799127683  9.9715780028348497
  2.8629697382218260  5.6769281435807430  0.0000000119420188
  4.3062185787300171  7.1564659723570898  1.4432487573255812
  2.8631247500790029  5.7361812782935191  2.8938759497694697
  4.3095632937384156  7.1565341689781503  4.3124616878129451
  2.8629698622170472  5.7330463526146191  5.7259394926700136
  4.3095633468036940  7.1563977478632124  7.1394173391260622
  2.8628147342529888  5.7361813017008858  8.5580030936688853
  4.3062185716397980  7.1564659119768788 10.0086302120617336
  2.8629697624327575  8.6360036866619510  0.0000000218093966
  4.3434607907399547  9.9789987554825217  1.4803010147056186
  2.8628147511318294  8.5767506033594323  2.8938759792738940
  4.3144526991649732 10.0031001472242593  4.3091419618376348
  2.8629697541728549  8.5798856349803199  5.7259395143162912
  4.3148240544971674 10.0030515627589303  7.1427401811744939
  2.8631247990522741  8.5767505924578611  8.5580031106657461
  4.3432707069981022  9.9789987524626955  9.9713879807833568
  5.7446732354481238 -0.0201598232562708 -0.0001204546268414
  7.1829702071043799  1.4315152810467489  1.4481168991830027
  5.7686545982279940 -0.0210480338794874  2.9057226600913810
  7.1749369671651539  1.4312932916726702  4.3119671643540984
  5.7534594842876734 -0.0167089222207390  5.7259026475540411
  7.1749370011212248  1.4312931800029740  7.1399118863061712
  5.7686923926734277 -0.0210479383158257  8.5461944414662430
  7.1829702942319757  1.4310711236467184 10.0037621285127365
  5.7446733086861430  2.8827462204649956  0.0001204566106809
  7.1721116580839279  4.3098317620893809  1.4514829683037722
  5.7686923337917868  2.8836345328778408  2.9056847429928783
  7.1799937091554495  4.3173328376927724  4.3170325364926869
  5.7534596483058200  2.8792953691781000  5.7259762815882391
  7.1800023340487558  4.3173327485008235  7.1348550214931503
  5.7686545716408455  2.8836345175096176  8.5461564584053136
  7.1721086236696321  4.3098803850818124 10.0000247700838489
  5.7568456527578533  5.7361812716312413 -0.0001550921131440
  7.1754314038188225  7.1563978229307699  1.4465935911237826
  5.7655440161405558  5.7537410310470856  2.9025771956244109
  7.1838093024156837  7.1564659123676249  4.3208396430936791
  5.7360183011531509  5.7377685776914156  5.7259649888533364
  7.1838093216503633  7.1564659773329469  7.1310394488377336
  5.7655469511035449  5.7537409839770373  8.5493047366440909
  7.1754315072355901  7.1565341689364699 10.0052854924594410
  5.7568458285013451  8.5767505387991463  0.0001549465512812
  7.1721086394419329 10.0030514143316456  1.4518542824530636
  5.7655469323447246  8.5591909466493608  2.9025742801501355
  7.1800023950111420  9.9955991343907264  4.3170240320086597
  5.7360183226641945  8.5751632989022823  5.7259140409291218
  7.1799936353762819  9.9955991818338106  7.1348465191142161
  5.7655440782583085  8.5591908745805956  8.5493018377790264
  7.1721117043311668 10.0031001148050702 10.0003960855362930
  8.5889092612317590 -0.0181922142379930 -0.0000000346654489
  9.9948483617491402  1.4310710799399851  1.4481168442101529
  8.5889461730820518 -0.0167090011046311  2.8904898135689008
 10.0028816553326614  1.4312930882479877  4.3119672963671301
  8.5889093048452860 -0.0023327441731783  5.7259395100907708
 10.0028816653954742  1.4312932457418268  7.1399118967993100
  8.5888724304989097 -0.0167090191999397  8.5613892199811072
  9.9948482868070982  1.4315152851355040 10.0037621729380781
  8.5889093125811655  2.8807786788755756  0.0000000007027517
 10.0057099392782494  4.3098804414646414  1.4518542242653878
  8.5888724228298390  2.8792953169648534  2.8904898639199965
  9.9978162065247798  4.3173327272929178  4.3170239588340058
  8.5889092457109086  2.8649190994050877  5.7259394931403209
  9.9978249380016067  4.3173327305851581  7.1348465389173104
  8.5889461608726201  2.8792953713018887  8.5613891845299559
 10.0057068653685750  4.3098318466268042 10.0003960837241817
  8.5889091758505511  5.7330463013568069 -0.0000000884118473
 10.0023870362881855  7.1565341049726134  1.4465936031742157
  8.5888837314893554  5.7377685744098779  2.8730485131923946
  9.9940091917666933  7.1564659764864480  4.3208396965377682
  8.5889093072171114  5.7224180151362578  5.7259395378798743
  9.9940092590257095  7.1564659958408452  7.1310395193791996
  8.5889347408274528  5.7377686263122740  8.5788305582128714
 10.0023871068846066  7.1563977776266174 10.0052854590988378
  8.5889092483323495  8.5798855421499791  0.0000000228138242
 10.0057069046389042 10.0031001643918138  1.4514830718614560
  8.5889347142802492  8.5751632352986906  2.8730484844764130
  9.9978247443043866  9.9955990493427667  4.3170326208367902
  8.5889092932689550  8.5905138992194594  5.7259395406175608
  9.9978162991351844  9.9955991768375974  7.1348551115796823
  8.5888838691689582  8.5751632250456549  8.5788304046373298
 10.0057098789026604 10.0030516215191909 10.0000249430429218
  2.8629696206316155 -0.0406519985004078 -0.0000000170965358
  2.8629698017717016  2.9032381062436596  0.0000000748863777
