Fe Ta
 1.0000000000000000
    11.3922756623137342    0.0000000000000000    0.0000000000000000
     0.0000000000000000   11.4156317797334061    0.0000000000000000
     0.0000000000000000    0.0000000000000000   11.3922756750488841
 Fe  Ta 
 126   2
Cartesian
  0.0054214584137996  0.0000004218067677  0.0054218551966460
  1.4240016437684451  1.7834466327773961  1.4240675956563547
  1.4924129105539288  1.5047788740498442  4.2827687233946614
  0.0254069445269903  0.0000542026815349  5.6756003075547179
  1.4240335975179919  1.4394640840065687  7.1201715791819131
  0.0320761779842127 -0.0000398614838853  8.5604418508393856
  1.3556420155336144  1.5047899356798857  9.9575583747092313
 -0.0103590639464729  2.8818906020377120 -0.0106798786203546
  1.4240351180529800  4.2495098842646462  1.4240342159631787
 -0.0275602384713158  2.9259707160972273  2.8755283695711062
  1.4302599594670637  4.2847641809518748  4.2871710188207430
 -0.0084393355323908  2.8460412661121057  5.6821322784368427
  1.4240346034961906  4.2764756326250195  7.1201734075537138
 -0.0271403927925182  2.8714641323241716  8.5312606108800768
  1.4178116155437703  4.2847586845730650  9.9531742100446028
 -0.0030763992511828  5.7078163411887850 -0.0030768338394684
  1.4240341068117386  7.1661216756358010  1.4240343703619620
 -0.0090570489443909  5.7078164473371658  2.8571266544867053
  1.4307671769598589  7.1307432239554522  4.2870471735791265
 -0.0046270882405883  5.7079085681098523  5.7054673243844123
  1.4240343849500039  7.1391605985485551  7.1201709969896871
 -0.0157957418938651  5.7078121831278343  8.5251339499256282
  1.4172975421286824  7.1307374620828057  9.9532970762461908
 -0.0106791653506596  8.5337404911641475 -0.0103589893429977
  1.4240675345451481  9.6321852087854012  1.4240016594831308
 -0.0274791364554444  8.4896217151254412  2.8756487737425411
  1.4922316538774212  9.9107099856450560  4.2829198000935698
 -0.0084449681681167  8.5696289953929590  5.6821110548802256
  1.4240354499669245  9.9757465216610299  7.1201725311375270
 -0.0272636821077830  8.5440503154838563  8.5313276974466454
  1.3558514268640485  9.9107209785298043  9.9574425749430056
  4.2829193637907705  1.5049220155437795  1.4922314666817349
  2.8426476195786097  0.0000000418689762  2.8426480645644867
  4.2460579249814163  1.4162781191742937  4.2460834923355568
  2.8159930643834681 -0.0000419149741967  5.6799028021536886
  4.2639248487657309  1.4171029026973707  7.1198150047705360
  2.8226616924761747  0.0000465735125483  8.5647445340097033
  4.2925890432190297  1.4546623323549164  9.9478497473009480
  2.8756483688824881  2.9260094483259826 -0.0274785292835313
  4.2870472528433021  4.2848887686359936  1.4307674583428751
  2.8584246371884374  2.8818907408986072  2.8587513491613219
  4.2868432198718889  4.2924835346946715  4.2869100459206679
  2.8752139733270035  2.8714650084556359  5.7090914536530848
  4.2893294680854659  4.2814906149998668  7.1289220356911409
  2.8565094372706170  2.8460421250736472  8.5582162359280023
  4.2958804386649261  4.2952536002672046  9.9445121753616377
  2.8571261694817118  5.7078159988451054 -0.0090571078929716
  4.2871710108526591  7.1308677250623989  1.4302601575438492
  2.8511457057159810  5.7078158452275218  2.8511454863783987
  4.2869099437194578  7.1231483440185475  4.2868432646204822
  2.8638644902621220  5.7078162730130932  5.7152108704323643
  4.2893614937914410  7.1341417429732363  7.1287666084388190
  2.8526959792327755  5.7079089045909388  8.5348768815733944
  4.2958363447423471  7.1203688054177370  9.9444598650843208
  2.8755283263230536  8.4896606049395302 -0.0275601097665585
  4.2827690553579778  9.9108523180242223  1.4924131004920900
  2.8587520522593763  8.5337409496225245  2.8584246668994471
  4.2460828666878685  9.9993533603172100  4.2460580850914607
  2.8753267893846446  8.5440523581662635  5.7090106763839010
  4.2640155174222816  9.9988203477058910  7.1197443431713534
  2.8565136484556812  8.5696302769778860  8.5582290330929158
  4.2924866034381921  9.9609782674206055  9.9477629496556492
  5.6756004521662042 -0.0000538603331471  0.0254074159485121
  7.1201727095073162  1.4398855758233797  1.4240352296242647
  5.6799026129757983  0.0000423171073836  2.8159928849121294
  7.1197445465875910  1.4168119437134443  4.2640151754830677
  5.6857575008275854 -0.0000001386553217  5.6857577089765057
  7.1201749184972147  1.4104671410240410  7.1201690178468287
  5.6705443819801973 -0.0000020501489914  8.5697987953137744
  7.1206028844278233  1.4168129852261777  9.9763322956643528
  5.6821116084659300  2.8460030267942718 -0.0084453332422320
  7.1201714868708859  4.2764715970406435  1.4240348551045980
  5.7090106237267761  2.8715799897121363  2.8753266198137610
  7.1287668116327305  4.2814906027011448  4.2893615552729294
  5.6994888373732797  2.8494921397422339  5.6995422742801791
  7.1201713839692999  4.2669522124353483  7.1201728180491672
  5.7081775450907717  2.8467757447907567  8.5323186764009513
  7.1115753701164399  4.2814889669639182  9.9509816979152443
  5.7054675290765529  5.7077226922651381 -0.0046267867725838
  7.1201731248407176  7.1391559147691188  1.4240347857408409
  5.7152109817661181  5.7078153127723876  2.8638646675998900
  7.1289216030963924  7.1341407436780289  4.2893287643430646
  5.7140765486856706  5.7078159820947176  5.7140765620802361
  7.1201720863174991  7.1486797952795769  7.1201718312232281
  5.7189078909947462  5.7078148063669722  8.5214367723716009
  7.1114251183866690  7.1341399078980290  9.9510166257877248
  5.6821329524849915  8.5695910234640085 -0.0084396264919646
  7.1201712286195082  9.9761669916325637  1.4240333141197385
  5.7090908386840917  8.5441670230691180  2.8752137523429901
  7.1198150028753941  9.9985288599082338  4.2639247316594444
  5.6995419431433287  8.5661396151605445  5.6994890474998394
  7.1201698901759345 10.0051644855001012  7.1201748135860017
  5.7080313917414891  8.5688580713858205  8.5321610746177274
  7.1205277105628664  9.9985290781029956  9.9764182843223246
  8.5604414474292980  0.0000405991807566  0.0320762762294266
  9.9574428310308125  1.5049107031649422  1.3558517849461587
  8.5647442381413086 -0.0000463169564004  2.8226622853115413
  9.9477627952336096  1.4546528896580375  4.2924866039303424
  8.5697992743343683  0.0000011220405674  5.6705453872557836
  9.9764175365670109  1.4171021397434185  7.1205277463574008
  8.5545873703749198 -0.0000002125259434  8.5545867927891770
  9.9942866791883702  1.4162787035808844  9.9942607394602661
  8.5313272323213099  2.8715805562703283 -0.0272636056023545
  9.9532964424479395  4.2848941708202259  1.4172976093534402
  8.5582284721766673  2.8460014106359632  2.8565132191581051
  9.9444604813414621  4.2952639450716115  4.2958365370457994
  8.5321606990865657  2.8467732500775327  5.7080314214956331
  9.9510168428862542  4.2814921327733595  7.1114257515040187
  8.5408561821577980  2.8494922909283700  8.5408032578675890
  9.9535035984266376  4.2924833986617985  9.9534321619740247
  8.5251338019416423  5.7078193244827720 -0.0157953219956861
  9.9531744005660983  7.1308736273964124  1.4178117357528026
  8.5348765055676452  5.7077228844529815  2.8526962392599211
  9.9445130146584297  7.1203783974790502  4.2958804540736120
  8.5214371478009525  5.7078156907015440  5.7189073180233398
  9.9509825949839570  7.1341427774820412  7.1115759168963200
  8.5262686521666975  5.7078151449320460  8.5262684208036266
  9.9534325439962856  7.1231483232990378  9.9535034909749438
  8.5312600237484943  8.5441680790926320 -0.0271400999919437
  9.9575577349137614  9.9108422902068032  1.3556416633216701
  8.5582163698312925  8.5695896790806145  2.8565091852027678
  9.9478500604249387  9.9609694099862640  4.2925899404184378
  8.5323193243845736  8.5688578058120441  5.7081777884982463
  9.9763311529958578  9.9988193622871062  7.1206023462575834
  8.5408035477153970  8.5661400455502825  8.5408563069029615
  9.9942602550561048  9.9993532624198469  9.9942868497040003
  2.6781665376902373 -0.0000539129977421  0.1699013417322121
  0.1699010940781113  0.0000553393288217  2.6781665725061332
