Fe Nb
 1.0000000000000000
    11.4068799667674270    0.0000000000000000    0.0000000000000000
     0.0000000000000000   11.4068799730609971    0.0000000000000000
     0.0000000000000000    0.0000000000000000   11.4068799644382661
 Fe  Nb 
 126   2
Cartesian
 -0.0023538959302318  0.0096388508068300  0.0093158560548424
  1.4258599778659551  1.4258600101738523  1.4258599659756246
  0.0096389286563109 -0.0023539378511529  2.8424041375596070
  1.4848758144135561  1.3671634977783342  4.3170628909642232
  0.0006457481661197  0.0190036986871019  5.6867825053367769
  1.4257787485465772  1.4257787387000931  7.1292999390713607
  0.0190037184773574  0.0006457894746817  8.5718174639003912
  1.3671635634688983  1.4848758604889356  9.9415370501731406
  0.0093158776522524  2.8420810884030434 -0.0023539294518238
  1.4845564779330112  4.3170628520550434  1.3668441761044097
  1.4946939651780013  4.3485719794858477  4.3484730439924366
 -0.0045568722717424  2.8561786667632290  5.7209134564107202
  1.4277033049030916  4.2761755394144148  7.1253598416415409
 -0.0174048359749818  2.8690437437747072  8.5334006631021886
  1.4258600081742749  4.2742781019249261  9.9843217921327572
  0.0006198599976506  5.6869835476280493  0.0189269567788215
  1.4259412066487194  7.1293000373407853  1.4259412329672001
 -0.0044586569366119  5.7209135362632244  2.8562767809329355
  1.4275696031457490  7.1252622427400860  4.2762922559019501
  0.0026952085595954  5.6917724839571493  5.6918917802093780
  1.4258600095148417  7.1293216070017547  7.1292784157615943
 -0.0039094826125280  5.7033174373746558  8.5483401414159630
  1.4240166474031237  7.1332400733823560  9.9824244256172996
  0.0189269402859230  8.5716164300994127  0.0006198624515587
  1.3668441732032148  9.9415371154305952  1.4845564705170906
 -0.0173237550840949  8.5334006345673217  2.8691248319221430
  1.4258600360505014  9.9841832486094617  4.2744167226954417
 -0.0039388342872078  8.5482672236294430  5.7034756500637274
  1.4241504164954821  9.9823077099992918  7.1333376771003527
 -0.0177182123298201  8.5350594813172531  8.5351221086480269
  1.3570261059760362  9.9101269614065899  9.9100280011218267
  4.3170629442386037  1.4845565645762420  1.4848758057248479
  2.8420811568365489  0.0093158508157843  2.8540739091790441
  4.2742781282951405  1.4258600658539164  4.2742781221727268
  2.8690437246099707 -0.0174048591097141  5.7251993443765912
  4.2761755466325573  1.4277033314168259  7.1332400913483633
  2.8561787025829415 -0.0045567857589660  8.5376864274674968
  4.3485719550095254  1.4946939867181979  9.9101268444521651
  2.8424041353265066  2.8540739656877281  0.0096388379285235
  4.2744167329454594  4.2744167321425390  1.4258599999315671
  2.8540739063766063  2.8424041679389238  2.8420811587419177
  4.2685996817822245  4.2769445063314890  4.2767254158378849
  2.8327930454939714  2.8511001684487560  5.6869835186994928
  4.2732479281674545  4.2732479600709858  7.1292999789458644
  2.8511001422779456  2.8327930331837843  8.5716163504670551
  4.2769445130754491  4.2685996464789895  9.9818744885683941
  2.8691248009486379  5.7251993680019488 -0.0173237544188120
  4.2762922240914598  7.1333376588600785  1.4275696632068149
  2.8327162868787736  5.6867824891972196  2.8510741808992774
  4.2731519217540876  7.1292999627291014  4.2731518958721866
  2.8694381739131485  5.7234778620518991  5.7235405344452310
  4.2831791874309992  7.1372839489512963  7.1374387917785231
  2.8556294506524043  5.7102597369507491  8.5552825211990555
  4.2833842853922146  7.1449984448412316  9.9751178689130597
  2.8562768158555181  8.5376864009378721 -0.0044586176777449
  4.3484730673987979  9.9100279780459211  1.4946940050454967
  2.8510741480109325  8.5718174646721010  2.8327163178914341
  4.2767253904298625  9.9816554620167697  4.2685996470557743
  2.8556589042248635  8.5551242943862320  5.7103327761336189
  4.2834821091082462  9.9752156591210106  7.1449984760922236
  2.8490247667291420  8.5667081484015792  8.5668275181276687
  4.3687495392176139  9.8898504763424651  9.8898504594028918
  5.7209134909826531 -0.0044586429789416 -0.0045567808621878
  7.1292999702096447  1.4259412517802497  1.4257788011741266
  5.6869835295645874  0.0006198251005589  2.8327930577482570
  7.1332401273642398  1.4240166447483691  4.2761755163307402
  5.7033174033918899 -0.0039094806761908  5.7102597435273541
  7.1293216065931189  1.4258600090201372  7.1293215552793834
  5.6917724497578730  0.0026952583644217  8.5667081169091421
  7.1252622598903468  1.4275695959492030  9.9823076881954993
  5.6867824939689662  2.8327162801852084  0.0006457521648235
  7.1333376883778872  4.2762922402090355  1.4241503349562568
  5.7251993159983749  2.8691248402449605  2.8690437869057042
  7.1449984661698007  4.2833843300224652  4.2834820303975620
  5.7102597853008197  2.8556294791715136  5.7033174223012795
  7.1372838953830717  4.2831791942022583  7.1211611587662569
  5.7234778655624021  2.8694381747949427  8.5350595177514474
  7.1292999908535792  4.2731519042760926  9.9854480342508989
  5.7034756508072926  5.7103327063917151 -0.0039388374967247
  7.1292783141878449  7.1292783601791383  1.4258600190154711
  5.7103328128206448  5.7034756870423537  2.8556588252037165
  7.1374387909800072  7.1213160269350837  4.2831791387388707
  5.6988574221610850  5.7057585814389222  5.7056590392121240
  7.1292999813439089  7.1293000669432596  7.1292999885932193
  5.7057585011324328  5.6988573977575019  8.5529408798109454
  7.1213160892745462  7.1374387667250598  9.9754208115569600
  5.6918917908175333  8.5668275037492201  0.0026952584578984
  7.1253598550764128  9.9824244320388438  1.4277032459146894
  5.7235405009051368  8.5351220728653274  2.8694381947281453
  7.1293000046203705  9.9853520713548711  4.2732478929718782
  5.7056590047946090  8.5528414254977232  5.6988573958483970
  7.1211611510040704  9.9754207753901483  7.1372838567699777
  5.7247553400169489  8.5338446241680348  8.5338446452844092
  7.1136014804572811  9.9751179031113413  9.9752156975220228
  8.5334005792962611 -0.0173237684722261 -0.0174048197520936
  9.9415371124191179  1.3668441904147302  1.3671635145295911
  8.5716163714068081  0.0189269399883592  2.8511001021776070
  9.9101269172697428  1.3570260166205086  4.3485719175145494
  8.5350594812211558 -0.0177182080093099  5.7234778170203437
  9.9823076357891445  1.4241503395770572  7.1252622091279525
  8.5482671748674388 -0.0039388631184163  8.5551243181083798
  9.9841832217268909  1.4258599975591988  9.9841831824497778
  8.5718174675065875  2.8510742087752372  0.0190036357879560
  9.9100280298617029  4.3484730447604933  1.3570259934566986
  8.5376864874905802  2.8562768000740628  2.8561786459695964
  9.8898504672672249  4.3687495546860111  4.3687494923652990
  8.5667081696771543  2.8490247723396709  5.6917724407857708
  9.9752156878230114  4.2834820914736973  7.1136014569434485
  8.5551242915871910  2.8556588689500622  8.5482671897622637
  9.9816554617198587  4.2767254747885595  9.9900002849890210
  8.5351220185371943  5.7235404952875983 -0.0177181625699667
  9.9824244168033811  7.1253599003918513  1.4240166796716613
  8.5668274647092453  5.6918917897946333  2.8490247246995923
  9.9751178863779000  7.1136015249701305  4.2833843000960607
  8.5338446371525265  5.7247553414961025  5.7247553018690391
  9.9754207634266230  7.1211611855138415  7.1213160839822063
  8.5528414487690689  5.7056590497927644  8.5597425550672792
  9.9853520076030424  7.1293000255246870  9.9853520174643275
  8.5483401999128397  8.5552825757543758 -0.0039094885695135
  9.9843218746807167  9.9843218304908525  1.4258599715534030
  8.5552825799331043  8.5483402481512165  2.8556294153733850
  9.9818745332984218  9.9900003870271377  4.2769444787324824
  8.5529408996940237  8.5597425474415498  5.7057584982854577
  9.9854480066428497  9.9854480777914052  7.1292999900768690
  8.5597425578286330  8.5529409289104361  8.5528414686332184
  9.9900003068777448  9.9818745615622753  9.9816554485443572
  2.9142955784230224 -0.0625755416036846 -0.0625755265558812
 -0.0625755315334008  2.9142955620980433  2.9142955710599092
