Fe Cu
 1.0000000000000000
    11.3749884904772802    0.0000000000000000    0.0000000000000000
     0.0000000000000000   11.3749884901170883    0.0000000000000000
     0.0000000000000000    0.0000000000000000   11.3749884969238906
 Fe  Cu 
 126   1
Cartesian
  0.0769397128792701  0.0541752453396070  0.0540560920623454
  0.0427712160937196  0.0355348940365439  2.8007956937294693
  1.4220428436114769  1.4214128244199220  4.3034612363179772
 -0.0029588428089560 -0.0070350334132230  5.6889283198685376
  1.4207392095115221  1.4231406482065796  7.1167986219009993
 -0.0143413706107142 -0.0040228330362397  8.5197107716731093
  1.4318799749290814  1.4118446180903537  9.9060148151983896
  0.0429513770858987  2.8009756659651988  0.0355348502015221
  1.4223345550983526  4.3034610316274007  1.4217042731242580
  0.0609767031343257  2.7827702629224813  2.7827704425562860
  1.4227351226125200  4.2531534312296042  4.2531768848751934
  0.0014602938896776  2.8423715162371743  5.6890435217324349
  1.4211662153994897  4.2656662324400463  7.1013505565647232
 -0.0134126624634578  2.8570407595997787  8.5195133799891458
  1.4246808278932401  4.2453850451743111  9.9644767287321034
 -0.0028481974643591  5.6889516481588247 -0.0068807553611387
  1.4206064347915701  7.1167986667721088  1.4230081488892827
  0.0013756691228917  5.6890437422547286  2.8422870738648283
  1.4210564635738792  7.1012641285234794  4.2657333071675332
 -0.0011696516911503  5.6844095362601239  5.6843693500204342
  1.4180261328194883  7.1023935764427790  7.1024774011947516
  0.0061905148377176  5.6865338183742633  8.5341461752435404
  1.4225989130647816  7.1204441432182293  9.9598782286402248
 -0.0142733579886256  8.5199666671401566 -0.0040995810016482
  1.4319024250436851  9.9060147400336831  1.4118673769492802
 -0.0132935594823363  8.5195131404491899  2.8571597533668012
  1.4248521506282925  9.9643710447720224  4.2452073833284221
  0.0062534398584202  8.5342763266918436  5.6865134982049383
  1.4225324712857232  9.9600096099104505  7.1205373593997008
 -0.0061987207987325  8.5285916299303093  8.5285659193151773
  1.4407827926518606  9.9861215256238474  9.9860804225099535
  4.3127208694999029  1.4118671506320382  1.4118447980739546
  2.7895718603245925  0.0540559563336338  2.7668075123980458
  4.2542590599764614  1.4190662736598911  4.2453849525108502
  2.8463831718525259 -0.0027389849107606  5.6839167281430782
  4.2588574559890517  1.4211483592864991  7.1204442256299698
  2.8420345620575480  0.0015356926682833  8.5476974424244343
  4.2326550149270297  1.4029640955926161  9.9861218784237984
  2.7896909769852716  2.7668074649798813  0.0541753446029667
  4.2543644365531428  4.2452073411552611  1.4188951606272517
  2.8082124511765190  2.8007957700520891  2.8009759278780391
  4.2526859278849445  4.2591393369601649  4.2592520562957246
  2.8506277546117484  2.8465954298223597  5.6889519088639391
  4.2665181063304765  4.2707018901124929  7.1028269518764446
  2.8478469271805724  2.8580204476289572  8.5199667126717866
  4.2470636581014247  4.2396314669082624  9.9714971178931684
  2.8464857977858991  5.6839166308510505 -0.0026360089451633
  4.2587261283091102  7.1205373167110038  1.4212147456149979
  2.8507819094682136  5.6889280928938781  2.8467059220326631
  4.2665792382427012  7.1026723851756861  4.2707356467848294
  2.8421780194217945  5.6880470604765749  5.6881409908299831
  4.2648401341998960  7.1060581648367229  7.1059693102392520
  2.8434310322163880  5.6868866889969887  8.5302420225714197
  4.2610893085655412  7.1200556023508810  9.9579215393384111
  2.8422113707605638  8.5476974813074147  0.0017122828931392
  4.2326141888914020  9.9860802112436371  1.4029642720071707
  2.8477697522949708  8.5197106825064992  2.8580885159323439
  4.2472384779327372  9.9716721244710289  4.2396316070776470
  2.8433952114813676  8.5302245471344040  5.6867529803463723
  4.2608142883973237  9.9576463832673205  7.1200554455028007
  2.8394224742157244  8.5225035966791864  8.5225381287386650
  4.2265811217985849  9.9921545306116837  9.9921545772761391
  5.6710379516837488  0.0017123642805710  0.0015355128022797
  7.1019369992182675  1.4230080649003767  1.4231407427102449
  5.6987686618474038 -0.0040994917824414  2.8580202051016941
  7.1173851581973153  1.4225807806099833  4.2656660881417361
  5.6884934969626046  0.0003160967730541  5.6868865368016381
  7.1162582936945453  1.4257210494788015  7.1023937580452845
  5.6961973453556345  0.0043246889141989  8.5225034511834963
  7.0981983870179697  1.4212146907444416  9.9600097104751573
  5.6990249455939166  2.8580888717336554 -0.0040225793707067
  7.1174711815397700  4.2657333951248519  1.4226904640943256
  5.6992225190456383  2.8571596404090642  2.8570406835705584
  7.1096940981587116  4.2631551960996248  4.2631605092676486
  5.6845893901920039  2.8375564347933038  5.6865335469338296
  7.1091894900560728  4.2620004726384924  7.1096062930502324
  5.6901699016030367  2.8499460463563628  8.5285918322465406
  7.1160631502898619  4.2707358109858902  9.9521562561710528
  5.6885112082920450  5.6867531900779857  0.0003519970673048
  7.1163416980886023  7.1024773357483006  1.4257210183141611
  5.6844594809623858  5.6865137451746302  2.8374937761731913
  7.1091294349083336  7.1095461428927083  4.2620003716429835
  5.6847210520838329  5.6821474181572968  5.6822001377726066
  7.1077528648231283  7.1109827779879931  7.1109826151600872
  5.6746487684145341  5.6818716398699385  8.5440742776885426
  7.1126770137554471  7.1059694133378182  9.9538956997054289
  5.6962319127508856  8.5225382851663252  0.0043247202378703
  7.0982914197622629  9.9598781003502168  1.4211481492110916
  5.6901438614184556  8.5285657015479508  2.8499457220800313
  7.1159087391578639  9.9522174431908006  4.2707021606417905
  5.6746613472780894  8.5440870148458075  5.6818716536646523
  7.1127661050813069  9.9538955682354402  7.1060585273810224
  5.6832006593825621  8.5355351206104757  8.5355350036025950
  7.0986802537310076  9.9579212455520185  9.9576461591774557
  8.5348190468019052 -0.0026359581335359 -0.0027387691342301
  9.9152745710984558  1.4217039544805730  1.4214127274601536
  8.5297839230856027 -0.0068805363711329  2.8465953454119948
  9.9655589037593391  1.4210118612390321  4.2531532379227608
  8.5305948244558003  0.0015691321959805  5.6880470624672261
  9.9530020306935736  1.4226903374446271  7.1012642286590992
  8.5319825794599193  0.0003518647454352  8.5302244787209478
  9.9735282730708619  1.4188951702948820  9.9643711812188851
  8.5298075109089275  2.8467058499998781 -0.0070346716841188
  9.9655820454580564  4.2531769394159067  1.4210118113408976
  8.5296918045984356  2.8422870377106850  2.8423714960918742
  9.9777850963109049  4.2409503355225331  4.2409503848496888
  8.5343663907517993  2.8449170466943130  5.6844095188723385
  9.9555805478596486  4.2631603741245163  7.1090417147641212
  8.5322219654273184  2.8374940329299574  8.5342762291522067
  9.9595961823046526  4.2592519575098935  9.9660494336402987
  8.5306884214259640  5.6881409035699440  0.0015693709949348
  9.9530695216761504  7.1013506424476542  1.4225808432919194
  8.5343260330841861  5.6843692525563521  2.8449170832816115
  9.9555752174716154  7.1090418333527721  4.2631549973512461
  8.5406165168780923  5.6781191298112610  5.6781188403509759
  9.9567349361153141  7.1096061045884662  7.1095462303700661
  8.5365884995856049  5.6822001529872193  8.5340146091626643
  9.9480338408786295  7.1028268015927702  9.9522172614568358
  8.5318490796587536  8.5302419819057267  0.0003162581152594
  9.9733504284880823  9.9644768071877348  1.4190663297686705
  8.5322018314282406  8.5341461420339169  2.8375565050205562
  9.9594835860066251  9.9660496351878010  4.2591396258513887
  8.5365355480321288  8.5340145530820806  5.6821472459030629
  9.9479998367217508  9.9521565933378024  7.1026725089465188
  8.5368639206967654  8.5440744715936230  8.5440868249238218
  9.9791041039887212  9.9714971145162465  9.9716719295224294
  2.7774494805503802  0.0662980629604243  0.0662973899524940
