Fe Ru
 1.0000000000000000
    11.4247756116292258    0.0000000000000000    0.0000000000000000
     0.0000000000000000   11.4247756149113240    0.0000000000000000
     0.0000000000000000    0.0000000000000000   11.4247756123296647
 Fe  Ru 
 126   2
Cartesian
  0.0556221247874764 -0.0025464896162424 -0.0026270802212273
  1.4280969761402427  1.4280969009788942  1.4280969197016198
 -0.0025465040972584  0.0556221016160347  2.8588209840332373
  1.4435313628815027  1.4128603815409861  4.2749970746051069
  0.0004928059812292  0.0003832227857561  5.7138839393622396
  1.4279146639837776  1.4279146500734563  7.1404847681551882
  0.0003832329175040  0.0004928044931588  8.5670855585537140
  1.4128604691529270  1.4435313055299175 10.0059724375490937
 -0.0026270890949238  2.8587403622491561  0.0556221489468292
  1.4433334457806837  4.2749971261002324  1.4126625338764884
  1.4349115616709087  4.3037409749330227  4.3037720933582850
 -0.0001303543555782  2.8563600386648154  5.6668138203568557
  1.4202265845399160  4.2842052739854566  7.1329687382409963
 -0.0042190218011976  2.8603498539624050  8.5649460612464345
  1.4280969438677540  4.2808087079060151 10.0001607841363125
  0.0004351467236130  5.7139532984143253  0.0002775527112549
  1.4282792309709436  7.1404847376923479  1.4282792547217682
 -0.0001661549975316  5.6668138571799211  2.8563243028660050
  1.4199490589529056  7.1328447051944739  4.2844275211070322
  0.0020851139929146  5.7103067165624735  5.7104031972061930
  1.4280969121038658  7.1404596587602223  7.1405098569969061
 -0.0034075666538944  5.7109362573797862  8.5660453457328973
  1.4359672803221881  7.1480007889112098  9.9967642345575509
  0.0002775295292548  8.5670162191785462  0.0004351550627415
  1.4126625585056567 10.0059724229154323  1.4433334680102206
 -0.0041559565951362  8.5649460904597472  2.8604128795947168
  1.4280969409758382 10.0002324522723267  4.2807370780535274
 -0.0034005783877543  8.5659857924309168  5.7110667578520928
  1.4362448575301849  9.9965420092582118  7.1481248023648121
 -0.0074386239755939  8.5612335164496596  8.5612747444881823
  1.4212823571347264  9.9771973942106200  9.9772285637203861
  4.2749970243184103  1.4433334401521849  1.4435313624101365
  2.8587404024502789 -0.0026270899392692  2.8005717781314701
  4.2808087075185215  1.4280969367709317  4.2808087091903646
  2.8603498847398714 -0.0042190167309060  5.7160234958628049
  4.2842052452509023  1.4202266419364715  7.1480008055930568
  2.8563600629947588 -0.0001304285365948  8.6141556547335441
  4.3037409181922452  1.4349115396318104  9.9771973750286129
  2.8588209632645980  2.8005717562548877 -0.0025464992902283
  4.2807370381202787  4.2807370545046632  1.4280969434103126
  2.8005717448304965  2.8588209730369374  2.8587404050175653
  4.2838420296320665  4.2845866600310574  4.2843159668422190
  2.8559163210775234  2.8557587899699319  5.7139532685427712
  4.2936151528485409  4.2936151418354092  7.1404847510423011
  2.8557587501566370  2.8559164041500584  8.5670161997803831
  4.2845866407673903  4.2838420354278268  9.9966535327763797
  2.8604128686365953  5.7160234647084760 -0.0041559810963888
  4.2844274922021919  7.1481248027383959  1.4199490436391506
  2.8558106884322916  5.7138839517825994  2.8557011061117192
  4.2935337140977321  7.1404847472207678  4.2935337339436472
  2.8636324643711966  5.7196947814427181  5.7197359944899828
  4.2921491166951213  7.1386650971860401  7.1387301903033169
  2.8596014237459575  5.7149241761497782  8.5700332555998546
  4.2808420654280761  7.1454578521309360  9.9999864265030194
  2.8563242842186098  8.6141556672086850 -0.0001661715468800
  4.3037721084321880  9.9772285488216657  1.4349115580993741
  2.8557010909210998  8.5670855674896504  2.8558106758550208
  4.2843159543074938  9.9963828504429966  4.2838420415465990
  2.8595944447791850  8.5699027197046131  5.7149837387476339
  4.2809830976065744 10.0001274602648476  7.1454578350825910
  2.8541087821360671  8.5705663346700067  8.5706627885762412
  4.2894380553151246  9.9915314604556560  9.9915314730774334
  5.6668137991159035 -0.0001661803264602 -0.0001304006779795
  7.1404847089243875  1.4282792258698553  1.4279146707142798
  5.7139532604749315  0.0004351469752140  2.8559163591775865
  7.1480007804527377  1.4359673022077957  4.2842052551359942
  5.7109362719008567 -0.0034075250900007  5.7149242047614583
  7.1404596413663786  1.4280969597501474  7.1404596650984278
  5.7103067012025015  0.0020851394235597  8.5705663334183164
  7.1328446997536563  1.4199490269654385  9.9965420201974897
  5.7138839381163447  2.8558106661709557  0.0004928158444886
  7.1481247886224404  4.2844274936414708  1.4362448568049095
  5.7160234087767785  2.8604128996775215  2.8603498456004517
  7.1454578342476269  4.2808420439356407  4.2809830731829503
  5.7149241764377701  2.8596014631876714  5.7109362534656496
  7.1386650593901830  4.2921491017208115  7.1422392958238694
  5.7196947629169008  2.8636324973891125  8.5612335090164038
  7.1404847606492003  4.2935337380878043  9.9874357966169729
  5.7110667629263103  5.7149837264677013 -0.0034005540015034
  7.1405098286292263  7.1405098565440799  1.4280969368661440
  5.7149837040232727  5.7110667673161801  2.8595944463170513
  7.1387302298471731  7.1423044150483408  4.2921490931816901
  5.7101761817499330  5.7134474327529414  5.7133827811239319
  7.1404847410328429  7.1404847606773902  7.1404847409517407
  5.7134474300421152  5.7101761203424442  8.5675866634850912
  7.1423043987080801  7.1387301892761847  9.9888204041915056
  5.7104031921715865  8.5706628046017688  0.0020851204425800
  7.1329686713452967  9.9967642605443547  1.4202266118863860
  5.7197359925955586  8.5612747196118395  2.8636324975295957
  7.1404847303701828  9.9873543507935718  4.2936151380658805
  5.7133828006793319  8.5675220732716504  5.7101761228366792
  7.1422392956314917  9.9888204279758064  7.1386650726574805
  5.7164277509950985  8.5645417614070585  8.5645417311341276
  7.1355116500369009  9.9999864485510415 10.0001274582495157
  8.5649460414699465 -0.0041559622772189 -0.0042190071867541
 10.0059724171944300  1.4126625519000264  1.4128604605301283
  8.5670162110507047  0.0002775291744802  2.8557587334979821
  9.9771974033250590  1.4212824103989339  4.3037409593181488
  8.5612334757611173 -0.0074385588682640  5.7196947719293885
  9.9965420219998968  1.4362448850332399  7.1328446707643893
  8.5659857814040183 -0.0034005274453225  8.5699027333741196
 10.0002324365581536  1.4280969662379190 10.0002324209460127
  8.5670855610604111  2.8557010770877937  0.0003832414684144
  9.9772285617030310  4.3037721095554291  1.4212823822562828
  8.6141556437052689  2.8563243203619240  2.8563600435221432
  9.9915314909249986  4.2894380296995314  4.2894380422551519
  8.5705662909508415  2.8541087997946959  5.7103067183015739
 10.0001274703568317  4.2809830453924222  7.1355116739475077
  8.5699027245660790  2.8595944620553277  8.5659857970429449
  9.9963828603422176  4.2843159773967372  9.9971274902833418
  8.5612747137481318  5.7197360007317783 -0.0074385717551681
  9.9967642240680643  7.1329687092096927  1.4359672825925582
  8.5706627971435179  5.7104031699856641  2.8541087749395522
  9.9999864384381461  7.1355116543407480  4.2808420432782199
  8.5645417395463461  5.7164277105210113  5.7164277632009526
  9.9888204029900471  7.1422393072554780  7.1423044258286312
  8.5675220682595725  5.7133828069144412  8.5707933510772456
  9.9873543162143843  7.1404847384063270  9.9873543827039519
  8.5660453160400074  8.5700332544037412 -0.0034075338240123
 10.0001608063589078 10.0001607924368638  1.4280969435675299
  8.5700332520333369  8.5660453235005924  2.8596014308566882
  9.9966535272868366  9.9971274588500130  4.2845866593997064
  8.5675866829032152  8.5707933592267054  5.7134474258634258
  9.9874357551556994  9.9874358138184647  7.1404847429529550
  8.5707933697109500  8.5675867247331929  8.5675220944279271
  9.9971274454570853  9.9966535527909226  9.9963828791828142
  2.8584171825417490 -0.0022232777848400 -0.0022232809514424
 -0.0022232226880861  2.8584171450086866  2.8584171983034130
