Fe Ag
 1.0000000000000000
    11.4029966241966996    0.0000000000000000    0.0000000000000000
     0.0000000000000000   11.4029966258666935    0.0000000000000000
     0.0000000000000000    0.0000000000000000   11.4029966227268389
 Fe  Ag 
 126   1
Cartesian
  0.0296547176155500  0.0353507244184196  0.0356124639276173
  0.0283269369398736  0.0353047361691965  2.8223342614566209
  1.4208901627813528  1.4298751290105294  4.3254933938325442
 -0.0121796847398672 -0.0068462728117504  5.7016575695040874
  1.4141752175769262  1.4365743305396605  7.1184229100833907
 -0.0348702589926437 -0.0048569005639591  8.5218369876142024
  1.3848482348682358  1.4654799864227872  9.8774475809807907
  0.0284148614697443  2.8224222154184395  0.0353047433392255
  1.4208740614401079  4.3254934006111130  1.4298589830288324
  0.0453173414454360  2.8054317983658059  2.8054318216629230
  1.4224926289032276  4.2665620900430596  4.2666205186349950
 -0.0096434320501051  2.8604380519130332  5.6997097076175436
  1.4198486706411668  4.2838015795081263  7.1125841790686515
 -0.0350411867470399  2.8856771979949256  8.5136868520356224
  1.4172458501975962  4.2704058615270402  9.9762030245912570
 -0.0120315576856335  5.7017255182099849 -0.0067202284723463
  1.4141748174649322  7.1184230076366655  1.4365739805148547
 -0.0096888937972799  5.6997097432998709  2.8603925680192348
  1.4197876688591700  7.1124357899800073  4.2837496890870623
  0.0023410334485529  5.6971057076734875  5.6970459854972839
  1.4157325144774755  7.1126003203449040  7.1126409652130409
 -0.0095192240354097  5.7011058627447015  8.5415509322642986
  1.4135885773276466  7.1263576781914688  9.9752891979292517
 -0.0350148001515940  8.5221369441972907 -0.0050851738112247
  1.3852691957560934  9.8774475726107145  1.4659008919824403
 -0.0349280281835708  8.5136868895974640  2.8857903095980126
  1.4172471004992762  9.9764500348993366  4.2703288663102663
 -0.0094198235176255  8.5416076906032377  5.7010927472778539
  1.4137153616125893  9.9752996415346011  7.1264761624598343
 -0.0207590736758234  8.5313779448090248  8.5313052959486484
  1.4082262098518679  9.9788025688311865  9.9793794263861031
  4.3762982454102151  1.4659009810796864  1.4654800105690251
  2.8153983808961875  0.0356124672440344  2.8210944372722007
  4.2775428144206407  1.4335032712365043  4.2704058574870736
  2.8567540334534396 -0.0061134841488293  5.6970110949826491
  4.2784565518296489  1.4371606568207425  7.1263576692819051
  2.8454108607506354  0.0048737910567998  8.5286009084178929
  4.2743663937624632  1.4425229522764922  9.9788025591931326
  2.8151367092721542  2.8210944961960109  0.0353507362838739
  4.2772957585494806  4.2703289693916684  1.4335019710460521
  2.8154444142902797  2.8223342605919797  2.8224221771699236
  4.2687604395036889  4.2728485880225735  4.2728020320984053
  2.8574693705878773  2.8627806588988900  5.7017255884403353
  4.2846406834602764  4.2890384430885682  7.1168854478889125
  2.8558343561109973  2.8857639556129038  8.5221368944952527
  4.2765483648073452  4.2745752922517291  9.9772303811710543
  2.8568626597985554  5.6970110727690120 -0.0060047756925883
  4.2784461189660057  7.1264761128560759  1.4370338499452757
  2.8575953574942838  5.7016575606401352  2.8629288759234814
  4.2846219591768326  7.1168465898531039  4.2891515954053681
  2.8505619305776957  5.7004136976686386  5.7005389829934776
  4.2792232805135919  7.1170154246562429  7.1169733202485181
  2.8489185826030403  5.7034323068206669  8.5427715322060269
  4.2806107147547969  7.1303075812595491  9.9732134667367607
  2.8458754098328658  8.5286008828874085  0.0053382977715825
  4.2749432407433590  9.9793792986900396  1.4425229326114195
  2.8556061172106006  8.5218369907970608  2.8856194261406922
  4.2765153768852695  9.9771974149112044  4.2745753346011615
  2.8488620200233208  8.5426939854194899  5.7033453693362253
  4.2805322435593194  9.9731350406964356  7.1303075591783438
  2.8444142085928332  8.5288748750500769  8.5288945460608403
  4.2583650099792667  9.9953807658929019  9.9953807353697748
  5.7251448732464789  0.0053383074234095  0.0048737719416931
  7.1353228127505552  1.4365739339881789  1.4365742455721395
  5.7316088919430070 -0.0050852156474382  2.8857639836639546
  7.1411615783194744  1.4309005709827836  4.2838015346281368
  5.7109741999120178  0.0018306748574322  5.7034322481742450
  7.1411047604750610  1.4350165688892562  7.1126003654223169
  5.7248513017603120  0.0063349812907031  8.5288749002209414
  7.1272696374889977  1.4370338806692144  9.9752996265101377
  5.7319087530142152  2.8856194232415748 -0.0048569470131340
  7.1413100368943496  4.2837496213115474  1.4309614793784791
  5.7400589092457794  2.8857903492233876  2.8856772339625767
  7.1425900892277703  4.2880827702453566  4.2880606484331905
  5.7121948725853722  2.8602684018544471  5.7011058269401023
  7.1395743082831595  4.2844821510121616  7.1142391587654785
  5.7224404618462152  2.8715082582985896  8.5313779650593453
  7.1368990977194509  4.2891515946431751  9.9691238187433271
  5.7110517630841828  5.7033453886919094  0.0018871339630653
  7.1411455019826775  7.1126410160429305  1.4350166121744052
  5.7121381198851813  5.7010928120846449  2.8601688934987592
  7.1395066364057698  7.1141713871101109  4.2844820801789405
  5.6957883359189418  5.6960955452733586  5.6961184424164113
  7.1390119042080258  7.1147338793030066  7.1147338673058789
  5.7057538152442033  5.7029530104202184  8.5479700887270216
  7.1367303322920019  7.1169734167517209  9.9745224849612484
  5.7248709299420142  8.5288944411664289  0.0063349256056557
  7.1273880873762874  9.9752892595277416  1.4371605582453555
  5.7223678263269147  8.5313053720865231  2.8715082831384708
  7.1368603459705264  9.9691050841613045  4.2890384396025008
  5.7057757496387103  8.5479919814255769  5.7029529928684051
  7.1367724582943266  9.9745224358132951  7.1170154378528734
  5.7138579609930593  8.5398878411342398  8.5398878198235906
  7.1234382637079001  9.9732135448029577  9.9731350351960479
  8.5567347127803224 -0.0060048014462506 -0.0061134826347648
  9.9282524250885000  1.4298589824573518  1.4298751723466219
  8.5520201884791831 -0.0067202657758384  2.8627806800584947
  9.9871252628993066  1.4282564634762436  4.2665620603159660
  8.5532068093667082  0.0001872031390609  5.7004136338080533
  9.9699961041956584  1.4309614734440725  7.1124357729779826
  8.5504004567399701  0.0018871438744076  8.5426939941694275
  9.9834168132907042  1.4335020352227521  9.9764500487157513
  8.5520882397232381  2.8629288711465612 -0.0068462699078098
  9.9871837015841312  4.2666205360902900  1.4282564519370147
  8.5540360387220460  2.8603926196747156  2.8604381173628584
  9.9956606324450892  4.2580851597595473  4.2580851940225992
  8.5566998563061460  2.8484081198282181  5.6971056173290577
  9.9656630126960462  4.2880605895734307  7.1111557233005902
  8.5526529741978248  2.8601688767560303  8.5416076446269642
  9.9808972113531720  4.2728019742432819  9.9849852937454067
  8.5533321721750610  5.7005390301358165  0.0001873257144166
  9.9699441701617921  7.1125841816432880  1.4309005246586541
  8.5566401550687683  5.6970459911612883  2.8484080401316594
  9.9656851245153586  7.1111557764521587  4.2880828046901902
  8.5623145937412186  5.6914311720367730  5.6914312086285435
  9.9692637416567305  7.1142390850827324  7.1141714803818248
  8.5576502151944016  5.6961184191634127  8.5579574772459885
  9.9647073549611598  7.1168854575145764  9.9691050669848433
  8.5503135053491128  8.5427715444177608  0.0018306532626759
  9.9833398961133692  9.9762029319377366  1.4335032973352015
  8.5526399541976996  8.5415509343500862  2.8602683749914712
  9.9809437907685528  9.9849852995419894  4.2728485626555335
  8.5576273764644455  8.5579574425917233  5.6960955712770476
  9.9645941924147046  9.9691237917057833  7.1168465366868761
  8.5507927836480153  8.5479700755390571  8.5479919903955714
  9.9791705033322629  9.9772304190286665  9.9771973821298605
  2.7241826903082496  0.1265664240802311  0.1265663947800167
