Fe Cu
 1.0000000000000000
    11.3733034525082513    0.0000000000000000    0.0000000000000000
     0.0000000000000000   11.3725376785856387    0.0000000000000000
     0.0000000000000000    0.0000000000000000   11.3733034615232977
 Fe  Cu 
 126   1
Cartesian
  0.0068268410800965  0.0001088993855388 -0.0265676116473066
  1.3824080220813872  1.3748351290225458  1.4613948392092821
  1.3727959016917179  1.3736248976903678  4.2122919231423683
 -0.0014183545609103 -0.0001341012297287  5.7237147322699657
  1.4210981837082770  1.4233413180081962  7.1225637150997931
 -0.0112043565434449 -0.0000403027804441  8.5237177760497698
  1.4347297178100991  1.4089085339246590  9.9659053369492110
 -0.0114605875220202  2.8429277835590945  0.0092790884700249
  1.4277649561408443  4.2515287152031487  1.4158635514425999
 -0.0079320182804302  2.8917070745906970  2.8512920625879477
  1.4212608702758476  4.2718406407509466  4.2760154033358919
  0.0011556191967986  2.8289685063960488  5.6786871442586877
  1.4178893023331280  4.2707997828811513  7.1024275624357314
 -0.0108675207107859  2.8448816817580838  8.5223853018088462
  1.4184802367448066  4.2530377364087544  9.9511148483821099
 -0.0022161718975123  5.6862687896215114  0.0090212912636403
  1.4274623377679314  7.1210089106209296  1.4155609167105978
  0.0062801359227322  5.6862687940555867  2.8370457344591102
  1.4212590520987891  7.1007359557509293  4.2759411164242707
 -0.0030153940380470  5.6862691492224897  5.6796966346239603
  1.4178637939977625  7.1017499555193018  7.1024049302949113
  0.0031728993674991  5.6863212462781902  8.5354690356317224
  1.4186998129997819  7.1195511090299446  9.9509296858567886
 -0.0115415479880957  8.5294914149978656  0.0093116744671432
  1.3819311664735463  9.9977025541439328  1.4609178050059293
 -0.0079661496098727  8.4808305742353891  2.8512579112118561
  1.3730026350631923  9.9990923515074037  4.2117399710248069
  0.0012597035525193  8.5436855444694437  5.6785132613621947
  1.4208096626059499  9.9491268142615841  7.1225964168192144
 -0.0109766399051869  8.5276503178691936  8.5224734555158772
  1.4348691282792168  9.9635647103777778  9.9658250705445095
  4.2508042760008262  1.4089729439201817  1.4084567710085729
  2.8698934985823699 -0.0001089275053455  2.8364991313202408
  4.2640395748995070  1.4246085484687505  4.2541418775914472
  2.8323863806090346 -0.0001053570405820  5.6765646173920272
  4.2654499608554932  1.4218012684463224  7.1201028228360510
  2.8402929210179195 -0.0000327602287031  8.5455402251768078
  4.2564526126106932  1.4088422446179820  9.9602340049855727
  2.8330378782306198  2.8109367557344647  0.0102640587258380
  4.2656996485671206  4.2529864809528659  1.4246260750998638
  2.8340142319779678  2.8430462436529669  2.8548674070393343
  4.2670110077925489  4.2719172017544897  4.2738205965909115
  2.8279284297269167  2.8288506627037484  5.6743238003758529
  4.2598263380600390  4.2644915028974184  7.0948886076826589
  2.8387289513777749  2.8498670147843725  8.5204739133179181
  4.2620803041977400  4.2479097397087662  9.9543245095329240
  2.8427399578304771  5.6862687807536396  0.0005859049633918
  4.2655144945512786  7.1194998907131728  1.4248457055180950
  2.8343046242678933  5.6862688894305737  2.8455420194533358
  4.2670678903272341  7.1006416492486117  4.2736878817312336
  2.8375553937277047  5.6863306572790036  5.6829978686007454
  4.2598838140486102  7.1081441142902468  7.0947537706943873
  2.8404151499576740  5.6862906670693372  8.5307399686631200
  4.2623048198377900  7.1246278037415012  9.9545490454351970
  2.8330618404810939  8.5616007939128860  0.0102879332950313
  4.2507238975525752  9.9636291691255305  1.4085960186787594
  2.8340468609252363  8.5296098775154654  2.8547864270976664
  4.2643542447997165  9.9482459707857398  4.2540790044296584
  2.8278383070464423  8.5437852015481397  5.6741552098721666
  4.2652873698108911  9.9504948595351710  7.1201648244482421
  2.8387836898153496  8.5226394093734843  8.5204040613794092
  4.2563952778030503  9.9636955038247468  9.9601767483519037
  5.6710890658406754  0.0000328128141790  0.0030329552156228
  7.0940328395370464  1.4234108355061528  1.4225162001879745
  5.6929114852615319  0.0000403262038374  2.8545303055878533
  7.1125030923290558  1.4251050121632516  4.2734769435454272
  5.6863982065112637 -0.0000080183577602  5.6794374725381598
  7.1175904978903617  1.4213096236329232  7.0990713002796575
  5.6995334299054532 -0.0000000212915033  8.5170958189886257
  7.0964645280043737  1.4220427696763498  9.9513418583008519
  5.6962252447112514  2.8498982431961424  0.0045421627247042
  7.1142244076019541  4.2707877184745273  1.4254620732665200
  5.6941558617928232  2.8448872777913916  2.8543024747517047
  7.1070233431229477  4.2644746392675588  4.2648277548212974
  5.6807596781110750  2.8325818973040158  5.6815473540189405
  7.1173280697476748  4.2534555969403325  7.0993304715501973
  5.6974300684420554  2.8495712921807788  8.5191466187667757
  7.1218755628200148  4.2643935583270229  9.9567455399669083
  5.6858893423990589  5.6862469300947591  0.0029107631101872
  7.1142017711038701  7.1017379084260304  1.4254365712680881
  5.6811603386407903  5.6862164261684836  2.8401529414298792
  7.1070096085348453  7.1079256423449495  4.2648374007290473
  5.6899679496365296  5.6862358627029348  5.6865096748171267
  7.1172988346573662  7.1190821016802293  7.0993013002326730
  5.6858936824535764  5.6862688723859591  8.5307357427009283
  7.1217407076212842  7.1080461853744508  9.9568030542920560
  5.6961553837891437  8.5226706531629901  0.0045968547004699
  7.0940655456768722  9.9491963456347392  1.4222276684473778
  5.6942439911466787  8.5276560007164957  2.8541933720507604
  7.1123698542833429  9.9474544468249206  4.2734260587376918
  5.6808030888179468  8.5399312162367504  5.6814732892959388
  7.1175581134555994  9.9512280577628918  7.0990388482488092
  5.6974826750088523  8.5229663960786510  8.5191993103618984
  7.0965265291573676  9.9507364347258900  9.9511793649454852
  8.5400647133625380  0.0001053096748855  0.0109395553165452
 10.0048893889216082  1.3734453248184544  1.4703232479989294
  8.4929145789675182  0.0001341501961551  2.8447442054978804
 10.0049944884346207  1.3694977402902180  4.2117903595126194
  8.5457369982919325 -0.0000000025824925  5.6708923614437090
  9.9432031860247196  1.4250832503704385  7.1042595315512402
  8.5371919017731415  0.0000079894264963  8.5302311038841516
  9.9625503034617058  1.4242916416022633  9.9522750338115653
  8.5424741379092097  2.8287524148967549  0.0154875554620926
  9.9406882369710026  4.2718016973492903  1.4220668216629504
  8.5381160022463281  2.8288520662457306  2.8420661301588077
  9.9518438947115886  4.2665061824493264  4.2647582641613395
  8.5502981035204790  2.8254385435796605  5.6663853793021834
  9.9517919165321551  4.2646120880993070  7.1096196835352208
  8.5351560672262465  2.8326064936999447  8.5358262142936248
  9.9429414962514961  4.2718960052003121  9.9495615326382794
  8.5336314587542415  5.6862069965123005  0.0057705129383564
  9.9406139096850179  7.1006969894944731  1.4220650982965819
  8.5369326588862524  5.6862684944253896  2.8463413324967690
  9.9518710891861328  7.1060315110554848  4.2647853776533289
  8.5353552960313746  5.6862688672900363  5.6812739684699549
  9.9518016064386590  7.1080630592575007  7.1096059682472079
  8.5301196674546453  5.6863018075497616  8.5266613655232106
  9.9428087141609591  7.1006204486013518  9.9496183896068722
  8.5423055067558114  8.5436870802997973  0.0153975118016984
 10.0043373864606995  9.9989128650335370  1.4705300331911693
  8.5379421566582678  8.5435691976925092  2.8421702690878607
 10.0048389084624496 10.0030399749839951  4.2116347683886968
  8.5502439491735025  8.5470991411826862  5.6663312539154713
  9.9431523907171311  9.9474326082358804  7.1041262295914347
  8.5350820014814364  8.5399558143748795  8.5358696549348458
  9.9624874733552939  9.9479291706468018  9.9525897381578865
  2.8443566694332540 -0.0000000084625371 -0.0010308964085790
