Fe V 
 1.0000000000000000
    11.3888954472883128    0.0000000000000000    0.0000000000000000
     0.0000000000000000   11.3807695797884882    0.0000000000000000
     0.0000000000000000    0.0000000000000000   11.3888954340364510
 Fe  V  
 126   2
Cartesian
  0.0237794537277466  0.0139192063635741  0.0000020575836453
  1.4006971360353520  1.4225963964177086  1.4465265222692938
 -0.0031391827955466  0.0001054279343850  2.8504096814906976
  1.4234229026888614  1.4227552117129405  4.2623479329580718
  0.0001100528634850  0.0001816455699323  5.6944193757552686
  1.4234228550009476  1.4224369315659702  7.1265480442798772
 -0.0031861958131459  0.0001053934010469  8.5385324515339516
  1.4006970265848488  1.4225967394835051  9.9423686115713821
  0.0237794181054689  2.8312731731622600 -0.0000014994253265
  1.4121806907502341  4.2631433505050280  1.4350543686298443
 -0.0031861899294985  2.8450873440317483  2.8503624408814794
  1.4250820289195931  4.2691615108115331  4.2692015777221615
  0.0001104224627415  2.8450105551309002  5.6944761033500804
  1.4249460542991175  4.2690302188099123  7.1196805572403443
 -0.0031389603832365  2.8450869866813364  8.5384859583698951
  1.4121695495274937  4.2631430346247328  9.9538529417281527
  0.0033363082509403  5.6902731741194463 -0.0000292497787961
  1.4265677320131647  7.1129811528183264  1.4206564557995434
 -0.0026898348653330  5.6982693597381591  2.8499333649260636
  1.4230285316609781  7.1130564040274828  4.2770588193809305
  0.0042553927351105  5.6900065350340432  5.6944383527653128
  1.4230286067473439  7.1129050774901978  7.1118372534052234
 -0.0027096264223460  5.6982694745132614  8.5389817403515167
  1.4265680329611108  7.1129811468736097  9.9682390417920868
  0.0033367946080880  8.5356888297037585  0.0000297186106028
  1.4121700098817138  9.9628182075806464  1.4350417352841016
 -0.0027096601363487  8.5276923627440020  2.8499135286077419
  1.4249452363394153  9.9569318310753445  4.2692149731016542
  0.0042554571027558  8.5359554595629952  5.6944568167624441
  1.4250819242004369  9.9568009125662869  7.1196941078908740
 -0.0026893308130040  8.5276928446524582  8.5389619750421684
  1.4121812577789927  9.9628181118574197  9.9538411897777497
  4.2937505316150322  1.4225963487536679  1.4465270279425135
  2.8472254991891126  0.0139196536284842  2.8234443785185035
  4.2710249759740018  1.4224374942365321  4.2623473554810856
  2.8472238602961526  0.0029245098909325  5.6944475320065564
  4.2710251838667519  1.4227552333730207  7.1265481190460411
  2.8472224102859904  0.0139191864370716  8.5654504409524712
  4.2937506231364582  1.4225963840684699  9.9423684662547736
  4.2822782913547233  4.2631429465595172  1.4350424228546201
  2.8472223367846734  2.8312729774441023  2.8234446585955610
  4.2695021893399892  4.2690297702130078  4.2692148633200588
  2.8472236070167836  2.8422681383640662  5.6944480073442962
  4.2693654378656340  4.2691605562069403  7.1196937315224034
  2.8472251897765490  2.8312732327920274  8.5654505252524871
  4.2822664263023498  4.2631431678847074  9.9538414068246279
  2.8472239763803331  5.6722647332564593 -0.0000005511462178
  4.2678800492034270  7.1129807514243568  1.4206562992215601
  2.8471943668597697  5.6902736747897231  2.8438881002292971
  4.2714198094441587  7.1129054967468761  4.2770584540975758
  2.8472233441961086  5.6892028242369337  5.6944476238410724
  4.2714194418727258  7.1130569860009816  7.1118369576430993
  2.8472530973785481  5.6902738324520277  8.5450075998877502
  4.2678799854691523  7.1129809765119090  9.9682394095496711
  2.8472232581999783  8.5536979328158207 -0.0000001056914449
  4.2822663819721853  9.9628193841017705  1.4350537780728039
  2.8472535026550680  8.5356882527798508  2.8438876975175837
  4.2693652980119570  9.9568008088082269  4.2692014966670335
  2.8472236958754853  8.5367591982782027  5.6944473285621688
  4.2695020371530141  9.9569319221497352  7.1196805859974344
  2.8471942506970023  8.5356883884501009  8.5450078240031822
  4.2822782632505847  9.9628185504416429  9.9538533723327358
  5.6706685341057668  0.0139191633417347 -0.0000009766357319
  7.1095711979939740  1.4227549944095250  1.4238006838914115
  5.6976333724574717  0.0001050209712283  2.8503624140886283
  7.1264570052366629  1.4225964187701163  4.2792331300166371
  5.6943370492880607  0.0001816543798250  5.6944760225354747
  7.1264569513253573  1.4225961182826208  7.1096626474221285
  5.6975864241510079  0.0001055721180044  8.5384856681804280
  7.1095710372843532  1.4224373056706534  9.9650942979856225
  5.6706680158883733  2.8312731797907080  0.0000016804240870
  7.1164257455959659  4.2691612575539866  1.4221411551088741
  5.6975860364995601  2.8450868659081023  2.8504100411506950
  7.1193667498885889  4.2693217542284705  4.2720768522790582
  5.6943370071824706  2.8450106041946261  5.6944198772486985
  7.1192997882562299  4.2693219581678523  7.1167528308435184
  5.6976334355645708  2.8450870765686749  8.5385325058231185
  7.1164387543409999  4.2690305858520441  9.9666173786445338
  5.6911115929625735  5.6902729835188648  0.0000298057584282
  7.1242824535276705  7.1130560956751401  1.4241959428047204
  5.6971572451430585  5.6982700077407893  2.8499136587439304
  7.1168265317806316  7.1129809201169758  4.2696030458867158
  5.6901924705777915  5.6900066801703320  5.6944565870140149
  7.1168261805877568  7.1129809378963422  7.1192930018772014
  5.6971383304749077  5.6982693326584855  8.5389624690497818
  7.1242828432441625  7.1129052271326492  9.9646993372641237
  5.6911109650497878  8.5356886822739320 -0.0000295312188155
  7.1164385966685222  9.9569320364923968  1.4222778500708106
  5.6971375050895068  8.5276923081459550  2.8499334987654468
  7.1193000471359298  9.9566402587907881  4.2721424348854464
  5.6901918909036233  8.5359547738227342  5.6944387236779699
  7.1193667505764369  9.9566399242486163  7.1168194985882405
  5.6971571533843450  8.5276925584546657  8.5389816001207688
  7.1164258710230310  9.9568007468126201  9.9667537458251623
  8.5416712067313743  0.0029241443084612 -0.0000000165088690
  9.9737722082471283  1.4224371603288148  1.4238014487069532
  8.5416436404955594  0.0001816858934934  2.8471134784254204
  9.9568860986518111  1.4225961515181551  4.2792332234911612
  8.5416719823728773 -0.0027005440308049  5.6944473918974134
  9.9568863254432003  1.4225959558945578  7.1096625525307973
  8.5417002387524104  0.0001821587039704  8.5417820609122028
  9.9737718579891936  1.4227553557829633  9.9650938152159032
  8.5416714272938759  2.8422682668917583  0.0000002787939631
  9.9669043290441657  4.2690296630418096  1.4222781790570360
  8.5416999735539427  2.8450105115278457  2.8471134573560688
  9.9640431569218073  4.2693218415986776  4.2721425437177292
  8.5416715204421294  2.8478927429564878  5.6944474426612137
  9.9639772300627083  4.2693217912876040  7.1168192013223130
  8.5416435193829656  2.8450100313882292  8.5417815933123222
  9.9669178361555595  4.2691611780900995  9.9667539244401677
  8.5416715851271103  5.6892028876763883 -0.0000000240446562
  9.9590611872442754  7.1129052386262135  1.4241963050591273
  8.5416625084467768  5.6900071083712218  2.8429682581588329
  9.9665164645960616  7.1129804737121871  4.2696027517246629
  8.5416715680524344  5.6878065474780195  5.6944473514749303
  9.9665161730851484  7.1129812386089064  7.1192920599389558
  8.5416802747389493  5.6900073309066839  8.5459277135645273
  9.9590606977179554  7.1130560917029273  9.9646992010905375
  8.5416712713020555  8.5367593085828073 -0.0000006003558697
  9.9669177717783217  9.9568012398573114  1.4221415461812117
  8.5416808361385232  8.5359551776902780  2.8429689898450041
  9.9639767394275793  9.9566402761556994  4.2720762215889776
  8.5416719010219797  8.5381549154666008  5.6944484512913789
  9.9640434860798894  9.9566403110299593  7.1167524241746802
  8.5416618662871269  8.5359550909280362  8.5459271654345823
  9.9669042899859761  9.9569319048916789  9.9666173053075013
  2.8472241533610831 -0.0270247399035817  0.0000005626068636
  2.8472238360704702  2.8722163836383592  0.0000000834312113
