Fe Ru
 1.0000000000000000
    11.3916025270962162    0.0000000000000000    0.0000000000000000
     0.0000000000000000   11.3916025235172906    0.0000000000000000
     0.0000000000000000    0.0000000000000000   11.3916025302753035
 Fe  Ru 
 126   1
Cartesian
  0.0639770764888421  0.0144928701765294  0.0143935443843498
  1.3549870481893793  1.4929134911094339  1.4929135879490207
  0.0052157549852712 -0.0498443552528608  2.8427036080778114
  1.3722289670578542  1.4759040446300498  4.2066695786368280
 -0.0006878267730798  0.0155584227763224  5.6842228945860986
  1.4271365694796765  1.4204537745986738  7.1271822127103217
 -0.0017269943179440  0.0111157978618482  8.5416642491257058
  1.4111466878138852  1.4369165828985788  9.9484424046713880
  0.0051970215050169  2.8426849145097255 -0.0498443997296412
  1.3719965858992862  4.2066694703075873  1.4756716637175871
  1.3598192004764935  4.2162317693076741  4.2161303435516864
 -0.0010206164153536  2.8490076630074364  5.7440777299964649
  1.4196066595375254  4.2789879283421630  7.1163309757519864
 -0.0118473704912232  2.8597760811053980  8.5310765174365315
  1.4286346755609254  4.2682614693912555  9.9682431441916588
 -0.0005960320687171  5.6842569627427935  0.0155910914229130
  1.4274468775567393  7.1271821881980264  1.4207640188966679
 -0.0011070187336241  5.7440776323828802  2.8489212422284211
  1.4194957549800216  7.1162951100196921  4.2790798730800415
  0.0013639403495823  5.6808629708060661  5.6808627412558215
  1.4158366272201366  7.1133293132853117  7.1133809110749562
 -0.0000290418170814  5.6830046269319912  8.5446926587295433
  1.4271772335758974  7.1199972617968177  9.9745843251803592
 -0.0016461665431179  8.5415073402397432  0.0111386135397070
  1.4109839917581493  9.9484424704860235  1.4367539452558873
 -0.0118754409403021  8.5310765451306825  2.8597479394495191
  1.4284678450750143  9.9683576716140969  4.2681933332388109
 -0.0000679478808116  8.5447050517549066  5.6830494518906294
  1.4273465153508607  9.9743308931270871  7.1199940627604086
 -0.0067523807404489  8.5370012755794900  8.5370194911235906
  1.4154554618461019  9.9595006422631975  9.9594204984777832
  4.2910607335582762  1.4367538748367750  1.4369166496201029
  2.8334078279130606  0.0143936008188844  2.7839235277237591
  4.2712600018179989  1.4192659887255075  4.2682615484322168
  2.8241242105868847  0.0236729323104554  5.6704255781258830
  4.2649188102849562  1.4207233574253959  7.1199972954064767
  2.8453731739073445  0.0025306701157184  8.5972537694898499
  4.2800826959161578  1.4324451628792878  9.9595006382421047
  2.8335071024022174  2.7839234515169435  0.0144928426257614
  4.2711454706779364  4.2681932997186296  1.4194327620925733
  2.8977450193392604  2.8427035543881902  2.8426849448216522
  4.2784378907427936  4.2779782068935912  4.2778494651882317
  2.8323095838968433  2.8484966480160883  5.6842569818792015
  4.2775274532247289  4.2760339862272687  7.1142797341272068
  2.8367620379744034  2.8495467530232896  8.5415073069826200
  4.2663988096111600  4.2676377202150544  9.9732550897617109
  2.8242276160868220  5.6704255515980444  0.0237764961088792
  4.2651722833374315  7.1199939960879028  1.4205540888855095
  2.8323421523009613  5.6842227798424299  2.8485884804631119
  4.2774985147918274  7.1143446377678892  4.2760272753970856
  2.8265015619573637  5.6743368273368127  5.6743382341617616
  4.2683473643884398  7.1069886846627321  7.1070270117539680
  2.8431198067370662  5.6901843633861473  8.5431959111194917
  4.2584555180348858  7.1124252021684926  9.9808245745948057
  2.8453699258433187  8.5972536801714163  0.0025274271271507
  4.2800025160275172  9.9594204719443606  1.4324451720503062
  2.8367848186572799  8.5416642582603295  2.8496276129613829
  4.2662480845158965  9.9731043173975209  4.2676377829536971
  2.8431110754555688  8.5431998231659225  5.6902659235834880
  4.2586786445434841  9.9810476414350813  7.1124252199133018
  2.8456510115804781  8.5422620621410221  8.5422641247035553
  4.2638357194414569  9.9756674699001699  9.9756674589614818
  5.6422494196319972  0.0025274811066693  0.0025306768439789
  7.1123209098852769  1.4207639942376333  1.4204538337780590
  5.6979958238313344  0.0111385436578510  2.8495468317032051
  7.1231722018992611  1.4282940223147991  4.2789879789321157
  5.6963072468720091  0.0047808773798945  5.6901843977910831
  7.1261223170889316  1.4320640285950625  7.1133293748464350
  5.6972391102418065  0.0022496720609408  8.5422620975786927
  7.1195091597818907  1.4205540923519273  9.9743308350709032
  5.6978389536639265  2.8496275829229560  0.0111158194531878
  7.1232080578565302  4.2790798745296019  1.4284049081474537
  5.7084266873920750  2.8597479470311415  2.8597760733531628
  7.1195162778688861  4.2762573586108754  4.2763708262344053
  5.6948105082738678  2.8479297255105180  5.6830046956515607
  7.1216788163955558  4.2705119776546727  7.1177938231014561
  5.7024836614300485  2.8546530057505031  8.5370012355533369
  7.1251585131455322  4.2760273515556708  9.9620046607753494
  5.6963033274470227  5.6902657644205332  0.0047894712874268
  7.1261738023785055  7.1133808479654999  1.4320640122560988
  5.6947980398149145  5.6830494513676095  2.8479685794401060
  7.1217092788873479  7.1178243320014571  4.2705119264796343
  5.6931624396329923  5.6916379848052028  5.6916061475659294
  7.1268452542015757  7.1126579409947102  7.1126579235951706
  5.6955655035624497  5.6953383908911421  8.5439416235214125
  7.1325144213562996  7.1070269754252662  9.9711557813057556
  5.6972410702624448  8.5422641420004712  0.0022496337301958
  7.1195058620184284  9.9745843179339122  1.4207234217095257
  5.7025019241708312  8.5370194278988745  2.8546529734004569
  7.1252234242496266  9.9619756643110460  4.2760340227130964
  5.6955615710237018  8.5439376514237590  5.6953383851401318
  7.1324761475023699  9.9711557424647150  7.1069887407620405
  5.7007997448846330  8.5387034194753308  8.5387034373552702
  7.1270779672133200  9.9808245666650812  9.9810476638443095
  8.5690775751253430  0.0237765259792114  0.0236729994483909
 10.0328336314744586  1.4756717052189572  1.4759040754840740
  8.5552461652514573  0.0155910419530042  2.8484967219284960
 10.0233727894599802  1.4880814813702044  4.2162318418082325
  8.5651648645881604  0.0213991154952736  5.6743368146488331
  9.9604233220484364  1.4284049240269825  7.1162950437695329
  8.5492373005772766  0.0047896091800911  8.5431998242209044
  9.9713098524275914  1.4194327595683407  9.9683576695700076
  8.5552802893736448  2.8485884113070425  0.0155584875153182
 10.0232714124124946  4.2161303144398987  1.4880814329930143
  8.4954254754720360  2.8489212522541623  2.8490077025632146
 10.0210214864830753  4.2184817528955980  4.2184816595233618
  8.5586404178351714  2.8465367693729933  5.6808629476773218
  9.9632458027935584  4.2763708993038163  7.1199868550624874
  8.5564537279572104  2.8479686087830505  8.5447050290074529
  9.9615249946834243  4.2778494465416568  9.9610652709896819
  8.5651663787169330  5.6743382238647548  0.0213990911065239
  9.9605152880555909  7.1163308714619058  1.4282939774834649
  8.5586402067166372  5.6808626771395119  2.8465367410335909
  9.9631323047157387  7.1199869228443307  4.2762573605880361
  8.5625489531679033  5.6769542184784809  5.6769541855507626
  9.9689912136326342  7.1177938663487064  7.1178243255938751
  8.5478652488105151  5.6916061638146118  8.5463407491153394
  9.9634692044971302  7.1142797651458469  9.9619757274970322
  8.5493187816804106  8.5431959200370304  0.0047808477998239
  9.9712416628907743  9.9682432305668502  1.4192660313300556
  8.5564985217629896  8.5446926306371864  2.8479296822690938
  9.9616537424298990  9.9610652181854071  4.2779781676986106
  8.5478970908071439  8.5463407210405791  5.6916379120102247
  9.9634758702832809  9.9620046306123164  7.1143446300272108
  8.5441647727862371  8.5439416131564183  8.5439377160188172
  9.9718653856905650  9.9732550694406186  9.9731042918263970
  2.8206997417915836  0.0272008433350017  0.0272008659929867
