Fe Cu
 1.0000000000000000
    11.3887397989304819    0.0000000000000000    0.0000000000000000
     0.0000000000000000   11.3881451228946755    0.0000000000000000
     0.0000000000000000    0.0000000000000000   11.3887397997811757
 Fe  Cu 
 126   2
Cartesian
  0.0040623737191797 -0.0205137293809840  0.0000192956452584
  1.4233600264787496  1.4235181435465560  1.4238249388187052
 -0.0174156159866851 -0.0045701937741431  2.8645407522067385
  1.4277384105290807  1.4234195929332987  4.2485690710610600
  0.0022653331384822  0.0027180027815973  5.6943908231022800
  1.4277384447254167  1.4236165895438180  7.1401707571811128
 -0.0173558806650431 -0.0045702082388520  8.5241392366625064
  1.4233599892436160  1.4235181216726216  9.9649148988863931
  0.0040623787009203  2.8675500144830259 -0.0000193046305906
  1.4236559185683326  4.2577370657285698  1.4235619423528538
 -0.0173558394744061  2.8516064587487753  2.8646005522317992
  1.4143870422019609  4.2784588543909639  4.2667369440466283
  0.0022653590493351  2.8443183272712615  5.6943490121640599
  1.4145508620854568  4.2785566827589108  7.1219465144675667
 -0.0174156222447794  2.8516064733530664  8.5241989807660161
  1.4236230517296438  4.2577370154226539  9.9652107914294046
 -0.0135983322527791  5.7060332339296940  0.0000675765780914
  1.4190819332227500  7.1175907699964842  1.4281030287085721
 -0.0127428071943761  5.7122655111267875  2.8598507699573417
  1.4223746724995032  7.1176313880499800  4.2850449145696681
  0.0001761539769868  5.6892422185483786  5.6943848821572614
  1.4223746513829523  7.1175500947097934  7.1036949336877591
 -0.0126657861050950  5.7122654697359678  8.5288120934036638
  1.4190819842546758  7.1175907077311074  9.9606367876461679
 -0.0135983915145718  8.5291481918425234 -0.0000675887615685
  1.4236230476731853  9.9774444046470876  1.4235290700327570
 -0.0126658451640733  8.5229159096083862  2.8599277916834112
  1.4145508692229276  9.9566247387643507  4.2667933071602722
  0.0001761270965985  8.5459391873537367  5.6943548970951792
  1.4143869696814990  9.9567225915541773  7.1220028858319084
 -0.0127428071365480  8.5229158981500373  8.5288890453052488
  1.4236558855834438  9.9774443312851080  9.9651778880531516
  4.2710098695458800  1.4235181632719873  1.4238249295478080
  2.8472042043243064 -0.0205136909224254  2.8431225044259705
  4.2666313967773632  1.4236166444922889  4.2485690442165884
  2.8471849415480643 -0.0046485371086503  5.6943699409202084
  4.2666314043045341  1.4234195969209851  7.1401707285630600
  2.8471656737003879 -0.0205137536386310  8.5456173148053853
  4.2710099463181255  1.4235181450949732  9.9649148625904047
  4.2707468639871600  4.2577370161985275  1.4235290584994253
  2.8471656228224753  2.8675500339101392  2.8431225809675529
  4.2798190319638474  4.2785567169681507  4.2667933076317031
  2.8471849031488397  2.8516847625720412  5.6943699196162045
  4.2799829247932699  4.2784588389872322  7.1220028219704785
  2.8472042399670148  2.8675499739597892  8.5456172730044955
  4.2707140760319939  4.2577370272904140  9.9651778810704403
  2.8471849921387111  5.6747886609622293 -0.0000000224892464
  4.2752879898245499  7.1175907181373796  1.4281030279413289
  2.8472525710472993  5.7060332268721012  2.8607833050287335
  4.2719952077418082  7.1175500236367633  4.2850449382437414
  2.8471849161221705  5.6881004098640506  5.6943698961913025
  4.2719951939830416  7.1176313448317314  7.1036948867679435
  2.8471173840008941  5.7060332156308169  8.5279564369254199
  4.2752880333459720  7.1175906908222810  9.9606367582184134
  2.8471850155486074  8.5603927599797434 -0.0000000256759870
  4.2707139709504336  9.9774443408311928  1.4235619279007770
  2.8471173380140207  8.5291481636204782  2.8607833330288486
  4.2799829030049485  9.9567225732864841  4.2667369700722624
  2.8471849123787347  8.5470810155364507  5.6943699056870374
  4.2798189739248160  9.9566247039887443  7.1219464599930413
  2.8472525638919688  8.5291482057269032  8.5279564578159093
  4.2707469262574005  9.9774443211138948  9.9652107251662780
  5.6903074474020041 -0.0205137483916441 -0.0000193158525388
  7.0957539724131609  1.4234195793363462  1.4194464899800094
  5.7117257008796134 -0.0045701646042916  2.8646005464831341
  7.1283183736377156  1.4235181096040697  4.2811334772596759
  5.6921046228518870  0.0027180082889149  5.6943489199938089
  7.1283184507288038  1.4235181633108429  7.1076063308820787
  5.7117854871130644 -0.0045702089592729  8.5241990273083026
  7.0957539792576494  1.4236166020816057  9.9692933107957309
  5.6903075536047290  2.8675500352986072  0.0000192458357018
  7.1139219498752686  4.2784588382009634  1.4327979104231996
  5.7117855096825156  2.8516064333124311  2.8645407961752034
  7.1254994691171323  4.2694167354720340  4.2782372556198931
  5.6921045958865326  2.8443182646013301  5.6943908487250487
  7.1254222673926018  4.2694167048772451  7.1104252843225675
  5.7117257489476785  2.8516064824137342  8.5241392003832210
  7.1139782497145347  4.2785566534449408  9.9561057014408263
  5.7079682944959131  5.7060332165748440 -0.0000675992777459
  7.1322299822374564  7.1176313780606257  1.4248102430319984
  5.7070356967513591  5.7122655138690579  2.8599277753328263
  7.1228382669140329  7.1175907155948748  4.2756533174527984
  5.6941937729582266  5.6892422360066117  5.6943548973246987
  7.1228383090122200  7.1175906775623687  7.1130864360451511
  5.7071127077369059  5.7122655063895946  8.5288890313646810
  7.1322298936755741  7.1175500576533679  9.9639294813136701
  5.7079682890391421  8.5291481673865022  0.0000676760593114
  7.1139782340333095  9.9566247058924944  1.4326340761561949
  5.7071126573811535  8.5229158196260411  2.8598507371088098
  7.1254222824537452  9.9657646486431943  4.2783145375118412
  5.6941937449128366  8.5459391343218556  5.6943848703203983
  7.1254995211849650  9.9657646382877605  7.1105024802995853
  5.7070356910034361  8.5229159024770613  8.5288119817595582
  7.1139218799068660  9.9567225079239066  9.9559418385999123
  8.5415548419266756 -0.0046485405044059 -0.0000000009090487
  9.9873556785367317  1.4236166422032974  1.4194464579485273
  8.5415757497409821  0.0027179739177503  2.8449195661997924
  9.9547912861845163  1.4235181012188507  4.2811334896931408
  8.5415548058951600  0.0021057893736895  5.6943699193563306
  9.9547912839578299  1.4235180804669314  7.1076063170370656
  8.5415338851582074  0.0027179688420078  8.5438202097614280
  9.9873556725475474  1.4234196336009621  9.9692933499894654
  8.5415548486524244  2.8516848216917219  0.0000000037699961
  9.9691314264655695  4.2785567340036259  1.4326340326235962
  8.5415339473615113  2.8443182478896305  2.8449196464987332
  9.9576874747115962  4.2694166838183873  4.2783145565278744
  8.5415549132594162  2.8449304860644093  5.6943698908150218
  9.9576101829803871  4.2694167082352541  7.1105024514535042
  8.5415757440212250  2.8443183089634911  8.5438201572623633
  9.9691877886685241  4.2784588679837361  9.9559418761317922
  8.5415549275631442  5.6881004319890671 -0.0000000479152982
  9.9508799093261384  7.1175500599441470  1.4248102094234349
  8.5415698494243220  5.6892422459127934  2.8470088209480391
  9.9602713971348056  7.1175906881139364  4.2756533511679207
  8.5415548635754579  5.6869685241564927  5.6943699056109756
  9.9602714253039739  7.1175907034215253  7.1130864472581168
  8.5415398831279532  5.6892422566109655  8.5417309515313615
  9.9508798485062115  7.1176313657434793  9.9639294661253768
  8.5415548624730580  8.5470809432093660 -0.0000000406444414
  9.9691878134586229  9.9567225495226523  1.4327979551083005
  8.5415398968087981  8.5459391442951649  2.8470088175735846
  9.9576101007578792  9.9657646295544797  4.2782373080395297
  8.5415548615443591  8.5482128384484959  5.6943699178472400
  9.9576873948021767  9.9657646677476848  7.1104251747596097
  8.5415698537085341  8.5459391475776130  8.5417309599263866
  9.9691314333778216  9.9566246911768879  9.9561057368890093
  2.8471849356951648 -0.0503793306505497 -0.0000000197083335
  2.8471849309807511  2.8974155723225938 -0.0000000026800003
