Fe Cr
 1.0000000000000000
    11.3762389820653294    0.0000000000000000    0.0000000000000000
     0.0000000000000000   11.3759911884136269    0.0000000000000000
     0.0000000000000000    0.0000000000000000   11.3762389820063010
 Fe  Cr 
 126   2
Cartesian
  0.0120090029061133  0.0000001146102385  0.0120091316070446
  1.4220298869932879  1.4009560911351793  1.4220299067985789
  1.4177373473964208  1.4098215311757654  4.2499741934632480
  0.0043835643299768 -0.0000145888937446  5.6724930424600242
  1.4220297487536142  1.4157736620833854  7.1101491912368582
  0.0079902383614535 -0.0000542568924496  8.5383684597697620
  1.4263221339595451  1.4098216539387474  9.9703243843095635
  0.0068380761503419  2.8318839029770468  0.0067345764483574
  1.4220298805234413  4.2518828854832078  1.4220297940603366
 -0.0058182582790396  2.8316372211520671  2.8498917080775255
  1.4185860779275730  4.2624334364053942  4.2653765356951947
  0.0019277683032503  2.8363384154771967  5.6823794222555506
  1.4220297448920278  4.2699279039411966  7.1101492027179818
 -0.0052936316107669  2.8458108447159782  8.5257613097872138
  1.4254736346174297  4.2624334543908118  9.9549223112466798
  0.0036116592989446  5.6879955552730292  0.0036118383146395
  1.4220299682867876  7.1241082962557485  1.4220296319787320
  0.0020638010602808  5.6879955672711322  2.8419958545108996
  1.4187934881446518  7.1136653808470882  4.2652262545935962
  0.0010637099049546  5.6880275210519589  5.6846749816039965
  1.4220299123368949  7.1059494173378308  7.1101494282233419
  0.0011106250837258  5.6880242374872116  8.5340307220801677
  1.4252663890586321  7.1136653303778363  9.9550725225087398
  0.0067347926822168  8.5441074666090060  0.0068379645015111
  1.4220299617642376  9.9750352543106118  1.4220298269389215
 -0.0058320522047134  8.5443539502097146  2.8498778294769496
  1.4175847830826387  9.9663229556726947  4.2499920436090202
  0.0018654040147417  8.5396600435801879  5.6823641476009774
  1.4220298637777433  9.9597099084116572  7.1101493437585237
 -0.0053212871594599  8.5301552249672241  8.5257944194774264
  1.4264748801936953  9.9663227501045260  9.9703065874494374
  4.2499919951358338  1.4096684546985618  1.4175847781983633
  2.8320505712854147 -0.0000001247634014  2.8320505623098158
  4.2574052064629226  1.4153078805016861  4.2572897865633612
  2.8360695223355217 -0.0000544606160391  5.6819302946714467
  4.2643158120577791  1.4183143268820446  7.1180669258060449
  2.8396763903833326 -0.0000149737377617  8.5478055900827261
  4.2634701081513109  1.4138863748412993  9.9567605323345116
  2.8498778547950221  2.8316372854379748 -0.0058320938823290
  4.2652263416391767  4.2623257199399367  1.4187935239384120
  2.8372216009711275  2.8318838347149948  2.8373250472726061
  4.2680508216914053  4.2700132150103727  4.2681619528415080
  2.8493532051483452  2.8458110892808048  5.6945374729355027
  4.2656520132171334  4.2678726858916454  7.1078952585552706
  2.8421317920558069  2.8363382999872075  8.5379194132695577
  4.2625610582604914  4.2600599022751213  9.9579260499242874
  2.8419958414183482  5.6879956111869081  0.0020638768177566
  4.2653765825128769  7.1135577084856152  1.4185861380771796
  2.8404481300630868  5.6879956214278877  2.8404482465966230
  4.2681620165156788  7.1059778496061092  4.2680509927238255
  2.8429492924501525  5.6880244455005355  5.6862681774225008
  4.2656976799849504  7.1082096355186488  7.1078090202429181
  2.8429960602343165  5.6880276338986659  8.5356235541180769
  4.2623728114329520  7.1159314684851003  9.9577376547105363
  2.8498914688807315  8.5443540909901401 -0.0058183007556740
  4.2499741818949577  9.9661696018022070  1.4177375053782533
  2.8373252745363593  8.5441076003881502  2.8372217383451321
  4.2572897992477747  9.9606831755384828  4.2574049724209155
  2.8493810644238948  8.5301551029224427  5.6945042654905382
  4.2644600749792492  9.9578823061774724  7.1181637084660379
  2.8421945213677655  8.5396600294118912  8.5379348557908763
  4.2635384795349314  9.9621048598149002  9.9568287336263506
  5.6724931363343760  0.0000147905346263  0.0043832468190784
  7.1101493763806189  1.4162813108274890  1.4220298478533537
  5.6819304604625573  0.0000545009569929  2.8360695801012703
  7.1181635450024059  1.4181089462062599  4.2644600532575092
  5.6842666654524896 -0.0000001068553700  5.6842662755929281
  7.1101492756407438  1.4222441522267850  7.1101493183301789
  5.6842753877202217 -0.0000000540923534  8.5360230514261310
  7.1021351548146070  1.4181087274218476  9.9558388450200788
  5.6823639668426473  2.8363311736552279  0.0018652433910125
  7.1101494248670996  4.2700418290445024  1.4220297900345797
  5.6945043965598980  2.8458358286514378  2.8493809805297161
  7.1078089298784519  4.2677814997376871  4.2656979750640183
  5.6868279938461468  2.8411102151267773  5.6868442374002699
  7.1101490875230882  4.2655719349768546  7.1101493237585354
  5.6931241212854964  2.8481870590633829  8.5271541850786257
  7.1124898694262644  4.2677815189240889  9.9546008848442487
  5.6846752333767787  5.6879636358898189  0.0010638882105762
  7.1101491365535630  7.1060630781270797  1.4220296379993436
  5.6862680404180104  5.6879666412370415  2.8429490848923611
  7.1078954026962542  7.1081187282351479  4.2656521626214339
  5.6874023661675226  5.6879955112831091  5.6874023675757917
  7.1101494241421097  7.1104193606730011  7.1101493369715918
  5.6868832436619634  5.6879953631164524  8.5334153335033918
  7.1124034066634065  7.1081186435985115  9.9546468921049680
  5.6823792299361786  8.5396527741083545  0.0019280035608945
  7.1101493593822251  9.9602173939476319  1.4220300337706873
  5.6945374391874095  8.5301802115504195  2.8493534912300533
  7.1180668943018146  9.9576766759367263  4.2643158792182430
  5.6868442866628470  8.5348810814200302  5.6868282101856176
  7.1101493992572600  9.9537471027917714  7.1101493962836191
  5.6931445273906558  8.5278040978313747  8.5271745722686987
  7.1022318563402012  9.9576765831577383  9.9559827013194511
  8.5383685435034415  0.0000545194858572  0.0079901834321455
  9.9703067283943216  1.4096685909472928  1.4264746935072043
  8.5478056228019383  0.0000147442221920  2.8396765038951184
  9.9568286480196928  1.4138863543147189  4.2635383417807686
  8.5360231701380425  0.0000000204200032  5.6842754778036531
  9.9559828436304620  1.4183142806554847  7.1022319532893192
  8.5360323895074863  0.0000000706052558  8.5360323982354362
  9.9628936157786363  1.4153079048000983  9.9630090278518466
  8.5257943832077512  2.8458359755868416 -0.0053213531311082
  9.9550727617999080  4.2623258061531439  1.4252663986822218
  8.5379347258296558  2.8363310095427718  2.8421945710750678
  9.9577377169118702  4.2600597821077528  4.2623726614125141
  8.5271744728010557  2.8481871661231901  5.6931445387006701
  9.9546466209767051  4.2678724054699924  7.1124034888532455
  8.5334708203323011  2.8411102611394754  8.5334542960721880
  9.9522477553810518  4.2700131241831407  9.9521369045462968
  8.5340306812581819  5.6879670608341790  0.0011105878412387
  9.9549223109202476  7.1135578248486206  1.4254738009024204
  8.5356235924503654  5.6879636611266937  2.8429961152045791
  9.9579260477868896  7.1159314030912704  4.2625611285900549
  8.5334153308630452  5.6879955616939633  5.6868833412126074
  9.9546008496820857  7.1082097157089397  7.1124898229225906
  8.5328963408606135  5.6879955396806468  8.5328964602512301
  9.9521368415731519  7.1059779514010444  9.9522479112646138
  8.5257611588491269  8.5301800799501084 -0.0052935800039034
  9.9703245887656635  9.9661696888233617  1.4263223591474772
  8.5379192471008203  8.5396528098559514  2.8421319038646633
  9.9567603931404864  9.9621048748797421  4.2634701524061649
  8.5271542448741453  8.5278041226069305  5.6931241978049973
  9.9558385092558908  9.9578823586233796  7.1021350073294283
  8.5334544244629100  8.5348810477126484  8.5334704516765871
  9.9630090104529749  9.9606831564911822  9.9628936270139103
  2.8511872667589118  0.0000001351836509 -0.0071272903168625
 -0.0071270465518993  0.0000000939345948  2.8511869766369147
