Fe Pd
 1.0000000000000000
    11.4083716323024600    0.0000000000000000    0.0000000000000000
     0.0000000000000000   11.4083716263275434    0.0000000000000000
     0.0000000000000000    0.0000000000000000   11.4083716298533435
 Fe  Pd 
 127   1
Cartesian
  0.0171741123532995  0.0000000051006154 -0.0000000116566436
  1.3969976590095503  1.4550953116768972  1.4550953041192307
 -0.0052370908638081  0.0000000253447260  2.8573297338773096
  1.4217248561655802  1.4305753196305449  4.2739790098294854
 -0.0003907964228725  0.0000001167029898  5.7041858810479731
  1.4215175706405172  1.4303680375186190  7.1343927679631713
 -0.0052369512775666  0.0000000777795239  8.5510418225189575
  1.3969975721694081  1.4550953192087113  9.9532762647945567
 -0.0052368385793937  2.8573298118014256  0.0000000057380172
  1.4215175884095161  4.2739788502293061  1.4303681328538531
 -0.0211324555417784  2.8732255297132472  2.8732255144270460
  1.4223603916413918  4.2883504753440951  4.2884118845910519
 -0.0055125116348482  2.8576054706128931  5.7041857271888805
  1.4223604262786058  4.2884119160807757  7.1200212727896037
 -0.0211324941930931  2.8732253569715951  8.5351461705210472
  1.4217248985261781  4.2739788630382316  9.9777963316661751
 -0.0003908042154612  5.7041857378073137  0.0000000715797630
  1.4217246551195577  7.1343926408521128  1.4305753669894150
 -0.0055124589066159  5.7041857030378056  2.8576053666526255
  1.4223605501498808  7.1199596446132745  4.2883503186249801
  0.0060206095485660  5.7041857867334889  5.7041857454897915
  1.4223604951353472  7.1200213433035460  7.1199596375386847
 -0.0055125268469328  5.7041858694586569  8.5507661909256125
  1.4215176590606262  7.1343928796773017  9.9780035203503132
 -0.0052370866842817  8.5510416780570448 -0.0000001446951641
  1.3969976806818529  9.9532763626329874  1.4550953856294373
 -0.0211325981083457  8.5351461947960843  2.8732253321536154
  1.4215178051860275  9.9780035458801883  4.2739788768099993
 -0.0055126524757322  8.5507661253719469  5.7041858802598195
  1.4217248189832301  9.9777963940079442  7.1343926837705096
 -0.0211324282759355  8.5351463725587937  8.5351461645551012
  1.3969974991789103  9.9532763264770026  9.9532763253807204
  4.3071882551516758  1.4550953727410045  1.4550953052623741
  2.8520928264372922 -0.0000001105107312  2.8349187030838645
  4.2826682339400390  1.4303681921822673  4.2739789418199825
  2.8520928035870163  0.0000000082260221  5.7041857996284264
  4.2824610093232565  1.4305754371184738  7.1343927847897017
  2.8520928943108053  0.0000001054776565  8.5734528000609718
  4.3071882506699035  1.4550953570983047  9.9532762775425052
  2.8520927854919189  2.8349188178840050 -0.0000000908288738
  4.2824611429604049  4.2739788235153693  1.4305752901773423
  2.8520929491932492  2.8573299642084762  2.8573298762674932
  4.2818252953109210  4.2884119433114654  4.2883502011808288
  2.8520929589406974  2.8524835629765826  5.7041857950896420
  4.2818252817163076  4.2883505681875924  7.1199596512976759
  2.8520926796393171  2.8573298946303054  8.5510417799393252
  4.2826683305595727  4.2739789163346007  9.9780034406773801
  2.8520929869624045  5.7041858109352850  0.0000000221957007
  4.2826681555061423  7.1343925779610613  1.4303680892999562
  2.8520930542526033  5.7041859609726533  2.8524837513434114
  4.2818255192581374  7.1200212150048223  4.2884119844344895
  2.8520928864098987  5.7041858314579690  5.7041859396497907
  4.2818253497067404  7.1199596275135217  7.1200212100323599
  2.8520929687544898  5.7041857845046620  8.5558880012480891
  4.2824609088368897  7.1343927247473440  9.9777963793008038
  2.8520930017094694  8.5734529330086353 -0.0000000115089091
  4.3071882176431346  9.9532761562428558  1.4550954093234425
  2.8520929138258460  8.5510417661406031  2.8573298139017682
  4.2824609774815023  9.9777962641897506  4.2739789077500898
  2.8520928873986331  8.5558880097518681  5.7041857685692650
  4.2826681246587475  9.9780035235276809  7.1343926548518732
  2.8520928394603322  8.5510415961269395  8.5510417841647008
  4.3071882061242084  9.9532762168845537  9.9532762598206475
  5.6870117397681259  0.0000001488633104  0.0000000119777800
  7.1260719306423042  1.4305753438010453  1.4303680912925871
  5.7094227289326591 -0.0000001346608452  2.8573297562963291
  7.1404433363211961  1.4297327214956381  4.2884119852950704
  5.7045765689287924  0.0000001484942027  5.7041858857571448
  7.1405048417921506  1.4297325467715887  7.1200213328578590
  5.7094226021993499  0.0000001335517302  8.5510416340295876
  7.1260716834310651  1.4303682303335541  9.9777964259585659
  5.7094226742478105  2.8573298608916913 -0.0000000174311711
  7.1405047043903211  4.2883502690122253  1.4297324090284484
  5.7253183242584260  2.8732253355133648  2.8732254446384613
  7.1403066357429221  4.2882137638410391  4.2882136279112428
  5.7096982477860827  2.8576053175590239  5.7041858358828010
  7.1403066151873125  4.2882137122795561  7.1201578162879198
  5.7253184432214876  2.8732253838840700  8.5351461280895506
  7.1404433395428599  4.2884120242366244  9.9786391951425486
  5.7045765907172417  5.7041858087979396  0.0000001547842704
  7.1404432308521226  7.1199597284757870  1.4297323729065270
  5.7096982446493456  5.7041857304939105  2.8576053028188553
  7.1403064838390344  7.1201578272177102  4.2882137423321316
  5.6981651764071746  5.7041858974925423  5.7041858136903523
  7.1403065997512334  7.1201579577277272  7.1201579072911310
  5.7096982592118346  5.7041858483579091  8.5507661994962945
  7.1405047135056448  7.1200213434652335  9.9786391216782349
  5.7094227717252917  8.5510417121000657  0.0000000310760310
  7.1260719186075789  9.9780036045190830  1.4305752551044897
  5.7253184294324075  8.5351460932242063  2.8732255731937335
  7.1405047308572094  9.9786391603244198  4.2883503999009056
  5.7096983879818461  8.5507661740974719  5.7041858933531051
  7.1404432692337467  9.9786389416602486  7.1199597156083483
  5.7253184355823343  8.5351460567081805  8.5351462696094345
  7.1260718306734576  9.9777963277393642  9.9780035800625537
  8.5562788221510893 -0.0000000085373293  0.0000000364838649
  9.9864857077401155  1.4303680151876106  1.4305751210097750
  8.5562786888689093  0.0000000074348115  2.8524837436222397
  9.9720525992271511  1.4297325348301273  4.2883503385852091
  8.5562787239216700 -0.0000000159235857  5.7041857138659244
  9.9721143434500714  1.4297325584166103  7.1199596688631663
  8.5562787333786599  0.0000000325684555  8.5558880005185056
  9.9864857593849905  1.4305751868737004  9.9780035047225670
  8.5562787203320152  2.8524836350465619  0.0000000735818956
  9.9721141089674514  4.2884120144704330  1.4297324768530226
  8.5562787276654024  2.8576054141207194  2.8576054047951458
  9.9722508601884225  4.2882137730157988  4.2882136066882941
  8.5562787571810919  2.8460720246848026  5.7041858413264661
  9.9722507499017183  4.2882135947522562  7.1201577812197669
  8.5562786589698856  2.8576055179833442  8.5507662578633639
  9.9720525819833270  4.2883502779411016  9.9786392472548755
  8.5562787950459978  5.7041858069883125 -0.0000002268773092
  9.9720526784852570  7.1200212902571138  1.4297325002054102
  8.5562787673917278  5.7041859371920260  2.8460721952834001
  9.9722509515496327  7.1201579396514143  4.2882136697890934
  8.5562787184294713  5.7041858283984990  5.7041858684890574
  9.9722509210227823  7.1201578464305957  7.1201579526536012
  8.5562787723766043  5.7041859035370033  8.5622993028251813
  9.9721142398217655  7.1199597265111638  9.9786393669344786
  8.5562787552519861  8.5558881212722184  0.0000001551537479
  9.9864856265636188  9.9777963117507102  1.4303681049257833
  8.5562787513467349  8.5507662532637809  2.8576052184347032
  9.9721142434022312  9.9786392879977708  4.2884118321585074
  8.5562786954382446  8.5622994754006125  5.7041859038400418
  9.9720526205512598  9.9786391388994673  7.1200213386296314
  8.5562786123315622  8.5507661597318467  8.5507661884000505
  9.9864855644368067  9.9780035400623550  9.9777963548893815
  2.8520928696956722  0.0000000259538259 -0.0000001602690659
