Fe Mn
 1.0000000000000000
    11.3704010927550172    0.0000000000000000    0.0000000000000000
     0.0000000000000000   11.3704010884235824    0.0000000000000000
     0.0000000000000000    0.0000000000000000   11.3704010886414686
 Fe  Mn 
 126   2
Cartesian
  0.0311754039685381  0.0237835498728196  0.0238878474296985
  0.0246981216650494  0.0180591960618369  2.8179482583471360
  1.4248157637306971  1.4177364301765485  4.2525312106250253
  0.0021788013865385  0.0034069774453097  5.6745198246412105
  1.4245811270759745  1.4179118852749388  7.1201385398483863
  0.0133310027684964  0.0063002465087583  8.5458984090566101
  1.4451880180213983  1.3975166623185464  9.9802763063038515
  0.0246519896857421  2.8179021468764569  0.0180591569107559
  1.4248638443917925  4.2525311860126127  1.4177845513668486
  0.0176349512052183  2.8249653233628949  2.8249653396062118
  1.4222978682597864  4.2612332592462172  4.2611994574509016
  0.0076982890137233  2.8349540294973865  5.6744230707814234
  1.4201230500740412  4.2682711171116097  7.1041706727496257
  0.0131832092983036  2.8294011908407177  8.5503945283921521
  1.4276771808974817  4.2458968488167930  9.9624317177532511
  0.0023112406584255  5.6745358364012439  0.0033975424371173
  1.4246883944878102  7.1201385322110085  1.4180191959350965
  0.0076462398772870  5.6744230709382446  2.8349020035804124
  1.4200828422556484  7.1042520671143867  4.2683235935183124
 -0.0007234340193705  5.6879410205867389  5.6879081556073654
  1.4188968972350275  7.1024753827118987  7.1025107629903248
  0.0038260809707408  5.6862708193696072  8.5306706646800663
  1.4246976468390962  7.1171653903240655  9.9514121792906423
  0.0133307420232305  8.5458043833688624  0.0063770575168995
  1.4450836382809118  9.9802763231229328  1.3974122841492103
  0.0131991113964944  8.5503945708593427  2.8294170480586072
  1.4276003819646239  9.9624319438564726  4.2458027770925479
  0.0038175224046835  8.5306908124542247  5.6862899589806117
  1.4247071132312352  9.9512797273459306  7.1171814142659846
  0.0077739696154733  8.5317456403205938  8.5318110199083002
  1.4393592979066272  9.9737990726324455  9.9737529697626925
  4.2327250652380650  1.3974122756165512  1.3975166202595781
  2.8188167459381992  0.0238878448824663  2.8114248842236642
  4.2505696798723474  1.4149230730885942  4.2458968603226142
  2.8392120315456650  0.0032809449058450  5.6715626633462586
  4.2615891764769103  1.4179025918376711  7.1171653824652514
  2.8390365771302672  0.0035155708260602  8.5391700485529167
  4.2392484457143293  1.4032409469371767  9.9737990347618055
  2.8187124579155292  2.8114249021215678  0.0237835064470098
  4.2505693896444710  4.2458028014115010  1.4149998806790589
  2.8245411298206329  2.8179482760988712  2.8179021905979060
  4.2561264399996119  4.2598902211603766  4.2599556026315701
  2.8392027685499239  2.8402890408072801  5.6745358579639351
  4.2600743230013833  4.2610305893384197  7.1054303954068185
  2.8362232438776256  2.8292695520580473  8.5458043727372157
  4.2507172204529082  4.2413066864521642  9.9623000421940411
  2.8393192888989569  5.6715626715948302  0.0033882437848124
  4.2617216468910977  7.1171814064278740  1.4178931494655664
  2.8391933056572576  5.6745198050185666  2.8404215139787756
  4.2600829118270420  7.1054112864500807  4.2610104198722274
  2.8450035101986835  5.6891904885423621  5.6892258532327542
  4.2646238296153793  7.1037930830410438  7.1037602400530693
  2.8437773504205346  5.6875305289327924  8.5234301558644656
  4.2562020997911709  7.1172781365596238  9.9567472367436114
  2.8390846414826600  8.5391700484771267  0.0035637088081285
  4.2392023235086667  9.9737529444119133  1.4032409241991974
  2.8363000206157976  8.5458984507618538  2.8292692486122770
  4.2507013659014969  9.9622841321681186  4.2413066351028492
  2.8438175671601273  8.5233776350791040  5.6874491383055359
  4.2562541666368432  9.9567992614532255  7.1172781212973630
  2.8416025788639017  8.5305018002648403  8.5304680026311139
  4.2462654131830568  9.9667359053943692  9.9667359140274048
  5.6738313620913177  0.0035637241091873  0.0035155770992736
  7.0928628260036550  1.4180191567187601  1.4179119067551025
  5.6671970099848119  0.0063770552801667  2.8292694975610835
  7.1088306666209098  1.4224772414648996  4.2682710923554019
  5.6895712427756377 -0.0011771359157363  5.6875305166982182
  7.1104906396564278  1.4237033515134470  7.1024753558178855
  5.6825333772882276  0.0009976902779375  8.5305017748060195
  7.0958199830960771  1.4178931534090620  9.9512796797910443
  5.6671029484817135  2.8292692630848735  0.0063002687373603
  7.1087493068006351  4.2683236183897044  1.4225174378229191
  5.6626067858584150  2.8294170873882858  2.8294011824411491
  7.0997166731648891  4.2536522731084823  4.2536568783702844
  5.6823307307022519  2.8387741687084906  5.6862708225313430
  7.1010211974007147  4.2569596352158321  7.1119628276175515
  5.6811903709746581  2.8348262869861851  8.5317456525261264
  7.1075900945554347  4.2610104104970219  9.9529184604860177
  5.6896237388551025  5.6874491844880195 -0.0012172867303215
  7.1105259832695262  7.1025107343782796  1.4237033675658801
  5.6823105341403144  5.6862899359447043  2.8387827661597242
  7.1010385194543320  7.1119802126297236  4.2569595988980495
  5.6782597987321077  5.6797210715548925  5.6797383978327947
  7.1025169445719518  7.1104844530815150  7.1104844772625739
  5.6749524072907755  5.6784165312569987  8.5380443081174260
  7.1092082700608303  7.1037602421701234  9.9483775437215645
  5.6824995668963796  8.5304679889256043  0.0009977103476594
  7.0958359914760507  9.9514121843553394  1.4179025790803117
  5.6812557051814228  8.5318110368248608  2.8348262495036494
  7.1075709785166801  9.9529270334182520  4.2610305577618650
  5.6749570424808660  8.5380489665752162  5.6784165404128233
  7.1092411182006217  9.9483775292798740  7.1037930550340889
  5.6749992198645591  8.5380021804856607  8.5380021462177833
  7.0957232241418611  9.9567472010321314  9.9567992431219725
  8.5414386933286259  0.0033882841016869  0.0032809369112121
  9.9604701675703087  1.4177845753447034  1.4177364174752263
  8.5384655446487425  0.0033975384431614  2.8402890304907462
  9.9518019386730892  1.4203024027092537  4.2612332108204773
  8.5237755229855825 -0.0024032738734017  5.6891904045534414
  9.9446777758209226  1.4225173916678562  7.1042520554368984
  8.5255522182391079 -0.0012173136825848  8.5233776168864495
  9.9671985763356012  1.4149999000953901  9.9624319378687805
  8.5384815437043997  2.8404214993113932  0.0034069673539478
  9.9517681278120591  4.2611994166282994  1.4203024406410369
  8.5385782818529492  2.8349019538980218  2.8349540006459013
  9.9593022757586667  4.2536990913544734  4.2536990974407516
  8.5250932243496091  2.8433236765351051  5.6879409807255179
  9.9593490744059459  4.2536568865406243  7.1132846704176425
  8.5267114378467497  2.8387827795361997  8.5306907970281589
  9.9531111803829493  4.2599555649606060  9.9568749281554894
  8.5238108969195086  5.6892258338348833 -0.0024032327731736
  9.9447302600133778  7.1041707201857216  1.4224772404681094
  8.5250603763351815  5.6879081527139128  2.8433236958924222
  9.9593444870612302  7.1132847262477510  4.2536522675883290
  8.5317845957019642  5.6812168066677886  5.6812167969240317
  9.9560417152340683  7.1119628842525584  7.1119801790784827
  8.5332802934868965  5.6797383864322573  8.5347415926103949
  9.9519707948821488  7.1054304272339044  9.9529270736783673
  8.5254707844450035  8.5234301287824170 -0.0011770920873120
  9.9671045159966987  9.9624317416977366  1.4149230502298140
  8.5267305506797140  8.5306706658791249  2.8387741719798290
  9.9530458115079519  9.9568749227718509  4.2598901608733906
  8.5332629829531719  8.5347415963911537  5.6797210520638872
  9.9519909404636273  9.9529184759581106  7.1054112724773786
  8.5345848127782240  8.5380443515121112  8.5380489897548486
  9.9716946822339825  9.9623000577516834  9.9622842026628007
  2.8438460342811531 -0.0012458115808801 -0.0012458090411196
  1.4200543421265779  1.4225460288749061  1.4225459595965755
