Fe Au
 1.0000000000000000
    11.4057807141912875    0.0000000000000000    0.0000000000000000
     0.0000000000000000   11.4057807137479745    0.0000000000000000
     0.0000000000000000    0.0000000000000000   11.4057807151676087
 Fe  Au 
 126   1
Cartesian
  0.0098696849776275  0.0170800058309432  0.0170764025968199
  1.3146295216685300  1.5368156156712629  1.5368156955643208
 -0.0142927888519705 -0.0350766182112680  2.8656549499152768
  1.3750901993012279  1.4764210965485909  4.2412056375679894
 -0.0096427396962676  0.0089600053229645  5.6943122950043197
  1.4164985065365443  1.4346112777738658  7.1262103881603149
 -0.0197749986451325  0.0071445515845079  8.5383613424724896
  1.3749504266410411  1.4764319839799251  9.9216031414289763
 -0.0142098388239840  2.8657378936548854 -0.0350765241311939
  1.3750240382539833  4.2412056568793970  1.4763550731535720
  1.3705743891964719  4.2308263720387655  4.2308029040136548
 -0.0093217026090869  2.8608281673575422  5.7388496040692845
  1.4208557029373288  4.2911345120222784  7.1165153868395379
 -0.0369176044002183  2.8884270313908544  8.5190947727934159
  1.4178710683830227  4.2825336074245888  9.9692360923815961
 -0.0095481720852455  5.6942896732425048  0.0089804652131665
  1.4168339289500780  7.1262104681871028  1.4349466544809295
 -0.0093829298082874  5.7388496429629781  2.8607669521037487
  1.4207230060359217  7.1165277615246563  4.2911571163014726
  0.0016657866818638  5.6887763166928460  5.6887877774033395
  1.4167444446706381  7.1144909307799429  7.1145033378795857
 -0.0113263136230618  5.6946571574680531  8.5428754842469097
  1.4148126597314270  7.1237043398576780  9.9725193978406086
 -0.0196940142052154  8.5382599763249605  0.0071230548354298
  1.3750132605866161  9.9216031329782552  1.4764949033546682
 -0.0369817429363787  8.5190949226153148  2.8883628329559246
  1.4177705218040599  9.9694475260119795  4.2824467806161595
 -0.0113304461515732  8.5428620050780300  5.6946922761774719
  1.4148881299383624  9.9722938593765065  7.1237553877171571
 -0.0311264291714716  8.5246104455558136  8.5246338612352073
  1.3893994315340883  9.9408837539282704  9.9409861387512528
  4.3356226769803188  1.4764947757448912  1.4764319059313635
  2.8343650494715393  0.0170762917874737  2.8415755180985078
  4.2879898628612541  1.4335741847856103  4.2825336225028874
  2.8359341449514677  0.0154060241813877  5.6867844206100093
  4.2847065382689271  1.4366326081330660  7.1237044333435557
  2.8470424653011746  0.0043860573047519  8.5591601986766950
  4.3162397615620760  1.4620457289630744  9.9408837916593988
  2.8343688864324559  2.8415755030622725  0.0170799248971785
  4.2877783262476878  4.2824468975262198  1.4336748097909942
  2.8865218257419571  2.8656550006178740  2.8657377996909128
  4.2854559815436550  4.2913210423567012  4.2911579698561289
  2.8424648395033016  2.8609932934621236  5.6942895998635530
  4.2847178085197344  4.2903026866176708  7.1184051047353778
  2.8443220411712420  2.8711392733535757  8.5382599229030518
  4.2873026614482344  4.2845359464085488  9.9699824735239115
  2.8360391248073631  5.6867844024866532  0.0155110217903081
  4.2849320769234946  7.1237552940018194  1.4365570726236911
  2.8424852113501675  5.6943122922162104  2.8610877710757308
  4.2847240382437857  7.1185342655039827  4.2903601112990453
  2.8336388142485922  5.6850287932706225  5.6849949125778467
  4.2739176170477213  7.1085830542153170  7.1086160712415065
  2.8455958836959927  5.6980328351657858  8.5450401241249363
  4.2796691730717473  7.1158532677504027  9.9774149765154192
  2.8470592396161809  8.5591602213067084  0.0044025927511365
  4.3163421059931890  9.9409861366182408  1.4620457012966122
  2.8443006850321577  8.5383612364711183  2.8712203052924692
  4.2872431923874030  9.9699232035238339  4.2845359340791713
  2.8455866170192903  8.5450868311127905  5.6980731368098319
  4.2798108890070745  9.9775566201711499  7.1158531962228047
  2.8463681390086766  8.5361256470811355  8.5361594836665038
  4.2990133275662776  9.9582127613332165  9.9582126672852667
  5.6980656352543955  0.0044026678513331  0.0043860826630925
  7.1310153562807583  1.4349466679381433  1.4346111764749989
  5.7189658647964299  0.0071231002555283  2.8711391068665821
  7.1407104508319739  1.4305893820480129  4.2911345463172097
  5.7121857679312775  0.0058492080421615  5.6980328555356969
  7.1427227403959268  1.4347006757718481  7.1144909341655005
  5.7210665106674625  0.0050769832190429  8.5361255533705727
  7.1334704939950653  1.4365569614634777  9.9722939767846537
  5.7188646743115248  2.8712201925579812  0.0071445288193399
  7.1406981245290764  4.2911570078090353  1.4307222187535575
  5.7381310101874030  2.8883627262181553  2.8884269396196429
  7.1431964729169657  4.2937356131333715  4.2938315736362407
  5.7143503329870589  2.8627714106473552  5.6946570860420858
  7.1437412779849616  4.2895068624404402  7.1135142313579216
  5.7325922024827127  2.8825716286612875  8.5246104728176828
  7.1386917259385312  4.2903603903334613  9.9725017914751106
  5.7121389644146952  5.6980731120631161  0.0058585120481903
  7.1427349356808962  7.1145031667542229  1.4347005299324012
  5.7143636745684478  5.6946923964901774  2.8627756143468539
  7.1437117190482846  7.1134843420000129  4.2895068436025277
  5.7008775298057923  5.6975453189892029  5.6975309044092208
  7.1521790316102738  7.1050468550098183  7.1050468428487425
  5.7153064486698817  5.7042938692826102  8.5418857375093342
  7.1486428075144977  7.1086161533168903  9.9833082844990848
  5.7211003508763074  8.5361594588855176  0.0050770696962917
  7.1335215129133207  9.9725193865867858  1.4366325369222481
  5.7326153123774981  8.5246337748999785  2.8825715533006697
  7.1388207009431950  9.9725082204443201  4.2903026701847580
  5.7153402543104912  8.5419193960593027  5.7042939872624743
  7.1486098622487892  9.9833082499977444  7.1085830008933844
  5.7339287536978407  8.5232970210179886  8.5232970667082686
  7.1413726175652563  9.9774149583463920  9.9775567865442554
  8.5704415652594506  0.0155109717602007  0.0154059464632995
 10.0160203398109768  1.4763550402880168  1.4764209715730228
  8.5629362399839870  0.0089803858299454  2.8609933798539817
 10.0264229209091678  1.4808708007193570  4.2308264388149084
  8.5722309859305188  0.0178062947029428  5.6850287378372544
  9.9660687647082611  1.4307220969939412  7.1165278802469647
  8.5591528274653097  0.0058586967664523  8.5450868987166846
  9.9747791091313651  1.4336747458863044  9.9694475291596500
  8.5629135374667573  2.8610879695861020  0.0089598907265044
 10.0263996088911131  4.2308029134573806  1.4808707342244123
  8.5183762445664222  2.8607669098936221  2.8608281131554203
 10.0283119089563755  4.2289140117163413  4.2289139896765100
  8.5684382155960570  2.8497793964107432  5.6887762571096179
  9.9634904098169166  4.2938317043964052  7.1140294909822233
  8.5625336312952740  2.8627756007931335  8.5428621053330218
  9.9659049832522175  4.2911580717273567  9.9717700306640502
  8.5721970618607912  5.6849950555542748  0.0178063257770379
  9.9660913275295524  7.1165154542260769  1.4305894436482764
  8.5684495748061273  5.6887877774058024  2.8497795563560229
  9.9633943016797097  7.1140293714141469  4.2937355876106169
  8.5755466382297367  5.6816793786124444  5.6816792956531890
  9.9677190889925047  7.1135142603004091  7.1134845034429679
  8.5596806454041694  5.6975309384923367  8.5563484271256414
  9.9669232645946337  7.1184051050883159  9.9725081835127938
  8.5591929761993910  8.5450400360900378  0.0058491596143328
  9.9746922379587009  9.9692360661387465  1.4335742045462589
  8.5625689570182768  8.5428754386905510  2.8627714803402453
  9.9660678169889518  9.9717697578742133  4.2913209895916493
  8.5596949530168747  8.5563486122567767  5.6975452892185308
  9.9668655911981361  9.9725017537860907  7.1185342138116434
  8.5529320274355101  8.5418857250753053  8.5419194847217756
  9.9726900513525916  9.9699825270873497  9.9699231962528163
  2.8096351916207447  0.0418099345470145  0.0418098286360738
