Fe Nb
 1.0000000000000000
    11.3809763562635862    0.0000000000000000    0.0000000000000000
     0.0000000000000000   11.3805068885312721    0.0000000000000000
     0.0000000000000000    0.0000000000000000   11.3809763575085316
 Fe  Nb 
 126   1
Cartesian
 -0.0074709433613472  0.0001050434397624 -0.0432582698768069
  1.3081298672460833  1.4033171428369451  1.5369101249261503
  1.3786362354323913  1.3632337687670550  4.2035150302531568
 -0.0012647559570642 -0.0000720558009399  5.7409736769748587
  1.4267859348239602  1.4240550830002601  7.1285143782819826
  0.0121911563596156  0.0000461315193177  8.5497596718825672
  1.3627807037252722  1.4860490578166421  9.8922306679846734
  0.0104534053031788  2.8168486594792927  0.0116157915756688
  1.4265447130554800  4.2547107406641249  1.4185844748973380
 -0.0253374802452328  2.9127873589653288  2.8705846375455728
  1.4275383124908601  4.2665637496280926  4.2697065282420574
 -0.0038370779637239  2.8334892935828182  5.6777739473966706
  1.4222578444057012  4.2649289144195244  7.1145255575797792
 -0.0160123544587605  2.8537544439391254  8.5194886309498763
  1.4214438621915928  4.2581221142739683  9.9602058207637718
 -0.0011784619076213  5.6902551863423927  0.0126481042975714
  1.4266595973323015  7.1257962400229555  1.4186995058799343
 -0.0045865474528841  5.6902533871347973  2.8498304122471443
  1.4276771039241849  7.1139751032674017  4.2695008853417482
  0.0048906034203809  5.6903194869587086  5.6815892745784158
  1.4222391453009031  7.1156201135657806  7.1145707381442636
 -0.0049583590920667  5.6902827981227881  8.5321232373058500
  1.4213256910465106  7.1223885371934834  9.9602976108084622
  0.0104915432275439  8.5633750383520457  0.0115926744193854
  1.3083336681747983  9.9771897120861297  1.5371142441460612
 -0.0253407281715520  8.4677193595986822  2.8705814642915515
  1.3784945550769423 10.0171797037907790  4.2038885451697157
 -0.0039589297023373  8.5468839876657494  5.6778928932409425
  1.4268093901198342  9.9560921098768347  7.1285524809900975
 -0.0161911836643422  8.5267549405458141  8.5196265419810562
  1.3626492737120366  9.8946425183608930  9.8922365214574306
  4.3339842392705030  1.4858644927358495  1.4825950860711430
  2.8885020493269780 -0.0001044798231704  2.8527151666064419
  4.2718667681488567  1.4232937546929427  4.2620718260482882
  2.8322395424072724 -0.0000763793034659  5.6828866713113948
  4.2687390916123205  1.4221366907502964  7.1217651220994007
  2.8440346723723962 -0.0000968200830785  8.5179871838474259
  4.3317125882247964  1.4929673351940052  9.8944876909871144
  2.8270147229540137  2.8319507825670645  0.0182279264604299
  4.2659226362284226  4.2581184581584797  1.4239186079985595
  2.8336512120836037  2.8171318477420209  2.8347528394679169
  4.2650754189848099  4.2647332877201567  4.2648461173546934
  2.8250514311844483  2.8275156685580201  5.6748756090490859
  4.2581286105357714  4.2604661582868522  7.1075742730808651
  2.8442751403405757  2.8301942871210333  8.5509940982858232
  4.2576527389764696  4.2540716077786671  9.9687111070579704
  2.8374252435317375  5.6902534593182859  0.0078188102271106
  4.2660146260584453  7.1223846664279469  1.4238001525178239
  2.8325961654507061  5.6902516624782224  2.8464226674251587
  4.2651356093583903  7.1158835707980304  4.2648298755841711
  2.8399797236826965  5.6903294480506030  5.6855770680579987
  4.2581507078813150  7.1200452547197575  7.1076410372294516
  2.8404001102051453  5.6902607540560908  8.5357689800367691
  4.2575094009727072  7.1264354657123610  9.9685679695414908
  2.8270159844572080  8.5485560622110057  0.0182292387494363
  4.3339899219034210  9.8944577188776446  1.4824636134836162
  2.8336281352145654  8.5636579999744651  2.8347908845471497
  4.2720072390773280  9.9569649078629485  4.2622751356205750
  2.8250982441718113  8.5529329074065625  5.6749947525494990
  4.2688731563157596  9.9584599870787329  7.1217891687063828
  2.8442031846885278  8.5504201951886998  8.5511351391286432
  4.3317327021683854  9.8875395528911625  9.8945081349574764
  5.7082334407632667  0.0000969455841664  0.0012092070386264
  7.0976682203619381  1.4244148712684745  1.4184347678879645
  5.6764605116475124 -0.0000462370204630  2.8330526587458675
  7.1060664218194027  1.4237353528581511  4.2707726500715282
  5.6909459696998832  0.0000056050015651  5.6832256800700405
  7.1115337143020962  1.4211373746429827  7.1147805861319027
  5.6761770571595331 -0.0000000215857423  8.5500433108261689
  7.1044311430993528  1.4220468428189126  9.9573475294298888
  5.6750851327696505  2.8300866567992049  0.0010409009084266
  7.1116496440698569  4.2648867638645376  1.4230047862627828
  5.7065937735081231  2.8537520777249812  2.8614350013647392
  7.1211956624050217  4.2723548385873427  4.2724989707794014
  5.6936512642482464  2.8477800907031638  5.6877783583907053
  7.1274381893854839  4.2663270197229606  7.0987250776997568
  5.7071004068045381  2.8636572285688429  8.5190413434713399
  7.1185796462591036  4.2604613859864573  9.9680697606276194
  5.6904515632099812  5.6902459604685349  0.0048441212168833
  7.1116947531380159  7.1155782761452491  1.4229861201827856
  5.6940970541607223  5.6902242143053554  2.8502024767086742
  7.1212406260798300  7.1081367332548293  4.2724650500586039
  5.6865377868945339  5.6902861604257335  5.6869590435112025
  7.1274957132136931  7.1141800784173803  7.0987821636001360
  5.6941164776347915  5.6902533540266091  8.5321039621650048
  7.1186464799363982  7.1200408633818819  9.9680918532365279
  5.6752264549660305  8.5503127373526588  0.0009691103849069
  7.0977060195427732  9.9564516386570130  1.4184580961655626
  5.7067316458907289  8.5267525985973016  2.8612561305953723
  7.1061056020434652  9.9567227143147523  4.2706156470282934
  5.6937476387804367  8.5326221434772069  5.6878249945888433
  7.1114397248362273  9.9593694955914440  7.1146867099214468
  5.7071792530547123  8.5168493842499462  8.5191197912051351
  7.1044552531691467  9.9583698042630928  9.9574813532770818
  8.5433339118283307  0.0000763895523746  0.0130046025543914
 10.0223315409800566  1.3633271557405582  1.4667495580254757
  8.4852467482563352  0.0000721134847664  2.8465085416014420
 10.0108410724766319  1.3657172610815289  4.2153478370369566
  8.5479216088619285  0.0000001466869348  5.6782986614803725
  9.9556047927657225  1.4237842408453238  7.1201150730529630
  8.5429952291433739 -0.0000056807856352  8.5352744957195963
  9.9639453940167275  1.4235417399736388  9.9542132376619659
  8.5512255118899247  2.8275740137780030  0.0201458019644431
  9.9567195452136055  4.2665317450440536  1.4175671029195829
  8.5483278134601779  2.8336228587288592  2.8492029261140330
  9.9470016989712242  4.2790241904741775  4.2792190773568706
  8.5556424144859342  2.8221456300054122  5.6705780107324486
  9.9537552542604857  4.2723700663360313  7.1049798826407224
  8.5383956504953513  2.8478848031649671  8.5324726367475332
  9.9613903835124695  4.2646236163566176  9.9610849286262368
  8.5406431181164209  5.6901773082828457  0.0052644594766111
  9.9565141940398423  7.1139428284171116  1.4177057967821796
  8.5446313114339034  5.6901873410919119  2.8403537293817509
  9.9470010944691332  7.1014826827334740  4.2792187066245813
  8.5389778101286105  5.6902534015071664  5.6872426941817160
  9.9537213183853606  7.1081520183441400  7.1050249700811827
  8.5392615417521611  5.6902204213481964  8.5396826538129442
  9.9613745719818123  7.1157734315936905  9.9611450138103255
  8.5513446990318442  8.5529914069673989  0.0201929652128569
 10.0227048491062298 10.0172731649013560  1.4666075725512084
  8.5484464891746104  8.5470176610109831  2.8490810450558266
 10.0108725659284818 10.0147895589748543  4.2153792729580246
  8.5556423583348415  8.5583611363403644  5.6705778720441513
  9.9554480934675276  9.9567715567153581  7.1201540426353009
  8.5384420352840351  8.5327266682438800  8.5325694838430532
  9.9641485487700283  9.9572132665258888  9.9543535870438493
  2.8833332416883630 -0.0000001810839525 -0.0380891794081688
