Fe Os
 1.0000000000000000
    11.3964968427290660    0.0000000000000000    0.0000000000000000
     0.0000000000000000   11.4034890210767994    0.0000000000000000
     0.0000000000000000    0.0000000000000000   11.3965007145093118
 Fe  Os 
 126   1
Cartesian
  0.0711524576146458 -0.0058023205865394 -0.0011895469804530
  1.4272873755133615  1.4065581653113515  1.4216938711659539
 -0.0008304967814417  0.0008766994266334  2.8498566781047012
  1.4339713584669074  1.4341407734975942  4.2566576676879473
 -0.0002161262883507  0.0039445667179240  5.6971406285539841
  1.4378035816635684  1.4238710431837327  7.1295905562204247
 -0.0003547710440967  0.0063567808019013  8.5494343496817002
  1.4305389872927012  1.4463831343039568  9.9860800880930611
  0.0631608854900488  2.9012469248561032  0.0568209619729202
  0.0539718557908039  2.9108286306072793  2.7952428670353378
  1.4166201627180997  4.2828390639451452  4.3168705909317042
 -0.0004172806700271  2.8469519726946513  5.7012841455670422
  1.4164826790514242  4.2802596907589683  7.1205386856775323
 -0.0046252567998033  2.8528846252510727  8.5427118928900381
  1.4267389259070367  4.2784686124263063  9.9347723789448033
  0.0468677010491223  5.6569589331405759  0.0513853587349712
  1.4354673439160688  7.1818938271417032  1.4139179363863958
  0.0467664148571111  5.6610262354031802  2.8024785955239642
  1.4173099234976483  7.1131576534355121  4.2678754363490325
 -0.0029588650907619  5.7024748189913890  5.7000761445332824
  1.4167342264053688  7.1152861569737205  7.1175642311789140
 -0.0044078633966629  5.7059953568585104  8.5446408472029525
  1.4336324305488455  7.1199008295602653  9.9954717208481956
 -0.0078450743439895  8.5530834978829500 -0.0026210028532346
  1.4055673216656159  9.9576335357782213  1.4434333619266753
 -0.0149486302929833  8.5425254293486770  2.8640740425384439
  1.4288784964479664  9.9830803278734326  4.2621762808696850
 -0.0027757924502283  8.5519439143413791  5.6986512558623375
  1.4292927277414145  9.9852792719263643  7.1251336061725148
 -0.0100618163297277  8.5398035699148593  8.5367831495135640
  1.3985151071053008  9.9538343367341486  9.9546820038771244
  4.2601004676840626  1.4464157459846163  1.4184662862144317
  2.8502662233826501 -0.0056572650618804  2.7774136839085597
  4.2413766611537334  1.4388467851157825  4.2494993634212159
  2.8464308345549303  0.0001573127421526  5.6924398611953473
  4.2564975825185938  1.4200737693845860  7.1285156105422613
  2.8474541982744981 -0.0083861659450402  8.6250777688248998
  4.2588176283361738  1.4529006018330968  9.9865676092111944
  2.8023879332208965  2.8594551930493277  0.0466976582534210
  4.3107424474223706  4.2785515251081243  1.4227582978948594
  2.7919326132109203  2.9014828895181384  2.7857624090667770
  4.2663867100864152  4.2792421192855432  4.2618078571225206
  2.8501337033259038  2.8541647276219559  5.6963445648629385
  4.2728843117581006  4.2780775652433043  7.1206425307452053
  2.8527356528183172  2.8513384519840153  8.5467575430725304
  4.2563208004848363  4.2800209146191728  9.9895667830604324
  2.7912248668118993  5.6417685219249272  0.0579349308950114
  4.2502553440407445  7.1200219282253991  1.4152445616266658
  2.7976748254984849  5.6571128251354112  2.8025325002081316
  4.2649711494270974  7.1073952341449571  4.2614464353775725
  2.8519162384524734  5.7018000432599720  5.6993627499238739
  4.2779306679692688  7.1192514770300157  7.1201946182840432
  2.8504879351624841  5.7065853127185298  8.5394401321096840
  4.2439645137943272  7.1120122240311181 10.0015285454588021
  2.8518375661577364  8.6482541232476375 -0.0026561122444521
  4.2911771859452523  9.9537956166718811  1.4506627811080415
  2.8516845321377389  8.5531878301850650  2.8570328241081770
  4.2662583895501998  9.9856937466012035  4.2656097260827091
  2.8490795914533642  8.5503957234097410  5.6985328040415109
  4.2670645898834092  9.9853622685529846  7.1241139349621552
  2.8484717353927427  8.5487710185343708  8.5449622723732048
  4.2959377491198190  9.9537175856910309  9.9495224187043778
  5.6204999304230316 -0.0084953585331190  0.0014969663936020
  7.1161759690324420  1.4241014774926686  1.4111001817420512
  5.6962581215032069  0.0064288738016876  2.8494036975489081
  7.1265991156565596  1.4390189694668423  4.2722404717610507
  5.6924060037539226  0.0110232093580849  5.6903515104773250
  7.1270449037991144  1.4382005055752258  7.1186277228305519
  5.6952262098215396  0.0111101173659902  8.5504043844403892
  7.1170143415467901  1.4199259490233915  9.9888661177307601
  5.6987830984542684  2.8513215287928806 -0.0031872897497837
  7.1251978378779226  4.2801993053497212  1.4327057835930859
  5.7029639989481939  2.8529665630081413  2.8540525651123190
  7.1194218449838953  4.2734863276570332  4.2649025632675137
  5.6942230104974358  2.8492936235192379  5.6976469861184071
  7.1215444378664188  4.2733355102496109  7.1240676946524664
  5.7008660997108871  2.8557422622346702  8.5447954811307838
  7.1248882362026817  4.2781576376103176  9.9727315877666882
  5.7062137364157897  5.7064314449803621 -0.0013517572912684
  7.1279186180276453  7.1151729916723223  1.4324107623762188
  5.7009198911217105  5.7061780863611400  2.8536146609883426
  7.1266476329248514  7.1194384597213505  4.2761525452558731
  5.6950618736706788  5.6979702385648583  5.6966515431165110
  7.1278949387686783  7.1196887726700586  7.1177198772112362
  5.6996399415373347  5.7023049541452755  8.5459893347833482
  7.1255098104677899  7.1192954948299016  9.9677185899449903
  5.7007012587486727  8.5486742498605910  0.0007037354168435
  7.1205451778040683  9.9854379781521416  1.4199891902455477
  5.7088583255404490  8.5398246502239346  2.8592166935423915
  7.1256953567007537  9.9748554698130203  4.2739300887936666
  5.6936380302203400  8.5459005305531281  5.6914176763165623
  7.1258425295273309  9.9737348199425124  7.1196872193061234
  5.7021779364361942  8.5324993948495926  8.5434785002387219
  7.1215026745683954  9.9851257571432228  9.9787498280836378
  8.5531223968083694  0.0002092823722521  0.0026645933501330
  9.9889220401563783  1.4340613548415333  1.4151212710769825
  8.5484834267006153  0.0039163120068244  2.8493687571421940
  9.9862029331713060  1.4544024624669831  4.2593349914420964
  8.5547679919453454  0.0107000420320056  5.6908610378138880
  9.9734634651863008  1.4390293785553472  7.1189916684878787
  8.5552053290900147  0.0109789056663052  8.5531931858142087
  9.9959622917675439  1.4390360526824650 10.0042889466185514
  8.5492786303793338  2.8542571660418266 -0.0011939606797408
  9.9289310266319273  4.2828057605180803  1.4325345332193573
  8.5443052524310072  2.8469045447172823  2.8493921738986323
  9.9860923100676171  4.2740474939688475  4.2595007108825085
  8.5492717178154347  2.8525065168537429  5.6962690971356809
  9.9808020631819350  4.2734404946992770  7.1262058060489890
  8.5479479695447864  2.8493179096312260  8.5512982296226845
  9.9838295107442381  4.2791692156702137  9.9791619457619429
  8.5463367414282843  5.7018205278241929 -0.0026722076570138
  9.9777692111132694  7.1131480846405672  1.4317364088977211
  8.5455376325485268  5.7023803797731709  2.8521667549211318
  9.9821501310282574  7.1081109117810621  4.2634248127155390
  8.5488007812066389  5.6902398665425364  5.6969224567648613
  9.9695533381595691  7.1194534429687746  7.1190254915845577
  8.5489683707461168  5.6979125090336051  8.5505673498832842
  9.9843158302762731  7.1071966558783277  9.9806405934403823
  8.5471397587509603  8.5503593213106992  0.0000333317155907
  9.9833674187406363  9.9827951503792498  1.4200853536048244
  8.5469061994915343  8.5518320669386600  2.8518669592884129
  9.9726712733240745  9.9763057050820834  4.2729788241110311
  8.5535997512834587  8.5517893910269951  5.6920651195872614
  9.9715981601988908  9.9748301532083570  7.1200314753809248
  8.5542037389084165  8.5458394752800722  8.5519732313026644
  9.9799466928967391  9.9857075777158428  9.9791902313191514
  2.8502028748465209 -0.0392721206659246 -0.0008466459126922
