Fe Zr
 1.0000000000000000
    11.3754498097685151    0.0000000000000000    0.0000000000000000
     0.0000000000000000   11.3570687432094388    0.0000000000000000
     0.0000000000000000    0.0000000000000000   11.3754498019047183
 Fe  Zr 
 126   1
Cartesian
 -0.0218885077204373  0.0002230900043217 -0.0479131278195543
  1.2140923762999225  1.3751287856816623  1.6295792396123148
  1.3761315204096243  1.3576968764220627  4.2025111808630848
 -0.0034728697163741 -0.0001837361525998  5.7451922937733997
  1.4283704711095946  1.4204965987602152  7.1338297997510658
  0.0105183861705326  0.0000566659617620  8.5422616619165428
  1.3274491284424705  1.5110657338949307  9.8382769454621481
  0.0234115933105494  2.7898583251303437  0.0200817652552310
  1.4197464261422246  4.2348199515889267  1.4241119816767189
 -0.0456594009104188  2.9308323504928144  2.8895776898989065
  1.4308396360047015  4.2563314377706094  4.2651589780161556
 -0.0041416512502870  2.8293694510759595  5.6743959413860843
  1.4231855295883475  4.2555014039856367  7.1102792908508867
 -0.0230496627772879  2.8562891510897410  8.5040693694173761
  1.4213958801233686  4.2382546597875450  9.9582081769367896
 -0.0008248603731531  5.6785309486906383  0.0159753728232070
  1.4197506438619711  7.1222492694363462  1.4241169442845358
 -0.0079856319110558  5.6785349046397062  2.8518486353160015
  1.4309748038403918  7.1008456878753341  4.2649418504783689
  0.0091017528755700  5.6785626896787003  5.6755854777689008
  1.4231790763351428  7.1015984492002771  7.1103887656451441
 -0.0022663467328367  5.6785880221223817  8.5294338140310835
  1.4213793490275592  7.1187983948363360  9.9583001514098761
  0.0235121286859909  8.5670264062324364  0.0201770999252920
  1.2142833657366854  9.9819395520681216  1.6297696207082621
 -0.0457148474265842  8.4262356171273503  2.8895207511208443
  1.3759617406747733  9.9992507834680051  4.2026956846785337
 -0.0042322410906810  8.5275222030795650  5.6745430489233453
  1.4283070005377869  9.9363035525356729  7.1338108167668368
 -0.0232092922221150  8.5008143294290104  8.5042542429692141
  1.3274579589497408  9.8461198275950519  9.8383763172173513
  4.3809366252658588  1.5109490817738456  1.5164046356735470
  2.8917756570067001 -0.0002233188041536  2.8657508363897763
  4.2773181009530008  1.4232753091645853  4.2550868070756813
  2.8385053674154501 -0.0001406046904376  5.6825937763873480
  4.2731012801778627  1.4224932347490014  7.1245384820687629
  2.8504478611262551 -0.0001119026690575  8.4730008737797586
  4.3714121932366865  1.5386872448881339  9.8478471349719534
  2.8112424780148038  2.8302322952819399  0.0325063781941932
  4.2610123078253430  4.2382701592512557  1.4224833517485962
  2.8236853030672791  2.7900429904789128  2.8203494199458303
  4.2571817721650858  4.2509579233317583  4.2550555896638667
  2.8238424270259257  2.8220902749781676  5.6706930432918474
  4.2550559994631856  4.2518605787842816  7.1036238754579628
  2.8440402465043846  2.8229972910967640  8.5458030462910433
  4.2494861783213276  4.2352644834043440  9.9698915212548052
  2.8282707952684252  5.6785337801098166  0.0155912105918757
  4.2611035533910941  7.1188143308241898  1.4224671385707637
  2.8278870364299231  5.6785377240982511  2.8446871049511664
  4.2572223451617539  7.1061738489428841  4.2550538263226612
  2.8381493817131620  5.6786245642142203  5.6795621523763078
  4.2550663355013585  7.1052456036928184  7.1036946336880762
  2.8384306819046787  5.6785137406220620  8.5295857759069378
  4.2494199885332380  7.1218042811157192  9.9698257680052116
  2.8113558403228600  8.5268363670510361  0.0326203382491573
  4.3810349801192787  9.8460030939623149  1.5164126587132043
  2.8237808680090177  8.5672099910019845  2.8204495388190698
  4.2775564744766941  9.9335669811725165  4.2552774182448445
  2.8238723422777463  8.5349332965268321  5.6707910329660960
  4.2731472740318281  9.9346012155980485  7.1245809720291575
  2.8439523284058272  8.5342288353707261  8.5460229897212052
  4.3714646531728683  9.8183818473955711  9.8479005748403612
  5.7463112931543563  0.0001123628465584 -0.0065852698240259
  7.0855013361751285  1.4207659754545989  1.4155558238664887
  5.6770503016378848 -0.0000563345081938  2.8333446064787209
  7.1043142415957661  1.4222997280882663  4.2691131254563004
  5.6943254888950676 -0.0000047435505896  5.6815273220123217
  7.1066567767340549  1.4205432779182463  7.1127425486249871
  5.6729946709667161  0.0000001476055079  8.5463177625591058
  7.0947306706689108  1.4224672177909015  9.9461648597607013
  5.6732893825612711  2.8228393815977770 -0.0000898738205354
  7.1089230830425389  4.2554705220904614  1.4206835330792711
  5.7150582220893194  2.8562540561584071  2.8670715919633705
  7.1257430158491095  4.2718209786111601  4.2739918241300474
  5.6930803743275025  2.8472406201076628  5.6841387401614014
  7.1304791955699374  4.2677888250303058  7.0887685090185739
  5.7154513507493903  2.8741564320413455  8.5037380301541710
  7.1156176789383236  4.2518235505819773  9.9642458143877306
  5.6897268696901246  5.6785548094835061  0.0054317871603257
  7.1090329943578814  7.1015676625556923  1.4206775765289630
  5.6898787409931497  5.6784802131196388  2.8461289512511936
  7.1257667530913666  7.0852757672182536  4.2739714756609510
  5.6796282787853309  5.6785788765426890  5.6790034169355650
  7.1305440631075827  7.0892800919408119  7.0888325078576919
  5.6882142031240486  5.6785341094001849  8.5310979632343606
  7.1156890033146958  7.1052081059995311  9.9642563094082170
  5.6735102549526317  8.5340726479107101 -0.0001773483467310
  7.0854821337663223  9.9365708447224552  1.4154911627672737
  5.7152432364411272  8.5007796646325087  2.8669119789790853
  7.1043274728827024  9.9347650317163545  4.2689982448264274
  5.6931882842506836  8.5097328629814619  5.6842092952478929
  7.1065700741687046  9.9365253853878688  7.1126549569041604
  5.7155738680331654  8.4829120876563469  8.5038608610928836
  7.0947737471204055  9.9345756900066338  9.9462111314839188
  8.5367195479856850  0.0001402258147294  0.0053560481517597
 10.0166168770008319  1.3578194964705854  1.4679008129050244
  8.4741201692624397  0.0001838229643825  2.8473363686036461
 10.0136850531536332  1.3553501382488582  4.2056075211633077
  8.5445715751083533 -0.0000003588095872  5.6747407873338434
  9.9503141503555526  1.4223033198533850  7.1149852597000685
  8.5377846347211328  0.0000054060976024  8.5249867529067078
  9.9640356314664409  1.4235015547748233  9.9417558520766729
  8.5485220825777581  2.8221351857966255  0.0199905211066537
  9.9543700248985374  4.2562225103576870  1.4128868927953198
  8.5447697513613914  2.8295458912014251  2.8480938059815069
  9.9327407148700910  4.2797397247815923  4.2865982617501617
  8.5535438974809068  2.8159256133941102  5.6657077384539845
  9.9453410183804465  4.2717923316341899  7.0935459483510384
  8.5351031409140159  2.8473362052242672  8.5261235925608219
  9.9642581312287053  4.2508942845820652  9.9620901986969503
  8.5397497727046563  5.6784442465348990  0.0057125707345983
  9.9541536602629854  7.1007378758302613  1.4130230178618945
  8.5437265182196782  5.6785061735292768  2.8347609395519666
  9.9327132623490400  7.0773287381774690  4.2865717697551098
  8.5354265246062511  5.6785348936844722  5.6838851572719786
  9.9453204457991973  7.0852481647291352  7.0935692350052211
  8.5403081207726785  5.6784899321705398  8.5396848000694447
  9.9642559157884190  7.1061109465803094  9.9621309330662999
  8.5486189489056930  8.5349786645424235  0.0200199748513977
 10.0168013851714548  9.9993716974849143  1.4677308636679156
  8.5449161518718082  8.5276992451255538  2.8480045928844406
 10.0137044662916388 10.0017190100408246  4.2056273624610467
  8.5536046590851260  8.5411429875371070  5.6657682260762465
  9.9501993028372731  9.9347691571207051  7.1149975412449527
  8.5351731809316504  8.5098271242704815  8.5262324816740396
  9.9642251152983636  9.9337931764512035  9.9419951487358258
  2.9117597256324896  0.0000005344389882 -0.0678971153992012
