Fe Ir
 1.0000000000000000
    11.4247021881080109    0.0000000000000000    0.0000000000000000
     0.0000000000000000   11.4190491424226934    0.0000000000000000
     0.0000000000000000    0.0000000000000000   11.4247021882049804
 Fe  Ir 
 126   2
Cartesian
  0.0269767841671826  0.0005009807936291 -0.0003969249260293
  1.4049371124966383  1.4946624846552676  1.4518399282654817
 -0.0057724743956009  0.0034140333633532  2.8622292341841233
  1.4248125137737355  1.4377786333034444  4.2891686380637317
 -0.0026037102457554 -0.0059027438091855  5.7152119001874979
  1.4193196188602331  1.4345866911494485  7.1364237532901011
 -0.0152142748415668 -0.0115150280892954  8.5471725038617290
  1.3950034310599999  1.4238505299009001  9.9657575165859988
 -0.0308582102888794  2.8582923281485373 -0.0330853599075131
 -0.0389085762203026  2.8667162495532841  2.8949508163105380
  1.4239583600567529  4.2870517610805612  4.2794619793660660
 -0.0120658943211702  2.8570638950460823  5.7147037836572263
  1.4257104282338007  4.2841551524288368  7.1367663817325742
 -0.0250384700603835  2.8710640889770387  8.5487653332882232
  1.4276906428898035  4.2816424745727391 10.0235906890580875
 -0.0081835820657800  5.7152686735350038 -0.0051912713136560
  1.4235284225396538  7.1367812454532036  1.4330413552951780
 -0.0048659855555262  5.7089059665964674  2.8609573201504923
  1.4225908162893344  7.1357288917707127  4.2965934042955682
 -0.0000519355441514  5.7116032395585750  5.7105214178503623
  1.4209384038149104  7.1275491130916837  7.1364015286355738
 -0.0069099140032345  5.7066832186486716  8.5657203897984040
  1.4214475012148620  7.1371423741190672  9.9864428195058412
 -0.0101716055319728  8.5640499782783763 -0.0066406126250670
  1.4155142778522078  9.9793833786733348  1.4408584847714212
 -0.0195787444489622  8.5511531760107555  2.8757095828049839
  1.4254220678644383  9.9921151976506053  4.2786853532795623
 -0.0091579548636704  8.5656613711711405  5.7174336840524749
  1.4262759140590564  9.9887591112277114  7.1402367820051706
 -0.0189587348583518  8.5588187780174518  8.5486818325899385
  1.4228969806695357  9.9859247450300188  9.9884313827654090
  4.3154152990312680  1.4239222359026489  1.4603768253127480
  2.8570957805562491  0.0007992645821503  2.8287787538648241
  4.3094765203216978  1.4108816243129330  4.3038981271014531
  2.8585057555044475 -0.0019361252189749  5.7160982330395607
  4.2960666129278371  1.4253721107371540  7.1379481567708174
  2.8602470684114354 -0.0048913606999128  8.5732192330922281
  4.3230385884560034  1.4154280372590196  9.9577059935726080
  2.8799290258443020  2.7874796245735269 -0.0231519966471044
  4.2568666750425503  4.2813439715521966  1.4290079165860026
  2.8884648111361986  2.8582214518515232  2.8873275986645872
  4.2994141777914061  4.2936318818293300  4.3053719144077416
  2.8646311882522766  2.8473682043008002  5.7164483409301274
  4.2867251520410221  4.2879705651160407  7.1374972763811684
  2.8596875144365796  2.8446084092190862  8.5636562255559721
  4.2903168720728448  4.2787290550769406  9.9908420043928476
  2.8689471986173376  5.7218103241956992 -0.0125744178780399
  4.2947854511041657  7.1372441426544659  1.4346142029172666
  2.8613789526955360  5.7152875299130441  2.8643733635415463
  4.3032575209324664  7.1424963886839645  4.3042523738875680
  2.8582670728995234  5.7121851525574501  5.7125451299863146
  4.2934763760899504  7.1355408113461269  7.1353665813143410
  2.8588470414811158  5.7094005370238383  8.5740342616353047
  4.3037974428617733  7.1500389092447252  9.9770353638802529
  2.8611293115218634  8.5644111226083393 -0.0045592133866475
  4.2924619474570216  9.9859044480442378  1.4332915767048791
  2.8627020407630765  8.5639481284191454  2.8666977227722779
  4.2910180897414660  9.9942631557481345  4.2872056314516733
  2.8633286525592800  8.5737194097200504  5.7163545532292916
  4.2844888751920909  9.9897321791973752  7.1422784432298894
  2.8616576497813013  8.5653594236731827  8.5563110028652662
  4.2890454138644634  9.9922858932434924  9.9917478463700142
  5.7075499217448158 -0.0049083306737455 -0.0041292199355122
  7.1445361091445347  1.4347754600621088  1.4365438143369489
  5.7334596897600347 -0.0114887089587113  2.8713260582641671
  7.1476542504907483  1.4287203661887000  4.2954389754568343
  5.7169668596791370 -0.0081900360761550  5.7193242769151329
  7.1480891824957373  1.4322862848030191  7.1327626966705910
  5.7261543287492733 -0.0092805592840830  8.5546691900266953
  7.1427912016188753  1.4250796355052768  9.9845483464693512
  5.7172565292338504  2.8443645976390846 -0.0032755399582687
  7.1441864925999958  4.2840792559347207  1.4304185859857701
  5.7319859123647010  2.8712619479780050  2.8813889812494420
  7.1474118655332202  4.2903329944060120  4.2888790589880363
  5.7235266096293813  2.8534232267611928  5.7195663606137090
  7.1460275323616900  4.2879444942999587  7.1347941583132446
  5.7335046242541035  2.8631039763855726  8.5473035652012346
  7.1432995789752161  4.2880461971548591  9.9940104395706317
  5.7067732400438871  5.7090773740010530 -0.0026659882662562
  7.1444422235973928  7.1274733521448264  1.4352411043526903
  5.7152932034120418  5.7069296391309354  2.8629300956079011
  7.1434288469341505  7.1352951840821026  4.2902832772458908
  5.7201768672680728  5.7176936439067676  5.7218386136426753
  7.1434970635194546  7.1371959960615587  7.1373391754576083
  5.7228285430762842  5.7156980621856892  8.5580793778787871
  7.1455216761095652  7.1355313884158305  9.9874560799742262
  5.7246809125450744  8.5654639373491044 -0.0054966944616017
  7.1406324844943381  9.9890074703361620  1.4301794816898894
  5.7323400851123587  8.5586960433817492  2.8751693297773699
  7.1499268042718898  9.9834986487349173  4.2920890202583575
  5.7183711920661260  8.5658974253305828  5.7153411274160186
  7.1483939977104365  9.9812115870691933  7.1323592636230284
  5.7288488886084483  8.5602352743829186  8.5521217523586088
  7.1386087075944120  9.9895892993917954  9.9965626094601383
  8.5648542940987866 -0.0020119073244345 -0.0023773857670175
  9.9917439075711201  1.4375349414618035  1.4315996502429120
  8.5655848693512908 -0.0058275467116272  2.8586375149472425
  9.9753912285966155  1.4190391913475224  4.3054168304477436
  8.5628819995962040 -0.0058008652011008  5.7179396112827510
  9.9854128156537101  1.4287608819311695  7.1331149244069900
  8.5614568777525051 -0.0082229872518591  8.5638223517334104
  9.9768531172892949  1.4110796857017560  9.9715759779661877
  8.5645117360698055  2.8475569201951747 -0.0087679336640626
 10.0013072972998458  4.2870345878795177  1.4321591133673615
  8.5660354696170096  2.8567715606570308  2.8679784972744944
  9.9827568705898155  4.2914241542704730  4.2980668670839286
  8.5608506390377404  2.8498565925125332  5.7200015342467880
  9.9919104408026609  4.2903661783563871  7.1333690152454006
  8.5612023244478603  2.8533824785822808  8.5573250033452926
  9.9752606002710813  4.2936585553022484  9.9814006326889295
  8.5683247682236132  5.7124333215819192 -0.0018123422655159
  9.9843990848999304  7.1358333085344139  1.4335698833228701
  8.5703656053872841  5.7114601994939207  2.8564008768246252
  9.9802095300286719  7.1409577598810072  4.3007612551038559
  8.5604468799079960  5.7199810225936520  5.7203061662950265
  9.9906238153196760  7.1352928307500507  7.1374503233497171
  8.5590468724518018  5.7177522589204548  8.5605553585448604
  9.9767694221061483  7.1423739439409797  9.9776554652999643
  8.5644895801276473  8.5736434321070689 -0.0071492919526778
 10.0021221034294179  9.9917920927645660  1.4307591130053137
  8.5634544363823615  8.5656519972735445  2.8653886759380374
  9.9861670600984205  9.9854946642917675  4.2947410387497467
  8.5654270133980859  8.5639967789008917  5.7154090928281009
  9.9886433397094549  9.9834405139703648  7.1309592980783467
  8.5655380688574780  8.5658995532496292  8.5625360993496749
  9.9938083152472501  9.9945092834431843  9.9897044558021815
  2.8505159705412462  0.0285089344669722  0.0055512137142888
  1.4336383855397370  4.2536361202290314  1.4224328131948225
