Fe Ru
 1.0000000000000000
    11.3939105103831455    0.0000000000000000    0.0000000000000000
     0.0000000000000000   11.3958342374407824    0.0000000000000000
     0.0000000000000000    0.0000000000000000   11.3939200494726283
 Fe  Ru 
 126   1
Cartesian
  0.0549275636880548 -0.0049444585222202 -0.0016108706704495
  1.4213438779671326  1.4037672761633890  1.4271073555655178
 -0.0010122126667102 -0.0004851452009215  2.8494138209739366
  1.4282604348813210  1.4359159232831014  4.2573921477968435
  0.0012766510834115  0.0031872305830703  5.6961683673610048
  1.4314855356250016  1.4278238480434782  7.1266104781416493
 -0.0001734413687059  0.0035315421135423  8.5466145987757205
  1.4249426395423013  1.4426797677735659  9.9798036196481998
  0.0592168247862268  2.8980854459700396  0.0544925213697045
  0.0528624664328457  2.9117869305616733  2.7956543221224215
  1.4182249971554608  4.2805698824765086  4.3164923583429173
 -0.0012470397963382  2.8471841404497487  5.6996078268487906
  1.4181377571186591  4.2788596358635500  7.1171856193624556
 -0.0059912458167382  2.8547762211797325  8.5384466121238276
  1.4255249312878679  4.2736048947204246  9.9320732124340712
  0.0504584920616680  5.6519504588758869  0.0520706752852319
  1.4291909833572045  7.1780445886560917  1.4195028927889057
  0.0475996089790728  5.6547388057610899  2.8009561413871635
  1.4180809854321275  7.1068802914928684  4.2674948183739003
 -0.0013383107426091  5.6986973180355065  5.6985733527176770
  1.4176606299269430  7.1087958869083154  7.1149455068698826
 -0.0041203385248823  5.6998762778937264  8.5428529718780304
  1.4275525103914102  7.1158669092880817  9.9869797775195863
 -0.0041352177891457  8.5505560306981483 -0.0025206014975564
  1.4075726225928262  9.9537225943247609  1.4407693944424875
 -0.0156291305946960  8.5366988226869154  2.8641131326812062
  1.4251506375540022  9.9725992719081251  4.2600036179981204
 -0.0032394804321754  8.5447080863978950  5.6969340520530416
  1.4251894895354371  9.9741195791702957  7.1228987966500092
 -0.0108023141927882  8.5342454853331500  8.5338406450681514
  1.4042884443359582  9.9526601222274671  9.9576069547953860
  4.2631618959719288  1.4426440695896150  1.4233859520417278
  2.8500202176892122 -0.0048174655615259  2.7931186958947554
  4.2473672538375808  1.4408587809924738  4.2501580380335859
  2.8460161450516166  0.0005730935605396  5.6919212832115340
  4.2610729181424523  1.4241285527793432  7.1260758416470855
  2.8468764612342863 -0.0079176786540250  8.6034696381024567
  4.2630967543612241  1.4498563175402679  9.9790316959176444
  2.7976465118123293  2.8596406642947505  0.0508416701319406
  4.3101988924817700  4.2736726606493995  1.4233011848924157
  2.7935522443846539  2.8983425519427728  2.7890874319390204
  4.2639910696896415  4.2779353490138723  4.2624658803004412
  2.8496546718274867  2.8494881064538196  5.6959527202128051
  4.2695613153718144  4.2771306988625541  7.1180552142940963
  2.8507527135000976  2.8458075897690716  8.5467224498329308
  4.2559667164222805  4.2744677293547548  9.9866886153859138
  2.7923594848976285  5.6454409994612522  0.0561967977561993
  4.2555310190443079  7.1160060244523349  1.4206840379665293
  2.7963730114484253  5.6521492090336851  2.7982517944169154
  4.2624809814982125  7.1009308755337184  4.2608492681675312
  2.8510511457057306  5.6981906776547238  5.6976545161297665
  4.2752739300586216  7.1130274274653047  7.1173055396293003
  2.8493517697590409  5.7014161848673028  8.5412293364972740
  4.2489388678063138  7.1074945431118550  9.9933266072738345
  2.8512101727532091  8.6214065232402994 -0.0027015126119108
  4.2848916827504882  9.9526703961318823  1.4442515731351109
  2.8509484723906509  8.5506512483740114  2.8527164250056098
  4.2685505685906735  9.9746798491084228  4.2643396380291163
  2.8483433858460265  8.5467049514513818  5.6965157125246293
  4.2698936668288843  9.9743413802287026  7.1220878334610092
  2.8475267282189063  8.5461795984275231  8.5447629878090652
  4.2868237774220033  9.9537466183947121  9.9554413603851302
  5.6388759662031989 -0.0080086642453542  0.0014454213040008
  7.1159152148523246  1.4280693277644292  1.4167765589266330
  5.6958171362212129  0.0035943627173117  2.8486340059208648
  7.1262211624449039  1.4377700103158466  4.2724055852198966
  5.6895924683363983  0.0101778724625010  5.6893986273287966
  7.1262351977165030  1.4367743831260833  7.1161453802594572
  5.6929389255151603  0.0092673681286419  8.5494882496024331
  7.1162313960635704  1.4239335814564180  9.9810613684482963
  5.6955821951905001  2.8457267129959880 -0.0018956707136235
  7.1252635232652946  4.2788283648279322  1.4303777402141373
  5.7039300664750190  2.8548581034776732  2.8547241853200749
  7.1193883462320002  4.2722417470828828  4.2645959209028819
  5.6942805907859935  2.8500788864599866  5.6968291027222291
  7.1209844720048014  4.2722591130762435  7.1213918815012525
  5.7016474461186384  2.8580945358810710  8.5407877964687842
  7.1243058718985530  4.2771184757461151  9.9728370993057815
  5.7012027650986363  5.7012721142917000 -0.0008765864422484
  7.1273874878053576  7.1087664530660550  1.4308362032515431
  5.6994974196174661  5.7000543331952320  2.8526389674359764
  7.1242755741954635  7.1136510615039974  4.2734592082887444
  5.6929453355025421  5.6942487325397213  5.6951999041027577
  7.1251997559016198  7.1144000969198062  7.1171950348163868
  5.6982918260171136  5.6966446173146519  8.5441115875719156
  7.1251095726344351  7.1130096177714091  9.9671609232995149
  5.6976658219179264  8.5461192333292786  0.0010121708721725
  7.1195233609444566  9.9743055040559589  1.4234655332896275
  5.7085626922086741  8.5342966394986153  2.8593045822881726
  7.1266183431352479  9.9676706317801358  4.2755859813345056
  5.6927661576566155  8.5384651299886620  5.6897463527627865
  7.1265996663457605  9.9666214659946810  7.1157780729241153
  5.7012952566161834  8.5271158007209102  8.5411448537906391
  7.1203266369112281  9.9740999640951067  9.9727039387339396
  8.5504298969048929  0.0006257708322454  0.0024264430410971
  9.9849759135232592  1.4357990197989912  1.4202548181908046
  8.5462225326340846  0.0031531119887846  2.8472107405030171
  9.9826467248157158  1.4528036075215225  4.2597155045680504
  8.5528456756766040  0.0116759402872800  5.6895463732997529
  9.9700034275793250  1.4377818156553055  7.1161825746083647
  8.5529459179290459  0.0101440745228863  8.5527702191873232
  9.9921159494887100  1.4410626361042276  9.9950827595028926
  8.5464450593894448  2.8495604398110146 -0.0013558284705486
  9.9260268326079952  4.2804631253037142  1.4302516878636784
  8.5427398032704929  2.8471209909351423  2.8496011306997953
  9.9832912315343680  4.2720223238572208  4.2590748034814832
  8.5467966015435728  2.8502982679863975  5.6955077960832847
  9.9778444486282467  4.2722024052287386  7.1230010939443646
  8.5455453659176683  2.8500850426301589  8.5480157764522140
  9.9799735936314455  4.2778972549404948  9.9783328806598544
  8.5448027118351693  5.6981963864078038 -0.0024689873556277
  9.9749878470354556  7.1068437078223150  1.4303238024994334
  8.5438277449865971  5.6985894141022939  2.8498776204004970
  9.9808409797041939  7.1017567672240638  4.2615042986445069
  8.5470422329132507  5.6884376472378975  5.6954337076958259
  9.9689850830881266  7.1136568823700408  7.1181693155376218
  8.5471805680591100  5.6941926126262068  8.5494756396585121
  9.9816105955310626  7.1008185654198792  9.9799212887014299
  8.5459468470008648  8.5466912109416384  0.0001318481761144
  9.9823352001402181  9.9723544682901935  1.4231519667129653
  8.5453995651038639  8.5446187954302957  2.8516769425001129
  9.9682581891559163  9.9691762584528139  4.2741090926418819
  8.5520396360302389  8.5429557410808634  5.6903844656860914
  9.9667924614851664  9.9676481959490690  7.1158067997131038
  8.5526641017388378  8.5384123543418049  8.5496218950594560
  9.9780256549887305  9.9747208431343353  9.9736710803558690
  2.8489406597301312 -0.0273634382260097 -0.0002594341048471
