Fe Ni
 1.0000000000000000
    11.3867471871496591    0.0000000000000000    0.0000000000000000
     0.0000000000000000   11.3867471905016071    0.0000000000000000
     0.0000000000000000    0.0000000000000000   11.3867471868476908
 Fe  Ni 
 126   2
Cartesian
  0.0100888877373005 -0.0079790902998681 -0.0079398264130643
  1.4233433278801266  1.4233434579661792  1.4233432209609738
 -0.0079788909182739  0.0100888881934342  2.8546266774650775
  1.4236968148822653  1.4230436485023856  4.2628863095971834
  0.0012298894400005 -0.0047164298275923  5.6975723986536408
  1.4233139569126780  1.4233139757786906  7.1167171637666469
 -0.0047161738168303  0.0012298234441480  8.5358615790198495
  1.4230436155950310  1.4236969072290093  9.9705478792608897
 -0.0079399800877423  2.8546657650727090  0.0100888583306259
  1.4236433306446059  4.2628862509733905  1.4229900243036995
  1.4239712883379483  4.2734526927348275  4.2733612816591853
  0.0001790586691414  2.8465349319426800  5.6774891616049334
  1.4238222366947493  4.2759359688050411  7.1084068577378998
 -0.0119982058585942  2.8586688956404225  8.5293108045019448
  1.4233435133293992  4.2691046118684488  9.9643294349416411
  0.0012665463816619  5.6975715043205124 -0.0046994754801333
  1.4233729876786883  7.1167168466972583  1.4233726868861662
  0.0001519205065941  5.6774890819010047  2.8465076278011869
  1.4237996919629083  7.1084469231093292  4.2759707246480065
 -0.0013894058591323  5.6972347467535069  5.6972200442632337
  1.4233433103654693  7.1166984385370782  7.1167354967336811
  0.0006024622047243  5.6918290532185196  8.5403877752682344
  1.4228645597799179  7.1250267845402462  9.9574981048625570
 -0.0046993780416813  8.5358623590582834  0.0012663844279745
  1.4229897651958641  9.9705477129485072  1.4236432517828181
 -0.0119820198328908  8.5293107013154703  2.8586851274446294
  1.4233434317641305  9.9644116564528318  4.2690222048224742
  0.0006073557918890  8.5404154282757023  5.6917948899111677
  1.4228871979899358  9.9574633710315812  7.1249870526202095
 -0.0111404171244567  8.5287031523371404  8.5287154020247176
  1.4227154754781925  9.9600725716200618  9.9599815035186481
  4.2628861416978872  1.4236432165488702  1.4236968666611622
  2.8546658006813259 -0.0079399547048909  2.8365979730335664
  4.2691044119818295  1.4233432462300399  4.2691044942986416
  2.8586687743683514 -0.0119982416345759  5.7041230725126253
  4.2759359171723101  1.4238221622754752  7.1250269261205998
  2.8465349516657006  0.0001792413131066  8.5559449214098784
  4.2734525894779090  1.4239712366084678  9.9600727941434712
  2.8546267130509180  2.8365979272407178 -0.0079787624306130
  4.2690223466369268  4.2690222695098479  1.4233433237736333
  2.8365980349004900  2.8546269037075485  2.8546654967744791
  4.2701875307400723  4.2784365563693214  4.2784927970569449
  2.8513861270929559  2.8454202322732365  5.6975716636155846
  4.2758750286689375  4.2758749429536449  7.1167168472026949
  2.8454202093859844  2.8513862029364208  8.5358623312528579
  4.2784367583712566  4.2701875673121981  9.9549410382122137
  2.8586850232041905  5.7041233786469325 -0.0119821710238426
  4.2759706390027903  7.1249871273517069  1.4237996503359009
  2.8514030959455114  5.6975722691439774  2.8454568064235426
  4.2758480807771049  7.1167170278588641  4.2758479830775720
  2.8578273282320676  5.7047186445304945  5.7047308142099640
  4.2736191518374689  7.1154677827119981  7.1154168958017552
  2.8460842808396252  5.6930461563342867  8.5416049752993821
  4.2752316415329359  7.1233683667208085  9.9581930933296157
  2.8465076703883994  8.5559448514957328  0.0001518857945722
  4.2733613118030362  9.9599813538439168  1.4239713140127535
  2.8454569471465749  8.5358616833320742  2.8514033031373849
  4.2784929866077483  9.9549976128174045  4.2701878706546061
  2.8460794288975575  8.5416391843340786  5.6930185238352653
  4.2752407954953773  9.9582022093566440  7.1233683620527612
  2.8480761137553334  8.5362140278485334  8.5361992729635272
  4.2759167507988911  9.9575173287183567  9.9575172474070133
  5.6774892223794575  0.0001517501384133  0.0001791135716150
  7.1167169698411339  1.4233727248329069  1.4233140329481158
  5.6975716018680451  0.0012666690674282  2.8513862274277102
  7.1250268862372570  1.4228645769391048  4.2759358073479543
  5.6918291331565349  0.0006025014909225  5.6930460435988950
  7.1166986874288050  1.4233434003353169  7.1166987303989666
  5.6972346592300207 -0.0013894723966005  8.5362140164318614
  7.1084467276633623  1.4237995699128438  9.9574633918612658
  5.6975723218443184  2.8514032187566780  0.0012296572404319
  7.1249870356612934  4.2759705972523667  1.4228872269219268
  5.7041232570313625  2.8586850682039944  2.8586687542722187
  7.1233682727048375  4.2752318717912567  4.2752410053759444
  5.6930461201188800  2.8460843668774340  5.6918290520112649
  7.1154677606782739  4.2736191444352301  7.1180171280282698
  5.7047185179122888  2.8578273241537775  8.5287031275940972
  7.1167170363484926  4.2758480484303876  9.9575858166448565
  5.6917946079402260  5.6930184328523037  0.0006075070994474
  7.1167354164801377  7.1167354257100373  1.4233432828673400
  5.6930185624572145  5.6917945815946869  2.8460793145971817
  7.1154170326465307  7.1179660746306501  4.2736190248325547
  5.6959222887484477  5.6938235046820660  5.6938294556248232
  7.1167170920862590  7.1167170455070581  7.1167168388924029
  5.6938237111606984  5.6959222662315181  8.5396046024592440
  7.1179662147711849  7.1154168353634830  9.9598148861039242
  5.6972199690315550  8.5361993998293819 -0.0013894364744688
  7.1084069874946643  9.9574982274187658  1.4238222506908633
  5.7047309590975734  8.5287156533319752  2.8578273030728050
  7.1167169409910143  9.9575589704996457  4.2758750487937798
  5.6938294534700775  8.5396103965538988  5.6959222726894163
  7.1180172330625817  9.9598149948025814  7.1154677926237930
  5.7053436172454299  8.5280901172467729  8.5280904305728082
  7.1100655918747071  9.9581930664065172  9.9582022374618848
  8.5293108708351753 -0.0119821150816719 -0.0119980830005063
  9.9705477758230820  1.4229899996086317  1.4230435953837650
  8.5358625424681414 -0.0046995367908438  2.8454201977296170
  9.9600727505829454  1.4227155299127245  4.2734526680876108
  8.5287031526639225 -0.0111404744910249  5.7047185029065250
  9.9574634532656923  1.4228870898531922  7.1084469253415818
  8.5404155557513128  0.0006074061497434  8.5416391769320157
  9.9644115627454326  1.4233435514541206  9.9644115949904801
  8.5358615972572167  2.8454569695909311 -0.0047162230980664
  9.9599813875653460  4.2733612820131492  1.4227155027710807
  8.5559448357413608  2.8465076111196432  2.8465348718148236
  9.9575173145900973  4.2759166103867132  4.2759167098489081
  8.5362140247089719  2.8480763043056014  5.6972346683386013
  9.9582021618344498  4.2752409945895833  7.1100657462749890
  8.5416391384564250  2.8460795038194355  8.5404153856436391
  9.9549974241242811  4.2784928410375480  9.9632462450215904
  8.5287156065647345  5.7047308347297596 -0.0111403789797286
  9.9574980967465727  7.1084071055733551  1.4228646339383768
  8.5361993708607287  5.6972199821690799  2.8480761346911954
  9.9581930656064230  7.1100658504604590  4.2752317043616896
  8.5280902662560720  5.7053437831369926  5.7053436127180603
  9.9598149695145484  7.1180171490616253  7.1179660628131654
  8.5396102643260470  5.6938292292460444  8.5375116704427256
  9.9575588587250419  7.1167169859392745  9.9575589190888554
  8.5403879479135583  8.5416048455864502  0.0006023718098450
  9.9643293031789621  9.9643295790810971  1.4233435051759298
  8.5416048965201661  8.5403877729576649  2.8460843566424403
  9.9549411137042725  9.9632464271114163  4.2784365270014728
  8.5396047099334016  8.5375115158237147  5.6938235670671720
  9.9575860377269318  9.9575858640707242  7.1167169633578453
  8.5375115976240430  8.5396047012531344  8.5396103440782127
  9.9632462562363919  9.9549412496005747  9.9549974009703170
  2.8561656677451790 -0.0094788430216723 -0.0094786402419987
 -0.0094787841684456  2.8561655469404577  2.8561656293783741
