Fe Co
 1.0000000000000000
    11.3676824854090963    0.0000000000000000    0.0000000000000000
     0.0000000000000000   11.3584005286235090    0.0000000000000000
     0.0000000000000000    0.0000000000000000   11.3676824815574857
 Fe  Co 
 126   1
Cartesian
  0.0369994539068036  0.0000320875810833 -0.0364707843010675
  1.3731433424437769  1.3513978842564978  1.4686422287337551
  1.3733312586489044  1.3636754589143789  4.2058676803490398
 -0.0004364698533228 -0.0000087886822789  5.7229853615972326
  1.4239974118528249  1.4191349533807682  7.1139364940425729
  0.0007274326117211  0.0000474875026300  8.5284647604710724
  1.4292322211877102  1.4090273638442070  9.9513166156245614
  0.0048340860833498  2.8216277730272283  0.0100031234638732
  1.4286262337864386  4.2492712860417310  1.4133996818382288
 -0.0062855578925022  2.8816402587564305  2.8481341153352013
  1.4222517119401676  4.2624929067641020  4.2674165585559125
  0.0023770751154735  2.8250159716635110  5.6739852425998327
  1.4183814991049322  4.2613896666100715  7.1028034630157997
 -0.0061870266445369  2.8382249147508554  8.5202710996814144
  1.4219189079428949  4.2510031187628030  9.9486162357309187
  0.0018981042905705  5.6791775976331822  0.0086758615883189
  1.4285204449755557  7.1091295394367222  1.4132943540388461
  0.0044893982058905  5.6792002976121498  2.8374310284489761
  1.4222704920127176  7.0959026728271937  4.2673782258559463
  0.0004158426615344  5.6791846433269217  5.6756446267842051
  1.4183719169188520  7.0969105343425989  7.1028041843994130
  0.0026623171962902  5.6792142402932155  8.5296502347117631
  1.4219582691984736  7.1074544242020359  9.9486277117161066
  0.0047687428107397  8.5367789179696203  0.0100226835116928
  1.3732768677349287 10.0070011991870107  1.4687789083731271
 -0.0062129792194299  8.4767606603003927  2.8482057471501681
  1.3733214847881046  9.9947758035233303  4.2058776347415199
  0.0023663205055630  8.5334224091018172  5.6739493663367844
  1.4238958477262376  9.9391856056771424  7.1139984485243302
 -0.0062148551544150  8.5201418653678402  8.5202546317609524
  1.4292454179997980  9.9493604727413700  9.9511089188203368
  4.2584935376104776  1.4090401077886967  1.4126748192407292
  2.8783914404502600 -0.0000318872263803  2.8049212565890693
  4.2613581089796977  1.4193709343826897  4.2567244424952371
  2.8302812523778900 -0.0000794110246811  5.6727256923708556
  4.2618826805555701  1.4180020543773553  7.1110623092260692
  2.8384497007539213  0.0000410469275417  8.5659794250648424
  4.2587690590077898  1.4116750494111672  9.9508843314979565
  2.8246408525826956  2.7745641372326268  0.0172381536701366
  4.2609753039058180  4.2509466732445755  1.4199624319846120
  2.8318984878057702  2.8216217626474949  2.8371524742395744
  4.2630532803897099  4.2611798246433130  4.2639954251821530
  2.8237283497646333  2.8217666790952762  5.6678894290428943
  4.2559175094250232  4.2533274732004509  7.0952226971638872
  2.8361581813248931  2.8304511983379430  8.5290658518561511
  4.2523495265750384  4.2423122170948009  9.9572101490112264
  2.8381661108890390  5.6792000678662902  0.0037543860992837
  4.2609868680514609  7.1073976015064284  1.4200023627701506
  2.8332449047862811  5.6792229178852081  2.8400223785369207
  4.2631047976461529  7.0972281088382108  4.2639810853664919
  2.8374100122300345  5.6792200893030174  5.6794227410425169
  4.2559797620320561  7.1050915147747720  7.0951461831956779
  2.8398715275539543  5.6791942371885691  8.5281071202687730
  4.2523932332208805  7.1160888068586194  9.9572534552063079
  2.8246826127456766  8.5838362720856178  0.0172800292255780
  4.2582888748081302  9.9493707590371194  1.4126905480487382
  2.8319179083990296  8.5367729750189092  2.8370862954019449
  4.2613234157535249  9.9391047335592884  4.2568123568845646
  2.8236370183244066  8.5366340217087036  5.6679223319985450
  4.2618439487932021  9.9403959840323495  7.1111376384087031
  2.8361822676612833  8.5278727913439649  8.5289746286507420
  4.2587197173888924  9.9467244633522043  9.9508324506056987
  5.6436232910527746 -0.0000409106866394  0.0034703968274294
  7.0956045697405701  1.4192150392168725  1.4180244049530759
  5.6811385484051558 -0.0000479835932982  2.8411928596845599
  7.1055660317367160  1.4240520475055962  4.2677747461237452
  5.6837652881597407 -0.0000063366787795  5.6761693365029515
  7.1076911347822209  1.4222065421528016  7.1019234254573318
  5.6829025022984370 -0.0000004189321142  8.5267008552148624
  7.0984662125925189  1.4180047384177679  9.9477590888362695
  5.6806287129345447  2.8305276549649676  0.0057384093763403
  7.1067990387705446  4.2614899593322537  1.4235485713627352
  5.6893485733784459  2.8382586068986919  2.8481359319722310
  7.1050286984779278  4.2606972674758463  4.2625007022398025
  5.6797311569721289  2.8326576456633967  5.6778019505484503
  7.1131281742052472  4.2516866177777475  7.0964888520623788
  5.6897788224465566  2.8443628881259229  8.5198163006549699
  7.1144568751634969  4.2533088529192264  9.9536233051987093
  5.6814961423607020  5.6792059846146570  0.0020490847608922
  7.1067998037203841  7.0970107263693647  1.4235392746853968
  5.6799527075207106  5.6791867189809162  2.8392579816736672
  7.1050322329979778  7.0976663483682803  4.2624939125325128
  5.6830531762516996  5.6791786023883910  5.6819970723721678
  7.1131141443184873  7.1067138842941890  7.0964748239560818
  5.6806650899041617  5.6792003424360571  8.5289380894579079
  7.1143804292930355  7.1050731065625330  9.9536854871939813
  5.6805372720419944  8.5279495453460452  0.0057627336980330
  7.0956660189157237  9.9392654650166055  1.4179232486143531
  5.6893313130954679  8.5201761329093859  2.8481069352165571
  7.1054977448670993  9.9342852668060555  4.2677292100684658
  5.6797337697000643  8.5257475973323462  5.6777885175575111
  7.1076797824128217  9.9361942698169745  7.1019117235066069
  5.6897866553942151  8.5140379955290371  8.5198244463061990
  7.0985404336098741  9.9403984144514634  9.9477197563545463
  8.5368776253073513  0.0000796053255644  0.0116390112156523
 10.0037255864800390  1.3636244374397484  1.4685989941884305
  8.4866179065672362  0.0000085386904395  2.8423573165553173
  9.9971306987002162  1.3676838634406701  4.2125762450372255
  8.5375453419685599 -0.0000002215532647  5.6720579781593825
  9.9418742811433098  1.4241156326574036  7.1041054451953514
  8.5334337252138912  0.0000061214905965  8.5258380162865492
  9.9527905166726711  1.4192957417269467  9.9482801297864096
  8.5416808544488099  2.8217663194226419  0.0182834293566674
  9.9422246246626429  4.2624977611849451  1.4196500142395920
  8.5356535659747497  2.8249779262436325  2.8395539861684531
  9.9449908477198328  4.2616162961882020  4.2645261656322200
  8.5441365191962628  2.8235068406545532  5.6654636947912023
  9.9471093004276163  4.2607342584570169  7.1045708320636001
  8.5318144994293039  2.8326529295659149  8.5298693030060164
  9.9456221028013196  4.2611724370234212  9.9464984667153651
  8.5301804164131187  5.6791804235650742  0.0045105601356214
  9.9421864867082590  7.0959077950424279  1.4196690718331719
  8.5339585417871149  5.6792156918135905  2.8415050165159106
  9.9450768840735098  7.0967838331210897  4.2646122863493758
  8.5300892651262128  5.6791999386556196  5.6795135513568953
  9.9471025562454205  7.0977029983300302  7.1045743845981084
  8.5276060359030499  5.6792218450944976  8.5265497982552816
  9.9456079841361529  7.0972207156766220  9.9465496185097972
  8.5417134601005138  8.5366335273101654  0.0181923176012532
 10.0037356999935518  9.9947245341120095  1.4685893296283317
  8.5356176932730783  8.5333848646098680  2.8395437590006729
  9.9970267973138718  9.9907165426432041  4.2124724746636746
  8.5441393582359630  8.5348938503684355  5.6654664269782824
  9.9418281687432835  9.9343488627382257  7.1040373180588716
  8.5318010159084778  8.5257430167882298  8.5298717772000732
  9.9528784966382169  9.9390298518701705  9.9482448693248244
  2.8354756254063722  0.0000039444964032  0.0064419005576335
