Fe Cr
 1.0000000000000000
    11.3743200814280794    0.0000000000000000    0.0000000000000000
     0.0000000000000000   11.3743200815274452    0.0000000000000000
     0.0000000000000000    0.0000000000000000   11.3743200809871770
 Fe  Cr 
 126   2
Cartesian
  0.0175361781053320 -0.0007275190761376 -0.0007092442252505
  1.4217900439893825  1.4217897255566798  1.4217901548579031
 -0.0007273658200873  0.0175363626217212  2.8442892995261482
  1.4173891272556756  1.4263601007980686  4.2512897635394822
  0.0037990388896780  0.0047137609123456  5.6833342542087930
  1.4215646043565051  1.4215646201645080  7.1089499178472728
  0.0047138960347517  0.0037990077219252  8.5345658622820597
  1.4263602858315152  1.4173889974827738  9.9666104892275520
 -0.0007091012088513  2.8443073672719494  0.0175365196320812
  1.4172198981390620  4.2512893855520328  1.4261910273987950
  1.4107700636324207  4.2594862625134784  4.2594198034951987
  0.0026645637335795  2.8408773041307653  5.6700042124264360
  1.4189828742960533  4.2635320523181388  7.1012595717836025
 -0.0051391037070397  2.8487075789874163  8.5253788402003998
  1.4217902144608889  4.2567692950988745  9.9611306294622004
  0.0038338246016658  5.6833567161707004  0.0047513614401584
  1.4220157231196526  7.1089499762210764  1.4220155287362306
  0.0027028303564045  5.6700039940880567  2.8409151322771145
  1.4187405867629721  7.1013341339815490  4.2638592851231119
  0.0008813978875058  5.6822735316919895  5.6822901349658741
  1.4217902314111937  7.1088494845729322  7.1090509685891936
  0.0014228113151225  5.6827633681688496  8.5321790805085165
  1.4245968151214268  7.1166407451985485  9.9543681346524799
  0.0047517443509862  8.5345433970130102  0.0038337969255776
  1.4261910849627419  9.9666106805327388  1.4172196562287944
 -0.0051275775566159  8.5253786463772876  2.8487191974239074
  1.4217900247645081  9.9613367037579437  4.2565633854956513
  0.0014137867659302  8.5321734525457966  5.6827769619317063
  1.4248396695907803  9.9540406050189105  7.1165660808074396
 -0.0042588488714453  8.5260674332692759  8.5260792581979334
  1.4328099686432838  9.9584802339928746  9.9584139471957691
  4.2512895664332673  1.4172199043595051  1.4173887841714263
  2.8443074398859278 -0.0007091849174116  2.8260434371977534
  4.2567694359326111  1.4217899542583434  4.2567694546802821
  2.8487072041474786 -0.0051391259008208  5.6925210622721227
  4.2635319488171897  1.4189830930936245  7.1166407471433457
  2.8408771483264794  0.0026645009371189  8.5478962095024666
  4.2594863919754280  1.4107701246986879  9.9584804586468216
  2.8442896279799257  2.8260438475186360 -0.0007275597640756
  4.2565631510590025  4.2565630131168586  1.4217900832737294
  2.8260439051090001  2.8442893760055954  2.8443072416978765
  4.2600416931110772  4.2653274103550487  4.2652084707116797
  2.8388285103051452  2.8397460439965609  5.6833567131620812
  4.2679108902707208  4.2679112527335272  7.1089502467195178
  2.8397461119983816  2.8388287030304769  8.5345432924953162
  4.2653273317579510  4.2600416182260821  9.9526918744228272
  2.8487191850505345  5.6925212934592331 -0.0051273722815074
  4.2638595580528262  7.1165660549188745  1.4187406771759221
  2.8388664564555692  5.6833344427864887  2.8397810784209754
  4.2678216192192897  7.1089500619178692  4.2678210590850743
  2.8478392068335343  5.6918205889040703  5.6918328842836745
  4.2653252362994438  7.1065287616711981  7.1064478072820609
  2.8421569388841066  5.6857205476912203  8.5351368248617359
  4.2610957095431212  7.1156029383114410  9.9565887607840615
  2.8409154460381165  8.5478959973073287  0.0027029751862672
  4.2594197627599426  9.9584137541508202  1.4107702746803610
  2.8397810320029206  8.5345657336545582  2.8388663407868484
  4.2652080549310600  9.9525727242530611  4.2600418898514576
  2.8421659755365023  8.5351230438259122  5.6857269222924041
  4.2613114186618679  9.9568050879275827  7.1156025784657047
  2.8426981797008213  8.5356099794396414  8.5356267294458021
  4.2529387327561761  9.9649614453918218  9.9649614704258784
  5.6700038474050123  0.0027029443517794  0.0026647158765305
  7.1089501203206753  1.4220156189582667  1.4215642300735354
  5.6833567430145564  0.0038336112121470  2.8388284587232584
  7.1166407779439487  1.4245967715260692  4.2635319419219035
  5.6827633356932123  0.0014230592849784  5.6857208899622966
  7.1088493429913493  1.4217897512992677  7.1088492220448316
  5.6822734642973600  0.0008816116730410  8.5356099602626916
  7.1013340205050701  1.4187406231286326  9.9540406836085022
  5.6833341657481951  2.8388657328126370  0.0037992185406128
  7.1165662197852999  4.2638595240978248  1.4248395875450062
  5.6925211978418719  2.8487193406988771  2.8487073719563392
  7.1156028168038885  4.2610951899503071  4.2613115469554597
  5.6857210917809358  2.8421569737028585  5.6827631978266284
  7.1065289171345070  4.2653253848179764  7.1114520228059224
  5.6918208876388983  2.8478390600960801  8.5260675457785791
  7.1089499742366362  4.2678213844300039  9.9500787406967159
  5.6827771044895501  5.6857271413568391  0.0014136707668863
  7.1090509003537612  7.1090505743792685  1.4217900110762616
  5.6857268520723752  5.6827773629482472  2.8421661463577954
  7.1064480936903811  7.1113711928420251  4.2653252721129222
  5.6874247229354742  5.6857430869280119  5.6857426660651962
  7.1089500023047520  7.1089499245241470  7.1089500626259792
  5.6857431162780134  5.6874249406456858  8.5321576110278485
  7.1113710639150387  7.1064480725485488  9.9525747058483400
  5.6822898382716414  8.5356262807902610  0.0008813961235029
  7.1012593851027459  9.9543679713321929  1.4189831315769794
  5.6918326597768321  8.5260792054972843  2.8478388732862765
  7.1089502117187209  9.9499892511993426  4.2679110840618009
  5.6857423930769286  8.5321571249394932  5.6874245179789638
  7.1114520065332512  9.9525748667745315  7.1065291579845420
  5.6906599881965256  8.5272403843520514  8.5272407001341985
  7.1022973510854035  9.9565889610115672  9.9568046037135485
  8.5253789246242313 -0.0051271125629486 -0.0051391492683989
  9.9666106249150257  1.4261907600644146  1.4263599589055127
  8.5345431895118686  0.0047513785346446  2.8397463135450418
  9.9584802468570732  1.4328100060878493  4.2594863863236974
  8.5260672217418385 -0.0042588597785957  5.6918208713910339
  9.9540405249529034  1.4248395359674522  7.1013342700827415
  8.5321730292929701  0.0014139144090506  8.5351230545418897
  9.9613366962082512  1.4217901162988165  9.9613369088345660
  8.5345657303409777  2.8397808027066875  0.0047139247189207
  9.9584138103583033  4.2594197914176952  1.4328102358047565
  8.5478961087861691  2.8409153695852574  2.8408772840623797
  9.9649613562762376  4.2529387246156176  4.2529388911329571
  8.5356101114100973  2.8426983554943601  5.6822731900554269
  9.9568050779531507  4.2613113815743269  7.1022972388025734
  8.5351231127753309  2.8421662556406000  8.5321733379614244
  9.9525726529682395  4.2652082166629972  9.9578577762053708
  8.5260794522273375  5.6918327580567336 -0.0042589382330766
  9.9543682564210219  7.1012596880997538  1.4245970799114454
  8.5356263484412125  5.6822897600077944  2.8426981444185193
  9.9565890961622525  7.1022975581533068  4.2610954298101467
  8.5272404029400377  5.6906594351016242  5.6906598076683972
  9.9525749469367391  7.1114520600452504  7.1113712490365257
  8.5321572882141101  5.6857427222845223  8.5304754163551344
  9.9499890806410640  7.1089497994059938  9.9499890838440006
  8.5321791549214598  8.5351366400088899  0.0014232278285521
  9.9611306113088123  9.9611308265816056  1.4217900289083885
  8.5351365955547749  8.5321789575274138  2.8421567471698630
  9.9526918032195155  9.9578580642787973  4.2653273655821291
  8.5321574925423072  8.5304756076022699  5.6857430407073153
  9.9500786203830707  9.9500788627603516  7.1089498270716058
  8.5304753018435111  8.5321574512440890  8.5321570118662233
  9.9578581638807719  9.9526921474044343  9.9525724980333834
  2.8428830564010763  0.0006971431822146  0.0006968728946638
  0.0006969112208113  2.8428831735752480  2.8428831187912436
