Fe Ti
 1.0000000000000000
    11.3709185070063903    0.0000000000000000    0.0000000000000000
     0.0000000000000000   11.3713983860536434    0.0000000000000000
     0.0000000000000000    0.0000000000000000   11.3709185051186505
 Fe  Ti 
 126   1
Cartesian
  0.0076182412577446  0.0001418314620502 -0.0396708635742321
  1.3326176636441434  1.3904922976663534  1.5102696448788819
  1.3767502548030295  1.3626589861858467  4.2017115516537107
  0.0004874374015666 -0.0000863818404525  5.7299949327361466
  1.4254080672050975  1.4221908817111841  7.1178907350815228
  0.0111362178020198 -0.0000363931821422  8.5396453854011902
  1.3863445867454964  1.4580553919685224  9.9152531924602592
  0.0085250676212330  2.8210398526138944  0.0127717365412766
  1.4256598746447273  4.2545964561496543  1.4169899759697466
 -0.0256845226377391  2.9139317584402722  2.8684339446907812
  1.4274964820798215  4.2659722040504153  4.2677400316237408
 -0.0006195144762024  2.8288850868173250  5.6725897882921226
  1.4225356934845905  4.2639386591188915  7.1050791173685317
 -0.0206675995293130  2.8555664959610572  8.5078385537411467
  1.4197938759251556  4.2591312141168389  9.9509544373713990
 -0.0000372429578447  5.6856879526951953  0.0125859111575410
  1.4257398235400212  7.1168019975301053  1.4170699028024820
 -0.0013394179793764  5.6856993358862553  2.8440690324265656
  1.4275899432484742  7.1054976538711481  4.2675960176111678
  0.0016417481494718  5.6857573778469419  5.6763462716535651
  1.4225178918696864  7.1074814509662785  7.1051380659667069
 -0.0025322300856798  5.6857299563662416  8.5266929573382413
  1.4196793133852907  7.1123281641917266  9.9510343389094089
  0.0085510220419542  8.5500614559351291  0.0127891086330873
  1.3324599405129609  9.9809061615760406  1.5101121379923199
 -0.0257043437366086  8.4574667100292782  2.8684140586451430
  1.3766896006653260 10.0085401848443833  4.2020299495115738
 -0.0007269650260366  8.5423988909510662  5.6726986253382599
  1.4254633721748513  9.9488032989724609  7.1179830809513449
 -0.0208433272348509  8.5157983433016700  8.5079549099783200
  1.3861917389539460  9.9134765580858719  9.9151590844658060
  4.2984890943526031  1.4579218189620402  1.4565380128467367
  2.8824004619570851 -0.0001419990369257  2.8351112564484180
  4.2641288832807831  1.4207038755974022  4.2577165463971038
  2.8293572116730430 -0.0000674510109076  5.6763087889193731
  4.2624181496720359  1.4194398125574124  7.1127518568226060
  2.8389313496937820 -0.0001066599286013  8.5286070018103466
  4.2985423748086715  1.4635491542718382  9.9151056465173877
  2.8274602419490336  2.8211210529069723  0.0153067814614763
  4.2626139500492348  4.2590701428453626  1.4230503819364471
  2.8299408352799218  2.8213370294977680  2.8341786441730168
  4.2601161245287651  4.2646055051670393  4.2644846107237475
  2.8235592000365224  2.8236727337523595  5.6691837133650411
  4.2526044298930437  4.2580448634596095  7.0982255360474280
  2.8389672024854029  2.8316419416475904  8.5386044955960525
  4.2548319297896926  4.2536989568719115  9.9589284786784535
  2.8356038065232778  5.6856993394088144  0.0071258493628971
  4.2626936036781258  7.1122670331781128  1.4229356440296030
  2.8301436985578752  5.6857104495619124  2.8427667956109341
  4.2601745212248954  7.1068958516256551  4.2643949105525740
  2.8367765377040075  5.6857767487276281  5.6797342520325218
  4.2526471642926920  7.1133778645032413  7.0982595374861353
  2.8389737267617514  5.6857147728011759  8.5289749606816017
  4.2547197447202834  7.1176996531578238  9.9588163384611477
  2.8274228002826938  8.5502773947826434  0.0152692487867446
  4.2983949908609702  9.9133429566931905  1.4563853093743351
  2.8299580502164141  8.5503585317749184  2.8342046457454155
  4.2643242038138078  9.9505892101386895  4.2578449030370740
  2.8236001273147653  8.5476540188012393  5.6692509951180643
  4.2625462933931848  9.9520158447437979  7.1127709570844750
  2.8389862950481293  8.5398252144502216  8.5387014765881233
  4.2985422859226263  9.9078494289796328  9.9151057680727703
  5.6850411627947963  0.0001066080596332  0.0037981166197955
  7.0956650276040527  1.4225952100683172  1.4172661268090887
  5.6740026418105103  0.0000362912450629  2.8315933875564658
  7.1029868278189339  1.4195460662908481  4.2671308613251444
  5.6832688827440272 -0.0000140484158388  5.6775347130549738
  7.1079165306005248  1.4167791180079041  7.1058055424434370
  5.6745596367148456 -0.0000000636310622  8.5390888303989776
  7.1008771491976894  1.4193824840131368  9.9511016683833127
  5.6749466973162432  2.8315734502385732  0.0037433176793310
  7.1085098132485047  4.2639168640928524  1.4202119411889547
  5.7056933478317209  2.8556002093569322  2.8635729097667544
  7.1117694158087641  4.2648228068974801  4.2655856440940694
  5.6852321675609288  2.8397624567544524  5.6809608181614468
  7.1183971164256166  4.2577210061318143  7.0951972962572523
  5.7067638616282457  2.8644569095479979  8.5068219256284614
  7.1153886575544760  4.2580203856599699  9.9610007730959929
  5.6846731320497748  5.6856834481473557  0.0037558743693341
  7.1085687824576018  7.1074595904770410  1.4201939509366364
  5.6869554510001228  5.6856683615199861  2.8452615991630874
  7.1118383310194453  7.1065506748902330  4.2655227859942295
  5.6853667760243738  5.6857423897789410  5.6829376388689266
  7.1184507348555339  7.1136775423253606  7.0952510406491580
  5.6874162600654898  5.6856990803709708  8.5262319311463681
  7.1154224191270536  7.1133534788913853  9.9610436046584638
  5.6750434131869927  8.5397563481305223  0.0037623832524874
  7.0957573758127070  9.9492073765434625  1.4173215417762381
  5.7058096916101864  8.5158320354434061  2.8633970102233306
  7.1030110191791103  9.9518342785169818  4.2670163894668347
  5.6853221662600983  8.5315351557884167  5.6809809917288785
  7.1078427584442139  9.9546192974632568  7.1057312947942339
  5.7068263103240557  8.5069415023349606  8.5068842173459593
  7.1008962858167326  9.9519586334668020  9.9512296416949528
  8.5373393910565660  0.0000674726522909  0.0133724350341672
 10.0116182046278333  1.3628582342121573  1.4660399581236363
  8.4836534570820206  0.0000861979278000  2.8422421651216485
 10.0016804178460443  1.3644537774389329  4.2119641252605753
  8.5409348326435044 -0.0000000439073496  5.6727134904926526
  9.9466317295773852  1.4195642430990705  7.1106371225057750
  8.5361133623693988  0.0000139809080906  8.5303790883399042
  9.9558033729766535  1.4208093559799022  9.9493239500885551
  8.5443971373622549  2.8237443540268212  0.0191296276304917
  9.9460521218877336  4.2659004548838624  1.4151398584714556
  8.5409496551438906  2.8289996449437789  2.8434566490824489
  9.9421051323045848  4.2720571949449155  4.2715569698455722
  8.5477181355857930  2.8204423444898628  5.6659434154410322
  9.9481253077552658  4.2648475052038863  7.1018096589841093
  8.5326671589752063  2.8398630455379155  8.5283259206134527
  9.9492533676116608  4.2645026703559958  9.9534736847205050
  8.5339138083332333  5.6856216849576384  0.0059530202401950
  9.9459082342884706  7.1054264085671734  1.4152332019003329
  8.5373016198087175  5.6856410013388663  2.8410879988069793
  9.9420913338669354  7.0993412477225624  4.2715430901085005
  8.5319193748066144  5.6856991716285048  5.6817289553372241
  9.9480623190517132  7.1065755236913084  7.1018786893813051
  8.5307105677722994  5.6856561626368229  8.5282813785367235
  9.9491635163877703  7.1067926748989416  9.9535317684899489
  8.5444643930483455  8.5477257264340398  0.0191703927301477
 10.0119365592833063 10.0087395675599620  1.4659793718449858
  8.5410585256641536  8.5425134087414794  2.8433491762951379
 10.0016838399649917 10.0069445443879594  4.2119678398902414
  8.5477045671714080  8.5509562456364154  5.6659299453445353
  9.9465172392755488  9.9518525031445897  7.1106613324227883
  8.5326872946623578  8.5316359140478042  8.5284157724628677
  9.9559315242552344  9.9506944523113461  9.9495189941765467
  2.8625066356014095 -0.0000000538999899 -0.0197769628490523
