Fe Tc
 1.0000000000000000
    11.4079933777809721    0.0000000000000000    0.0000000000000000
     0.0000000000000000   11.4191552599698358    0.0000000000000000
     0.0000000000000000    0.0000000000000000   11.4079934000532841
 Fe  Tc 
 126   2
Cartesian
  0.0688250242586393 -0.0060837576531766  0.0100576047432417
  1.3996784167356875  1.5237184167045821  1.4532832135431717
  0.0261367125298184 -0.0004281103692953  2.8260743632820424
  1.4353087755993177  1.4488034566462689  4.2481679169099964
  0.0052263452903170  0.0055574496120476  5.6985643907520895
  1.4308776596484127  1.4263620302920634  7.1323790765302064
  0.0123141531563705 -0.0022309455835221  8.5640353585247020
  1.3809488423545007  1.4497775775777706  9.9775298995403876
 -0.0044572874318861  2.8324097636610865 -0.0450444003588890
 -0.0329434973681250  2.8521745141664057  2.8847009363964338
  1.4272259587012150  4.2866519432014139  4.2270248667316128
  0.0098051125058330  2.8588787669725462  5.7042318297136410
  1.4292859520901779  4.2776359908527617  7.1350917132372826
  0.0002095945349463  2.8665082169125613  8.5576591893911775
  1.4360570313441443  4.2882656906080054 10.0508196720729863
 -0.0320163228372932  5.7502770456142915 -0.0242368224549525
  1.4309100658390534  7.1020063361097829  1.4212739599494966
 -0.0178896014831591  5.7340593471488361  2.8697686725853040
  1.4218363787390083  7.1166485666259813  4.2662929939150400
  0.0162858028182170  5.6983572019934998  5.6989877831601179
  1.4206292785460746  7.1320756913523624  7.1323943142879838
  0.0048395746276210  5.6991983648246558  8.5627465066185859
  1.4275970145669419  7.1308118778385179  9.9940866524176997
  0.0120909332647692  8.5705241181139691  0.0015980504226417
  1.4011972330237834  9.9436592085567170  1.4507964395736503
 -0.0061703217258512  8.5469561812733232  2.8582109470712975
  1.4280078722497778  9.9947797726846606  4.2699593438931931
 -0.0044965905545367  8.5643521898309274  5.7033973218564684
  1.4311643738208546  9.9971863016332740  7.1312147615797192
 -0.0122655179204318  8.5623112972571001  8.5482421653011080
  1.4017664770682736  9.9510670897560605  9.9499826711407149
  4.2832594130602706  1.4494204189433531  1.4698065185476132
  2.8424993579827138 -0.0062734944005520  2.7826264399961120
  4.2777410126651443  1.4155199266986360  4.2758944202110545
  2.8487992999665228  0.0044571920393671  5.6989425692084845
  4.2680615594962168  1.4234107078047824  7.1294721103426451
  2.8504854159332780 -0.0043600438979554  8.6069562583188830
  4.3107089190512209  1.4300112835259782  9.9490424410280305
  2.8792769878018616  2.7584755640390601 -0.0263147519146688
  4.2086250703080275  4.2884549320375820  1.4164994099007699
  2.8958000042400638  2.8327673283697727  2.8572534385594910
  4.2654064883704050  4.2844973398033597  4.2699588296337936
  2.8468438811257051  2.8556496060945675  5.7016951822637658
  4.2727017779832961  4.2766720241789571  7.1354381914686664
  2.8431137575464547  2.8333730863117039  8.5858359493424761
  4.2520734737545185  4.2826117822728973 10.0081317688084592
  2.8768005439852753  5.7576858081449140 -0.0248069110602135
  4.2659821107163474  7.1308729941151867  1.4243455320048211
  2.8761304115682305  5.7502903034104476  2.8842567484736659
  4.2901611454838084  7.1391941468817226  4.2858327702922949
  2.8469921244692005  5.7040754461368479  5.7029476332052429
  4.2825168846518586  7.1371315156423369  7.1306267180247360
  2.8500869191885680  5.7067154466474834  8.5640998637712489
  4.2842080130706233  7.1543785756202221  9.9758259249373449
  2.8472727484937370  8.5993333554198497  0.0049112089599680
  4.3102515668467465  9.9510534023718655  1.4501270318775155
  2.8503448744397168  8.5704625365123892  2.8399843245401111
  4.2732646725280601 10.0017627378382024  4.2713637163271398
  2.8573337208279903  8.5692295504515190  5.7017588138651387
  4.2618537028605674 10.0030227079990350  7.1350368383255978
  2.8560385906114147  8.5847396335078177  8.5679264798073067
  4.2957638491693899  9.9672831431434847  9.9641088336743628
  5.6530233512484855 -0.0044687308629501  0.0012266379174530
  7.1276937598423249  1.4265338462749757  1.4208449053148877
  5.6959577603102298 -0.0023122951716213  2.8394071060802251
  7.1289791828700979  1.4338551532627144  4.2738487211358693
  5.6993307991972335  0.0025202345679480  5.7036913824024849
  7.1302536592486732  1.4384401782155611  7.1295747115464705
  5.6883991369042164 -0.0012857197726261  8.5714959099271830
  7.1302304412438904  1.4233046950124735  9.9917995696668207
  5.6741661889559438  2.8333790343939351  0.0093091250447727
  7.1249419343958920  4.2777254248004626  1.4228008411181878
  5.7018928895783496  2.8666618182508561  2.8517395049219774
  7.1296906720196649  4.2796627616595480  4.2733320062448437
  5.6998478288277745  2.8483276442003689  5.7029800700987439
  7.1295923481065762  4.2743549270506769  7.1303216954669875
  5.7018572909658598  2.8533740253832898  8.5581283100903818
  7.1245637001259494  4.2766256132716070  9.9872206349036468
  5.6959578587755058  5.7065594945208291  0.0020089093463258
  7.1277578909611350  7.1321088019434091  1.4313346473621231
  5.6973622581361756  5.6995757336631439  2.8472657160219255
  7.1315812590152259  7.1295978141685028  4.2796298498692371
  5.6980367542976431  5.7076075159721897  5.7096280586318917
  7.1310825789070442  7.1313582589279623  7.1289903485186841
  5.7050212265988556  5.7107874970275665  8.5549532411408471
  7.1293963407437131  7.1369865323857242  9.9774980752040126
  5.6922936028794835  8.5846894080638663 -0.0041629570374899
  7.1289475402610680  9.9972638087421295  1.4209928018091300
  5.7118340330533313  8.5621435357943909  2.8641639538609325
  7.1356268228434301  9.9937312738025668  4.2720373857019434
  5.7056295986866710  8.5717408838930922  5.7055823153505436
  7.1337146189016520  9.9962728855107077  7.1262421379843053
  5.7114468504029210  8.5706979337607585  8.5486641894917881
  7.1249875371221716 10.0029812661057669  9.9982800163219299
  8.5610913894560223  0.0045465858084545  0.0032875833016357
 10.0118346152715247  1.4488092045111367  1.4171140594849487
  8.5614375551593085  0.0055107776545592  2.8467021674313262
  9.9841255253320718  1.4288067579829857  4.2758604846402557
  8.5563210753276060  0.0078289096797271  5.7035928761288313
  9.9859609104790739  1.4339120311220852  7.1309624785757562
  8.5561343642237091  0.0025344722175204  8.5605552215206284
  9.9836572586835945  1.4156729127356824  9.9822024079320695
  8.5583773716269871  2.8558211921328471  0.0048789783515788
 10.0329549105513873  4.2865431016406665  1.4244864328149542
  8.5554701825174160  2.8587728481603198  2.8420624410922564
  9.9974949139368157  4.2834709086344969  4.2624004301798619
  8.5555737487197216  2.8437427570900122  5.7042543419918923
  9.9865540153041295  4.2796486448916449  7.1301350550854234
  8.5569617606367157  2.8482705852261945  8.5599617246068807
  9.9900343542569967  4.2844164008914287  9.9943078530419189
  8.5572148474171499  5.7041524368722527  0.0051648169795485
  9.9939273828912114  7.1165984954302841  1.4300388552866619
  8.5610364425188372  5.6983157682849441  2.8358541957436718
  9.9746648624458683  7.1306398000819744  4.2854457193042776
  8.5522409270081123  5.7050652433829088  5.7077156682013008
  9.9804534205764668  7.1295113000867039  7.1285273588153064
  8.5503466344383874  5.7075520870001251  8.5619088398418430
  9.9742433018147025  7.1390259652693029  9.9697309615721075
  8.5583934341725563  8.5692628573134275 -0.0053701363409746
  9.9900980865973885  9.9946239289871652  1.4240877052370211
  8.5566254952611978  8.5642067551044097  2.8565175285023692
  9.9809524982286355  9.9905508916049808  4.2790222293261646
  8.5549890481194861  8.5699805879969340  5.7050839629461993
  9.9879082658501943  9.9937861470426164  7.1243476232220200
  8.5545263493819323  8.5718275558181301  8.5544539924693463
  9.9887446787479135 10.0021402149294580  9.9868340667309283
  2.8395909337137786  0.0032599176796658  0.0122054055830931
  1.4382035050724669  4.2788946282682971  1.4135927979633884
