Fe Rh
 1.0000000000000000
    11.4114939017047714    0.0000000000000000    0.0000000000000000
     0.0000000000000000   11.4114938983657392    0.0000000000000000
     0.0000000000000000    0.0000000000000000   11.4114938952378999
 Fe  Rh 
 126   2
Cartesian
 -0.0106823113941172 -0.0340683656200402 -0.0341336417334612
 -0.0300474575907970 -0.0301267724887958  2.8827161700373423
  1.4297014776420951  1.4235159089488152  4.2111485891102474
  0.0072998327525201 -0.0006909190750462  5.6983331227671199
  1.4270136995886857  1.4255093655302897  7.1369472949367072
 -0.0091928737400472  0.0046641858272147  8.5631277733255402
  1.3923031092861402  1.4605050983514967  9.9743748984133713
 -0.0298426355244294  2.8829208566125244 -0.0301266830034293
  1.4293574582864443  4.2111485989250443  1.4231720217199508
 -0.0394586029975511  2.8923321069343939  2.8923321513197409
  1.4248055997617159  4.2872433018685676  4.2871302305073788
 -0.0018594866978564  2.8550414398263606  5.6993762103503487
  1.4216409002576131  4.2801827681780802  7.1268981978746604
 -0.0199120711742157  2.8729454933160903  8.5460913547796320
  1.4311965830363733  4.2750254928079769  9.9756542325250486
  0.0075461238517260  5.6984519106949598 -0.0008141315996544
  1.4273642108662032  7.1369472471516122  1.4258597205147889
 -0.0021679200192337  5.6993763095146965  2.8547329156386723
  1.4214984449862151  7.1270110594512150  4.2800123663585179
 -0.0005114434166232  5.7111567639189103  5.7110856211860295
  1.4220022427980874  7.1248354509810374  7.1246044699077862
 -0.0076959837921167  5.7086439748081697  8.5482117591023261
  1.4256224935781496  7.1394787709075862  9.9926032273794156
 -0.0094028219773874  8.5629051770029836  0.0047596589374812
  1.3923685396836922  9.9743749986154775  1.4605702374892948
 -0.0200721497855982  8.5460913868635799  2.8727856893016321
  1.4311011202933908  9.9758641757974100  4.2748031105071558
 -0.0077419802699524  8.5482793394758509  5.7084156150862020
  1.4257456748399739  9.9923568658373014  7.1395973626600560
 -0.0217152154443422  8.5364835367544742  8.5364448372289949
  1.3963098976982498  9.9550097123637791  9.9552143142501670
  4.2899925693989527  1.4605703946303707  1.4605052532857510
  2.8869419159744432 -0.0341336580390751  2.8635558641118570
  4.2887130101012367  1.4216769526446309  4.2750254444806517
  2.8519459451480809  0.0005769589995510  5.7009833651414743
  4.2717642424949984  1.4272509342582789  7.1394786724262147
  2.8499526256475369  0.0032647311347853  8.6267818816150683
  4.3091529970738671  1.4565634605782682  9.9550098018185551
  2.8870069904191609  2.8635557051521747 -0.0340683902172704
  4.2885032824027780  4.2748028666204956  1.4217726083553617
  2.8830002047104948  2.8827159396012343  2.8829209516846412
  4.3010254970154103  4.3014856767414633  4.3014470809597505
  2.8536874859051919  2.8453274815630998  5.6984518435077556
  4.2870063956647879  4.2897187848099056  7.1292864275809436
  2.8481137923054103  2.8622763978081540  8.5629051371193423
  4.2992225587737094  4.2918392362696922  9.9649850198798671
  2.8522964567829132  5.7009833018185061  0.0009274592866811
  4.2720104317261383  7.1395973329192870  1.4271278755924233
  2.8535646770084746  5.6983331982551633  2.8455737220175239
  4.2870520419406786  7.1295150589570300  4.2896512432201988
  2.8573078790358890  5.7133263005291246  5.7130952646378699
  4.2798216726895602  7.1268450354799056  7.1267737731603678
  2.8576692109901263  5.7110323035664958  8.5577480695008674
  4.2811698134271312  7.1385544004484585  9.9828891129497439
  2.8496087617040748  8.6267819014873250  0.0029208689627271
  4.3093576015202322  9.9552145997503949  1.4565635365849612
  2.8482091794821343  8.5631276138469463  2.8620665123716500
  4.2993822812662463  9.9651451257485082  4.2918392075606491
  2.8578118118153486  8.5579182605550894  5.7109195504423624
  4.2814781403105053  9.9831974658670948  7.1385542715035033
  2.8545047928637510  8.5508003506786778  8.5506873608634777
  4.3187690012254807  9.9455985074977793  9.9455984227841512
  5.6375854706549964  0.0029208775225105  0.0032647792899622
  7.1274199263705524  1.4258598023174578  1.4255092032202532
  5.7014622168748437  0.0047597704625483  2.8622763306876204
  7.1374690006704604  1.4312324244090673  4.2801827383032727
  5.7066194927036102 -0.0047957635189874  5.7110322379468661
  7.1397628462183791  1.4308712509422850  7.1248355413938862
  5.7136800136618380 -0.0016312481567386  8.5508001896419437
  7.1247698846592638  1.4271279658629918  9.9923568135522522
  5.7012398597169502  2.8620663837632119  0.0046642761791120
  7.1373562495261229  4.2800122326613304  1.4313750479131055
  5.7182758200334920  2.8727854842139191  2.8729455102245338
  7.1422695992537433  4.2904184533360770  4.2905292428138697
  5.7161556140575165  2.8605693706818927  5.7086441283180056
  7.1398006187786276  4.2831018177645408  7.1245774119755900
  5.7279224084574611  2.8745887022255410  8.5364836652543605
  7.1348523726411983  4.2896513416606830  9.9773151619742180
  5.7064490407893942  5.7109196004569451 -0.0049383582297264
  7.1395319448587484  7.1246044010963017  1.4308712984675065
  5.7160879671337881  5.7084157443558690  2.8606153476713971
  7.1397899623338894  7.1245668860726061  4.2831017731917225
  5.7095384994854905  5.7133637147635365  5.7133531998356260
  7.1390326765288172  7.1253347613905715  7.1253346523960621
  5.7168552504488694  5.7158330342857244  8.5474013223048715
  7.1375222341356110  7.1267738541254655  9.9845456413368527
  5.7135671441839531  8.5506873484218868 -0.0016314002547678
  7.1248885146280339  9.9926030661951568  1.4272509215309170
  5.7278837747104268  8.5364448469595509  2.8745887930738885
  7.1350807865775865  9.9773611378575158  4.2897188844830803
  5.7169660147611019  8.5475121908032214  5.7158329284593616
  7.1375935058273221  9.9845455804351246  7.1268449216292682
  5.7342472823975585  8.5301200613127701  8.5301199598328594
  7.1258128952253745  9.9828891544510210  9.9831976894927230
  8.5633840694804917  0.0009274886065146  0.0005770692516550
 10.0532186737009219  1.4231720304386071  1.4235159146246554
  8.5659154609749955 -0.0008142556691269  2.8453274208422887
  9.9772370549796214  1.4280679232830851  4.2872434114260507
  8.5512720721010229 -0.0044344658048220  5.7133260836787860
  9.9843551704954923  1.4313750115847672  7.1270111492503387
  8.5534480016188734 -0.0049383306890442  8.5579185061875105
  9.9895642337295580  1.4217724997851229  9.9758642003403573
  8.5660341015336279  2.8455737779626031 -0.0006911626614051
  9.9771240840511002  4.2871301502384753  1.4280680936419350
  8.5649911723552918  2.8547330458932323  2.8550414635182189
  9.9565567751654189  4.3078105548934555  4.3078106908203297
  8.5532817200127429  2.8533849141816066  5.7111567007635804
  9.9739489826015202  4.2905292963591357  7.1220978582921326
  8.5559518912832253  2.8606153865725306  8.5482793437788231
  9.9628816951246666  4.3014469816586436  9.9633417998769449
  8.5510411062440284  5.7130951586189767 -0.0044344523658142
  9.9841845150012034  7.1268981885654323  1.4312326262119321
  8.5532105894557446  5.7110855598641361  2.8533848048937771
  9.9738381646454695  7.1220976799645470  4.2904183522537700
  8.5517714133641931  5.7125960460306207  5.7125959531269901
  9.9812656606267840  7.1245775045631694  7.1245667725261566
  8.5510036018969107  5.7133532138177170  8.5548289124188788
  9.9746485840325043  7.1292865662286946  9.9773611002437441
  8.5533351808218701  8.5577480047367516 -0.0047958425307629
  9.9893418254900102  9.9756542931767189  1.4216772476944057
  8.5557233526425591  8.5482118274555692  2.8605694704421536
  9.9629202920684001  9.9633417969289439  4.3014857510058500
  8.5510142272218079  8.5548288911743526  5.7133637605685523
  9.9747161194200498  9.9773152011008470  7.1295150763675972
  8.5485344389588622  8.5474012770175793  8.5475121545400121
  9.9725282038821348  9.9649851863255812  9.9651449113274637
  2.8847587815888773 -0.0318854136227212 -0.0318853282815375
  1.3945512519824945  1.4583220974426980  1.4583219975864483
