Fe Ir
 1.0000000000000000
    11.3911123359655466    0.0000000000000000    0.0000000000000000
     0.0000000000000000   11.4249276749354642    0.0000000000000000
     0.0000000000000000    0.0000000000000000   11.3911123150002442
 Fe  Ir 
 126   1
Cartesian
  0.0313245626355607  0.0023827778067199 -0.0000377948657686
  1.4483537060880050  1.4884402875443952  1.3995961492575948
  0.0086546209381528  0.0137866470646443  2.8390291854725991
  1.4210645842847478  1.4305876093127736  4.2691905373552022
  0.0092036051449370  0.0018399461226912  5.6955168331133628
  1.4209455465232328  1.4303694451817441  7.1219572651593310
  0.0087487201171905  0.0137869159317135  8.5519888518654401
  1.4481818207368644  1.4884402220473378  9.9916877513427256
 -0.0504725328948561  2.8725820969665046 -0.0001192612567017
  1.4614216714135893  4.2429437586989351  1.3861495643795445
 -0.0077767641240684  2.8781611677684049  2.8555321598574746
  1.4142665083423056  4.2952623883583403  4.2791570410784692
  0.0027618620806704  2.8611751793627178  5.6955073494030737
  1.4141989968589834  4.2952773459162730  7.1119857366672381
 -0.0077540137373356  2.8781611776062705  8.5355569618015004
  1.4616284153889569  4.2429435810042353 10.0047562035320663
  0.0095127990761833  5.7050221957975644  0.0000497504959842
  1.4112115939507686  7.1427540686637263  1.4368989793287115
  0.0057925186936120  5.6989643056238464  2.8419739644662787
  1.4137796209700129  7.1326320298302024  4.2825622367520628
 -0.0010325281856904  5.7074242128018717  5.6954941963341490
  1.4136897283685150  7.1326256191744335  7.1083420318219499
  0.0058042109085569  5.6989640550443523  8.5491265379656110
  1.4108791575976511  7.1427542065083420  9.9545458167702527
 -0.0046370994557914  8.5586366381046748  0.0000841495926261
  1.4120016125069976  9.9632742585754688  1.4355666963205873
 -0.0181725565855467  8.5524823129419829  2.8659182712524607
  1.4214378025950622  9.9902016623719732  4.2705146204958435
 -0.0057626574497050  8.5647114379367633  5.6954619251262439
  1.4215815936494620  9.9899399470187760  7.1204410744007491
 -0.0181403121231016  8.5524824415012297  8.5251618222777665
  1.4122114841366114  9.9632743950581304  9.9553358979436002
  4.2473745510767964  1.4884405907043510  1.3994246933048762
  2.8477402171921478  0.0023829655732659  2.8164536250527790
  4.2746107052403124  1.4303692917528479  4.2691549094734045
  2.8477780806612865  0.0026443407786346  5.6955558311824070
  4.2744917883717672  1.4305877569432550  7.1219218957491073
  2.8478161981065298  0.0023828413262096  8.5746586485501393
  4.2472025304274119  1.4884404075502993  9.9915158348475277
  4.2339277848988743  4.2429436131007447  1.3863563031355186
  2.8476587402518034  2.8725817104411355  2.8982504152535751
  4.2813569327888388  4.2952774042829809  4.2791267278018914
  2.8477779376678583  2.8580247914292509  5.6955560889620722
  4.2812900168460315  4.2952621601211982  7.1119553292327851
  2.8478974491542579  2.8725817583952846  8.4928616712700009
  4.2341344453526100  4.2429435067512813 10.0049627006931949
  2.8477781330969338  5.7641839118913252  0.0000001466570865
  4.2846767787090769  7.1427541627156463  1.4365663309153140
  2.8478276352972443  5.7050223201373802  2.8382650695605998
  4.2818666236186527  7.1326256986420642  4.2827703640191483
  2.8477780284384209  5.7059871278668517  5.6955560628506881
  4.2817761540405943  7.1326324462014483  7.1085500726438120
  2.8477282666262780  5.7050223499500019  8.5528473390958215
  4.2843445192965959  7.1427542218470190  9.9542132267374210
  2.8477778880442530  8.6077683754746914  0.0000002277085765
  4.2833445591912920  9.9632741739726569  1.4357765647401148
  2.8478618960976880  8.5586363674277290  2.8524153456298418
  4.2739743240652839  9.9899400364895126  4.2706713339582363
  2.8477780560622947  8.5709884286500824  5.6955563052103324
  4.2741183748982081  9.9902014073631555  7.1205977573579959
  2.8476941991918534  8.5586365399426683  8.5386968893597821
  4.2835545738113989  9.9632742764183426  9.9555456558701927
  5.6642316144352627  0.0023830837388776  0.0000378549936807
  7.1169683302844531  1.4305878789461630  1.4267138882679631
  5.6868071618753930  0.0137869181091620  2.8391234828836320
  7.1259829077997088  1.4354552495500410  4.2783313799308882
  5.6863524184382541  0.0018400672538013  5.6955955751952594
  7.1261096777969826  1.4354555127557198  7.1129075569975440
  5.6869015320298031  0.0137868156241872  8.5520831146809293
  7.1169329168293265  1.4303691466662842  9.9642799117388083
  5.7460285039384784  2.8725819691713248  0.0001192214149178
  7.1269352646084334  4.2952621955585082  1.4335116381054669
  5.7033102863689065  2.8781609738690457  2.8555549923651600
  7.1263338548752504  4.2884810721175377  4.2785266282813064
  5.6927945762987511  2.8611751492157853  5.6956049109304931
  7.1263048503321809  4.2884812906614691  7.1125562554350967
  5.7033329855171182  2.8781610426154018  8.5355804068603423
  7.1269048374568342  4.2952775480182721  9.9575335182529621
  5.6860431475684381  5.7050223276700738 -0.0000495744244072
  7.1303401893879581  7.1326324992995902  1.4339984170765590
  5.6897520588906767  5.6989642331296686  2.8419859336388371
  7.1224640559442838  7.1263894268489834  4.2747201271107160
  5.6965890694486019  5.7074242770715760  5.6956181077141386
  7.1224981097898272  7.1263892637659643  7.1164262080799068
  5.6897638070952183  5.6989643254973386  8.5491382600005004
  7.1305484657604437  7.1326258316023168  9.9570238635173745
  5.7001932711893932  8.5586364832645838 -0.0000842007748589
  7.1182927655034254  9.9902014268535027  1.4263403511278789
  5.7136966066605446  8.5524825391868529  2.8659505137854504
  7.1214982452949416  9.9982577439553015  4.2737264652795917
  5.7013186405773100  8.5647114883046456  5.6956503431697243
  7.1215044231126274  9.9982578394243848  7.1173922763000892
  5.7137286106041492  8.5524825591019198  8.5251938696605194
  7.1184494317939091  9.9899400013550714  9.9649161264740460
  8.5433342684804430  0.0026444638732812 -0.0000000729769957
  9.9697355960544396  1.4303691997790866  1.4268323016394782
  8.5432949273308321  0.0018401391857527  2.8385742196240420
  9.9605588944993837  1.4354553791506275  4.2782047351282273
  8.5433343523142558  0.0035462366654436  5.6955561900487135
  9.9606857258221719  1.4354552457783412  7.1127806181306559
  8.5433736261350166  0.0018398411853337  8.5525377442530033
  9.9696999496284171  1.4305876552245420  9.9643986928522672
  8.5433343415595751  2.8580250069356317 -0.0000000030240288
  9.9597641273719884  4.2952774910238043  1.4335789531949650
  8.5432853110298321  2.8611749293289312  2.8450161874661939
  9.9603639287119154  4.2884809064185871  4.2785559346902913
  8.5433342000596504  2.8562887999073983  5.6955561163208355
  9.9603345694159948  4.2884811431187373  7.1125857998742665
  8.5433830474633528  2.8611752421456744  8.5460960455933197
  9.9597334153452568  4.2952622279048418  9.9576007804905959
  8.5433343919838443  5.7059870497066756 -0.0000000996217511
  9.9561199721935534  7.1326254948139471  1.4340887494706340
  8.5432722719666554  5.7074243268286677  2.8488108904514751
  9.9641699267652868  7.1263895899588032  4.2746860164635532
  8.5433341545615527  5.7065168407838760  5.6955560745216243
  9.9642042000548834  7.1263895428458257  7.1163921349871018
  8.5433961872673336  5.7074240382172681  8.5423016187223695
  9.9563281194898625  7.1326322967080813  9.9571141094744942
  8.5433342162748946  8.5709885803203694  0.0000000309275279
  9.9682190969958011  9.9899401442381510  1.4261961843125881
  8.5432400257889238  8.5647115097758899  2.8535406076116248
  9.9651641604280403  9.9982579634277720  4.2737199238594394
  8.5433343416457515  8.5695444603621844  5.6955558701505513
  9.9651703473994839  9.9982579560839611  7.1173861628200052
  8.5434285828336005  8.5647113345164918  8.5375718487126022
  9.9683758096249271  9.9902013937353864  9.9647719801207053
  2.8477781466713847 -0.0436670957501085  0.0000000815556438
