Fe Ir
 1.0000000000000000
    11.4288444857304956    0.0000000000000000    0.0000000000000000
     0.0000000000000000   11.3880820814621178    0.0000000000000000
     0.0000000000000000    0.0000000000000000   11.4288444918408540
 Fe  Ir 
 126   2
Cartesian
 -0.0036212832835561  0.0064070446131896  0.0000590329693957
  1.3597403490938558  1.4235101542502819  1.4974707017224593
 -0.0333539551571505 -0.0149688908458458  2.8908104327881246
  1.4069564199229543  1.4237010970327948  4.2839172813888835
 -0.0092534382557637 -0.0120928444095512  5.7144482601225128
  1.4069564640777938  1.4233196027453605  7.1449271401582237
 -0.0335991649749995 -0.0149690512187012  8.5382794592188240
  1.3597404350492386  1.4235102563417128  9.9313738097312996
 -0.0036212936033857  2.8406133796306028 -0.0000589366223961
  1.4198846170772954  4.2465771517165569  1.4374840444553312
 -0.0335992816123850  2.8619896440983181  2.8905651853044683
  1.4214123778291197  4.2821527021205652  4.2935149105388968
 -0.0092535690861591  2.8591133492741339  5.7143961405898827
  1.4210427584229344  4.2821960103704351  7.1355999160585704
 -0.0333539714309885  2.8619893801411407  8.5380341887319204
  1.4197272467204800  4.2465772453545396  9.9915180884966137
  0.0032022659477514  5.6841031878077271  0.0000813351776660
  1.4341008090066121  7.1175513120259630  1.4231101583049228
 -0.0086440032173926  5.7052171718472193  2.8660043505306581
  1.4231650875108901  7.1174286830791802  4.2896474923897907
  0.0034656380722924  5.7069487249779627  5.7144717902546640
  1.4231649705778069  7.1176740006103936  7.1391969249884886
 -0.0087932141032775  5.7052169403814270  8.5629894013768411
  1.4341009438687040  7.1175513154550103 10.0057342380769789
  0.0032023514367175  8.5509995935374707 -0.0000809762202194
  1.4197271616386307  9.9885253513387458  1.4373263784925288
 -0.0087933846544796  8.5298853738759206  2.8658550341050608
  1.4210425663220889  9.9529067099357604  4.2932445596123019
  0.0034655906268424  8.5281537757695549  5.7143727653494807
  1.4214124558106374  9.9529501492341712  7.1353294954448714
 -0.0086440888772155  8.5298853650807089  8.5628400185600118
  1.4198845705212606  9.9885253886682488  9.9913607255481285
  4.3546819014912481  1.4235103694732965  1.4974707882734146
  2.8572701179789091  0.0064072387465051  2.8608324341474209
  4.3074657947799126  1.4233195359063622  4.2839172051169720
  2.8572111382345673  0.0080709869166797  5.7144222290296511
  4.3074658237809933  1.4237009441934549  7.1449272583161765
  2.8571522231296496  0.0064072322307621  8.5680121061412606
  4.3546816052163839  1.4235103809140286  9.9313739281676945
  4.2946951205449260  4.2465772471977923  1.4373264311723204
  2.8571521799578710  2.8406133633923538  2.8608322352297657
  4.2933794864987771  4.2821959431281620  4.2932442935304822
  2.8572111206523001  2.8389493595710644  5.7144223382377959
  4.2930095425590356  4.2821526299290644  7.1353293561158422
  2.8572700556969157  2.8406131192099298  8.5680120924159304
  4.2945374813587271  4.2465773534577460  9.9913605351202559
  2.8572111617397535  5.6124538862152624  0.0000001320157143
  4.2803214193360528  7.1175513404365462  1.4231102394955990
  2.8572922773060005  5.6841031491000482  2.8540086777136962
  4.2912571069823997  7.1176740038344102  4.2896475544938522
  2.8572112472386499  5.7002343449316619  5.7144222302848124
  4.2912570614679142  7.1174285794688670  7.1391970447978776
  2.8571300103665371  5.6841031568615694  8.5748356450681875
  4.2803212527464725  7.1175513260562076 10.0057341572883907
  2.8572112312655156  8.6226489164160913 -0.0000000049924796
  4.2945378197044644  9.9885252784699237  1.4374840518627479
  2.8571300511959627  8.5509993216143876  2.8540088516036470
  4.2930095864131648  9.9529500591977182  4.2935150122310430
  2.8572111750181977  8.5348681163514399  5.7144221934497601
  4.2933797238463693  9.9529067888340226  7.1355999104610213
  2.8572922154990881  8.5509994645457432  8.5748357192675613
  4.2946950545817950  9.9885252775662927  9.9915180102615100
  5.7180434187022335  0.0064072081897721 -0.0000587880745767
  7.1411283476488441  1.4237010719209255  1.4502545160126175
  5.7480214659436237 -0.0149689031994072  2.8905649149612973
  7.1628228860846379  1.4235102783378080  4.3056120053606293
  5.7236759069119278 -0.0120926272678104  5.7143960969429806
  7.1628230298074760  1.4235104731896484  7.1232325848171358
  5.7477761242885173 -0.0149688746813532  8.5380341531824371
  7.1411283649707631  1.4233195538299492  9.9785898148568943
  5.7180435517671908  2.8406132957651709  0.0000590543799330
  7.1507260820948408  4.2821525216651484  1.4357985089379894
  5.7477760910604490  2.8619895269783253  2.8908101733966971
  7.1573932724556828  4.3008343748329185  4.3001537448216096
  5.7236758453545171  2.8591131588560557  5.7144483046736809
  7.1573649289219894  4.3008346036869787  7.1286623393224016
  5.7480214779480461  2.8619895120702101  8.5382793894352034
  7.1504554560383724  4.2821959750953509  9.9926760106829633
  5.7112198640223042  5.6841032314881614 -0.0000811430468764
  7.1468587464824349  7.1174287034391295  1.4340461647295399
  5.7232155614362732  5.7052170745504922  2.8658550305799926
  7.1419592328867276  7.1175512588529068  4.2847482077181933
  5.7109565371790323  5.7069487718017760  5.7143726270243995
  7.1419594044512795  7.1175512598585495  7.1440964052690434
  5.7230662412301658  5.7052170807808693  8.5628401815401602
  7.1468584841137490  7.1176739571099326  9.9947983386917176
  5.7112199843767453  8.5509994294844240  0.0000811314042495
  7.1504555346705247  9.9529065845244915  1.4361685804865940
  5.7230660208958355  8.5298854399651400  2.8660043895647136
  7.1573648392537983  9.9342680857718157  4.3001819639704539
  5.7109566920931432  8.5281539253131964  5.7144718597244877
  7.1573932214014802  9.9342679696861076  7.1286907230597940
  5.7232156433158501  8.5298854665403052  8.5629893812368234
  7.1507260511041641  9.9529500467786516  9.9930459537524037
  8.5716334745005458  0.0080711395349472  0.0000001735775149
 10.0021383785926261  1.4233194123662725  1.4502545403270632
  8.5716594641263590 -0.0120926710682200  2.8664646494065598
  9.9804434834193181  1.4235103473795092  4.3056119173016656
  8.5716333889675642 -0.0153144075557324  5.7144221719198329
  9.9804437459293300  1.4235103240084648  7.1232326224790299
  8.5716071888677163 -0.0120926247182382  8.5623796763705311
 10.0021382462900643  1.4237008660052815  9.9785898794207881
  8.5716333817831334  2.8389493772097349  0.0000000418475683
  9.9928109636138185  4.2821960859489723  1.4361683750027705
  8.5716073143340274  2.8591133189915703  2.8664647322755679
  9.9859017392756595  4.3008344369081692  4.3001820353313152
  8.5716333144067125  2.8623351533332819  5.7144222451176878
  9.9858735700429584  4.3008345411662408  7.1286905781119669
  8.5716595368067576  2.8591132071618857  8.5623797402681863
  9.9925406662757030  4.2821525863346119  9.9930460299271608
  8.5716333153798612  5.7002344268440703 -0.0000001960239212
  9.9964080739681531  7.1176740976038770  1.4340460102547379
  8.5716831669769142  5.7069488374156085  2.8537454719099462
 10.0013072637113076  7.1175513531836563  4.2847483023220310
  8.5716334496890223  5.7161435494746549  5.7144222720695517
 10.0013074370066484  7.1175513063574511  7.1440962676239197
  8.5715838697079114  5.7069487504455472  8.5750990054605793
  9.9964080663348085  7.1174287870578477  9.9947982559130999
  8.5716333635370834  8.5348679555068454 -0.0000001338551351
  9.9925404923130312  9.9529501162926124  1.4357985586326552
  8.5715840055596804  8.5281539504713102  2.8537455427016098
  9.9858734315937081  9.9342679453119835  4.3001536410600005
  8.5716334288441214  8.5189590816469050  5.7144223129484963
  9.9859019084754106  9.9342680304256792  7.1286623967523743
  8.5716827165335339  8.5281537931764131  8.5750990161840317
  9.9928111559082264  9.9529065971281998  9.9926760373898080
  2.8572111719145865  0.0444897166845656 -0.0000002006691225
  2.8572110040758063  2.8025309114061994 -0.0000000457419397
