Fe Ni
 1.0000000000000000
    11.3726414079177065    0.0000000000000000    0.0000000000000000
     0.0000000000000000   11.3729373103260958    0.0000000000000000
     0.0000000000000000    0.0000000000000000   11.3726482831226949
 Fe  Ni 
 126   1
Cartesian
  0.0129399045963792 -0.0029539305378554 -0.0018127840688002
  1.4174585758067262  1.3892128490514415  1.4256009884540290
 -0.0075410782420767 -0.0047478327678853  2.8507430787464902
  1.4195944499380564  1.4362284888739165  4.2474724199151286
  0.0004329683884008  0.0003248378406958  5.6859982567426615
  1.4190683399636492  1.4321885875538813  7.1113983890079346
 -0.0050060475439901 -0.0006263769706310  8.5252613762717715
  1.4167692730240533  1.4349656504975570  9.9626398070717048
  0.0526274082239337  2.8996874385847926  0.0530858592500104
  0.0480356806113071  2.9128497172707268  2.7952210891809712
  1.4219051613267291  4.2712101414016717  4.3083487375851233
 -0.0005195613924540  2.8416318641027196  5.6871006149920929
  1.4213623034148548  4.2695813041974766  7.1039230316032249
 -0.0144822060183685  2.8563218025023884  8.5148803915955611
  1.4204966811628390  4.2623434502109854  9.9111952021235528
  0.0504453867488459  5.6348259982654287  0.0523615695282595
  1.4201183807665105  7.1519384621707767  1.4230428355501181
  0.0529788395654814  5.6345643422582175  2.7902476690670568
  1.4202741022162841  7.0926074595537347  4.2580281716766617
 -0.0030933902990264  5.6890016643339738  5.6886319800385312
  1.4203280121097970  7.0952952559846771  7.1038662177285570
 -0.0021266257315182  5.6871708805075940  8.5281490242917659
  1.4176395918894482  7.1005871194704184  9.9603927688835938
 -0.0062733938632259  8.5291310357701775 -0.0017211888140142
  1.4224153757688449  9.9529989538028012  1.4207880416498093
 -0.0155079198496300  8.5196598244216357  2.8586204793036867
  1.4200096973417902  9.9484300809855739  4.2543889792235889
  0.0005048929382669  8.5286107927643666  5.6864511823938644
  1.4191024722293584  9.9481209800075465  7.1106443786869447
 -0.0127679209476619  8.5167292414075337  8.5154888757309610
  1.4186004937057979  9.9487680721861782  9.9543439028757241
  4.2531752693428508  1.4348994027800877  1.4264678175506424
  2.8449831449364757 -0.0029117156759031  2.8301013534558805
  4.2496802444783333  1.4411817913746827  4.2452189736466464
  2.8418914003884730  0.0004289257784739  5.6854766092717357
  4.2620334642026991  1.4284521220505337  7.1124048978878909
  2.8417141055623416  0.0002791576553044  8.5475600081270180
  4.2508421401510894  1.4383807741433514  9.9649110996098091
  2.7891688302060249  2.8761527398235516  0.0540716790230663
  4.3045471281047742  4.2623190185951456  1.4227556041079481
  2.7901571705630679  2.8996249807385137  2.7905539895339331
  4.2532518551061820  4.2693446920447089  4.2577867846086157
  2.8449065024167060  2.8413402721449645  5.6875997566195222
  4.2554991490250131  4.2686961825769805  7.1048040952504694
  2.8444645086121092  2.8431056844028153  8.5277636855412968
  4.2532278541066031  4.2614590026669239  9.9625751884166949
  2.7904990088137365  5.6351157097776987  0.0527096527117249
  4.2554761181451299  7.1006696623864434  1.4254976549304956
  2.7908914698483738  5.6349210484503134  2.7927132278399029
  4.2489315210387018  7.0865516074750659  4.2516414719555291
  2.8454323141552438  5.6891664541526561  5.6884916065087783
  4.2615319115769577  7.0985865449341583  7.1046105857704118
  2.8439273078822151  5.6881408209360584  8.5283883678489314
  4.2503843670115389  7.0917823511447455  9.9654424831934030
  2.8464524058347127  8.5462891292296899 -0.0032475622364314
  4.2613235217631242  9.9488385614863262  1.4245603897551706
  2.8448062939057746  8.5290840325507471  2.8495018976970297
  4.2629423307207093  9.9488154850211714  4.2577551570424266
  2.8425060074348010  8.5277323787897643  5.6868718722282763
  4.2645524468616056  9.9490035029006219  7.1109272051441748
  2.8424441374993337  8.5252930294325697  8.5257763237660829
  4.2635831464358267  9.9492770054700479  9.9522279355359302
  5.6681708378599138  0.0001998102364207  0.0013893994817031
  7.1044392951348421  1.4322463943600776  1.4239724225409536
  5.6906045144801194 -0.0006005487887712  2.8481484258693861
  7.1120106875811784  1.4290006217716724  4.2646571641535580
  5.6795048011764342  0.0083164307981541  5.6792529248090684
  7.1130687934053221  1.4258926089587258  7.1027040532780967
  5.6846991846135797  0.0071555780100605  8.5311478255340170
  7.1033924291092401  1.4284419575970531  9.9537006322588635
  5.6879756571548983  2.8430140773101003 -0.0012065124576666
  7.1118318669403102  4.2695710460998386  1.4218227059727566
  5.7009468367541736  2.8563180985129222  2.8577872103044881
  7.1108904247631735  4.2676510514415691  4.2595050827090324
  5.6852024996672261  2.8446035124369589  5.6871803017302787
  7.1119471512778194  4.2682516476011090  7.1038691429242009
  5.6989477244770166  2.8580569510820157  8.5168638375204857
  7.1110087034478466  4.2686303680454323  9.9602911975427268
  5.6873930186537507  5.6879799234827315 -0.0008283246309658
  7.1119349917636585  7.0953154243274748  1.4227996792547122
  5.6876627482229782  5.6872269801348256  2.8452316758985452
  7.1108055776928882  7.0989379679433151  4.2637132909977371
  5.6870274554389821  5.6847594373589736  5.6856158341439267
  7.1116265669332908  7.1012237889374719  7.1041811443254677
  5.6867412063010390  5.6839343100846591  8.5290340360770358
  7.1111386665904170  7.0985215968203459  9.9543040720660123
  5.6900140750468475  8.5252607349890095  0.0007297562246475
  7.1051726346991551  9.9481624680201115  1.4240229873459136
  5.7003015993237138  8.5168399329955502  2.8558984209330092
  7.1131632447506634  9.9501251356134865  4.2682275174686461
  5.6784151393449367  8.5212659637660639  5.6791511438718700
  7.1137652418339128  9.9496240847589821  7.1020996071438862
  5.6917846197993578  8.5094549326144140  8.5240347182061083
  7.1049051931984755  9.9489856179505320  9.9512585469997301
  8.5303228041092218  0.0004903472043432  0.0012856458306849
  9.9683349782071886  1.4362468862206912  1.4235036349716641
  8.5298354515341579  0.0003067968737768  2.8427094710391057
  9.9656184591817638  1.4426306061196985  4.2502651969473337
  8.5382712569956158  0.0097736762588661  5.6775502804186848
  9.9511121283614763  1.4290253749275792  7.1038687454422389
  8.5365694094655584  0.0083128252738163  8.5362968374444765
  9.9706620951052560  1.4411785677737019  9.9661924130048849
  8.5282478748071497  2.8414332320036917 -0.0019003761237283
  9.9074502790977892  4.2711075395147757  1.4212864886980765
  8.5286762671414600  2.8415076595181326  2.8435665201679572
  9.9604683724026142  4.2681280549058300  4.2553347592187709
  8.5302535360295373  2.8468825832838851  5.6854997429082612
  9.9562960240518610  4.2676891155170278  7.1049239800212058
  8.5286716943509973  2.8445996221993401  8.5305437014152705
  9.9580765171135095  4.2693580195844687  9.9625386301099130
  8.5273189208387183  5.6891897236081057 -0.0021923602165233
  9.9577900224723574  7.0925062890318236  1.4228752239044702
  8.5271382480349409  5.6889002119834142  2.8463239720669495
  9.9652515970963851  7.0865290886519006  4.2505241821908699
  8.5311796762863850  5.6845101467648984  5.6846519815174412
  9.9520762237351477  7.0989257578655653  7.1050103178332389
  8.5301477345198080  5.6847560945340661  8.5288374604020341
  9.9641363581118227  7.0865843937195034  9.9669234095165216
  8.5289732258837851  8.5277509481155604  0.0006679214921433
  9.9614037651534115  9.9483641273988503  1.4231507138555848
  8.5292828956630906  8.5285647309763242  2.8426112001828341
  9.9504243868938769  9.9496414914456732  4.2653268681902743
  8.5376531153861297  8.5184151706696483  5.6781551492138043
  9.9476160336081829  9.9500909994202704  7.1026274239400058
  8.5366475134045245  8.5212333359957491  8.5373967480088222
  9.9580558973166404  9.9487665022862952  9.9528657717825642
  2.8448668395706713 -0.0068079046584106 -0.0017590332669613
