Fe Ta
 1.0000000000000000
    11.3754009263046569    0.0000000000000000    0.0000000000000000
     0.0000000000000000   11.3754009282886823    0.0000000000000000
     0.0000000000000000    0.0000000000000000   11.3754009342985860
 Fe  Ta 
 126   1
Cartesian
 -0.0586666303188875 -0.0000588002730832 -0.0003282528477822
  0.1187202754342561  0.0783735020967962  2.7248945815505508
  1.4330774944239129  1.4108120826785353  4.2926669703571134
  0.0047981744411006 -0.0061738367610454  5.6904532250105779
  1.4222131843912140  1.4216270882392854  7.1073484287584261
  0.0006397765109733 -0.0132650165419802  8.5295751057678793
  1.3619386636637314  1.4814172586659053  9.7979271686110732
  0.1189555796781923  2.7251301110904098  0.0783734814981881
  1.4330381014559492  4.2926669766848473  1.4107726723968528
  0.0640584439857420  2.7797917849131601  2.7797917484852253
  1.4331533819300517  4.2349176747756925  4.2348745299718953
  0.0012766508007027  2.8426185913682578  5.6797682799897711
  1.4250937934267314  4.2564789237902358  7.1045329683115366
 -0.0134821208217996  2.8571027734563281  8.5019804261010048
  1.4160794160604491  4.2427467547409075  9.9529980425237206
  0.0050414743865085  5.6904711817668652 -0.0062466920354811
  1.4222230213148388  7.1073483232008678  1.4216369566400278
  0.0012315651492610  5.6797683430502310  2.8425735526807099
  1.4251299754741402  7.1045717270277056  4.2565538737477882
  0.0115264336470507  5.6795965671610071  5.6795375309268739
  1.4248709920176248  7.1085921913038028  7.1087393688216096
 -0.0068813941715307  5.6796637971727595  8.5240386009675468
  1.4197663705009222  7.1077332107781981  9.9585688078383665
  0.0004645081867076  8.5294984563035161 -0.0132095987610213
  1.3624330320882785  9.7979271672063426  1.4819114819637840
 -0.0132524905986093  8.5019803841270924  2.8573324903008688
  1.4158731583399964  9.9532934303137583  4.2428871786620208
 -0.0067494111735149  8.5240977848247201  5.6797328218093197
  1.4199739339682484  9.9586170535182923  7.1078480172131897
 -0.0004952641288940  8.5357728687984658  8.5356890394496929
  1.4087014583656303  9.9752904524702508  9.9755122517930026
  4.4213241145027329  1.4819115414617490  1.4814173208768657
  2.8439090186114808 -0.0003283998986412  2.9025167813557196
  4.2662529910919567  1.4277707431276292  4.2427469313053878
  2.8475552587844342 -0.0037432475487981  5.6845402436842596
  4.2606824276266684  1.4240839176316011  7.1077331916952140
  2.8347228029866640  0.0091004372321763  8.5346873388822271
  4.2437388809434067  1.4351488371075223  9.9752903467492242
  2.8441786410027690  2.9025169181522532 -0.0000587643913587
  4.2659578497951749  4.2428872780668412  1.4279769067030563
  2.7654767157559208  2.7248946017325788  2.7251299289900817
  4.2391172209236663  4.2256898138693026  4.2253954604292607
  2.8500968671273794  2.8388086261076895  5.6904714499707252
  4.2728386592642922  4.2664703131492363  7.1042360437971519
  2.8570596879609345  2.8433858277624360  8.5294985059331552
  4.2637612355421632  4.2624940600242818  9.9554115640314951
  2.8475934517917914  5.6845403027930006 -0.0037050885528022
  4.2606342279528162  7.1078480224926670  1.4238763255861620
  2.8500241159173267  5.6904532299253816  2.8390520546819271
  4.2726704903823665  7.1042907990524871  4.2665080487586131
  2.8483435563100192  5.6808707567033245  5.6809612914639684
  4.2617404329544613  7.1114989367637307  7.1114359737011181
  2.8444429724215365  5.6815771563737192  8.5294060118876480
  4.2606606345496427  7.1129744162389530  9.9583087501325043
  2.8347498892607885  8.5346874710106793  0.0091274148520114
  4.2439608140837422  9.9755123072289500  1.4351488305445064
  2.8571152699901203  8.5295750573634628  2.8432104777568350
  4.2638396453234249  9.9554896408770901  4.2624940143154237
  2.8446075519731711  8.5294162372486184  5.6816976386629134
  4.2609423689324633  9.9585904747723539  7.1129744088599924
  2.8342028452579253  8.5626939527695853  8.5626279572080914
  4.2061425146046041 10.0131087064859781 10.0131086771911946
  5.6845637490506391  0.0091274816432219  0.0091005306225799
  7.1119026895917807  1.4216370766528128  1.4216272397833329
  5.6897526773334075 -0.0132095276894388  2.8433858676471933
  7.1147181476384302  1.4187564334488394  4.2564790643132220
  5.6898452363627818 -0.0005928277651222  5.6815773419127353
  7.1105116143061604  1.4189793001100395  7.1085922360577278
  5.6566229765577107  0.0096474304201112  8.5626940481178728
  7.1114032344819602  1.4238762347393585  9.9586170058286179
  5.6896761755927798  2.8432105187168424 -0.0132651442893004
  7.1146793994014104  4.2565538037899850  1.4187201892787018
  5.7172708021808694  2.8573324622965623  2.8571027957174433
  7.1251330954746228  4.2681397123234461  4.2679281896327996
  5.6952126478100107  2.8507317031005388  5.6796638744983499
  7.1127073977494497  4.2646690981936235  7.1065061607510520
  5.6835620264742435  2.8443456309044803  8.5357730017365441
  7.1149604620857190  4.2665082489577530  9.9465805695347882
  5.6898349301674909  5.6816977277443756 -0.0007575900084779
  7.1106588672636439  7.1087393796099789  1.4189792652452460
  5.6951535277326206  5.6797328733060795  2.8505995935284196
  7.1127448976036511  7.1065437424543987  4.2646691059242148
  5.6816829322067850  5.6772555835297709  5.6772835968261388
  7.1104673045725963  7.1087839076473740  7.1087840383289738
  5.6892199258245926  5.6852624828511313  8.5301381796150739
  7.1077521729844815  7.1114359647069145  9.9575107101925262
  5.6565572885746720  8.5626280502724121  0.0096472689693599
  7.1115180872914880  9.9585687465485151  1.4240840007605788
  5.6834784608442757  8.5356890702506600  2.8443455517483165
  7.1150151364714489  9.9464123410836596  4.2664704381894740
  5.6891130189133010  8.5300311777581381  5.6852625958119170
  7.1078151772921307  9.9575107694086231  7.1114990708572723
  5.6737011315911534  8.5455502220357857  8.5455501177655986
  7.1062768156894203  9.9583090143197559  9.9585904425600376
  8.5347109734422428 -0.0037049957705364 -0.0037431341690920
  9.9265840587510379  1.4107728996298645  1.4108119455415655
  8.5287797945046506 -0.0062465890228228  2.8388085642793297
  9.9843765781427791  1.4106967700699735  4.2349176577733525
  8.5382899090270374 -0.0044932548549148  5.6808709428636073
  9.9626973810705515  1.4187203289798240  7.1045717760424658
  8.5375536036471029 -0.0007574792402765  8.5294162630009271
  9.9763640113094727  1.4279769706675034  9.9532933036558848
  8.5287978388577041  2.8390519770312608 -0.0061739213668417
  9.9843333794103426  4.2348745241627306  1.4106968053476934
  8.5394827331982608  2.8425736477579249  2.8426185929611409
  9.9764891275193968  4.2427620890166349  4.2427621284997379
  8.5397136791835937  2.8323237207795331  5.6795965029024025
  9.9511113744018633  4.2679280494570673  7.0941179913453718
  8.5395182802719578  2.8505995484853259  8.5240977323224971
  9.9935612593507894  4.2253953958162036  9.9801338718040871
  8.5383804594628359  5.6809612515931462 -0.0044932736021638
  9.9627722386321995  7.1045331941070593  1.4187564137428521
  8.5396545889213140  5.6795374528608873  2.8323237563850636
  9.9513231133633440  7.0941180537369295  4.2681397430356398
  8.5352273803528593  5.6840238748576670  5.6840238065636886
  9.9545820989582801  7.1065062194608917  7.1065438901828228
  8.5419956356820457  5.6772835597098021  8.5375682156997819
  9.9527809151630198  7.1042360373332709  9.9464123663463369
  8.5376738477651166  8.5294059914694831 -0.0005928429477377
  9.9765042729029183  9.9529979963134370  1.4277708311191317
  8.5395872246146904  8.5240383403985192  2.8507317754193520
  9.9938557047583636  9.9801339173502157  4.2256897610366710
  8.5419675403564135  8.5375681435426287  5.6772557000343369
  9.9527430515257667  9.9465805964275233  7.1042907564637359
  8.5339886583261748  8.5301382609214613  8.5300313099552572
  9.9567571921383600  9.9554115311855522  9.9554897976219845
  2.4657626228195091  0.3780873282013045  0.3780874636955756
