Fe Ir
 1.0000000000000000
    11.4327355689491643    0.0000000000000000    0.0000000000000000
     0.0000000000000000   11.4025760779431184    0.0000000000000000
     0.0000000000000000    0.0000000000000000   11.4327355714406611
 Fe  Ir 
 126   2
Cartesian
  0.0461917614785931  0.0000000218193856  0.0461919318606845
  1.4290904508634499  1.4718048536322226  1.4290932549838333
  1.4454353657776453  1.4332212224319556  4.3065635811974392
 -0.0017535067369459  0.0000359417930241  5.6934586651906374
  1.4290920213870715  1.4287407367249612  7.1454596300011621
 -0.0083396305848032 -0.0001351883882505  8.5616228308564484
  1.4127484522291873  1.4332212869018828  9.9843556242978284
  0.0074434319728260  2.8557388013724316  0.0073511905196084
  1.4290918736456912  4.2799676455534161  1.4290919370622295
 -0.0149638670483473  2.8414246619801449  2.8732671193971493
  1.4258240244371951  4.2833418933737573  4.2951475084437254
 -0.0021026808884929  2.8585438057876305  5.7182489533612273
  1.4290919547855814  4.2888186204638723  7.1454597641233324
 -0.0139959883832371  2.8608320215879952  8.5605801999582045
  1.4323598626821883  4.2833419391649050  9.9957718817014349
  0.0033782751404185  5.7012881093670611  0.0033783560554304
  1.4290919319531858  7.1226085868723015  1.4290918782571671
 -0.0029076758353625  5.7012879509112997  2.8610915547246787
  1.4261137540765478  7.1190893525486336  4.2948221286597414
 -0.0005176378103943  5.7012812726234809  5.7130730024199270
  1.4290920598066872  7.1138435658423296  7.1454597604351155
 -0.0036618936991791  5.7012806143974135  8.5733096582590615
  1.4320701796011024  7.1190891719737524  9.9960974481292340
  0.0073511117062549  8.5468374160613116  0.0074435263541990
  1.4290919445701828  9.9307709914777451  1.4290918252576652
 -0.0150833587569212  8.5611509676649575  2.8731480220356622
  1.4450866267530571  9.9691437597955286  4.3064943101965287
 -0.0021289284247117  8.5439300275135217  5.7182336529215521
  1.4290919495924470  9.9735120250688301  7.1454595255127202
 -0.0139380538094290  8.5417075702256895  8.5606286387766115
  1.4130985972649019  9.9691448999114733  9.9844261927611644
  4.3064941929943359  1.4334320966542327  1.4450862334915857
  2.8119920399480285  0.0000000726591711  2.8119921328379096
  4.2881040987886907  1.4240273065085707  4.2880200358827789
  2.8665234268758653 -0.0001355154627079  5.7292965724686864
  4.2982792668534220  1.4351132551358099  7.1528881404445430
  2.8599374615373563  0.0000359317669967  8.5974611080606707
  4.3167302894886221  1.4405763608667159  9.9745275205952488
  2.8731482176850873  2.8414251741392542 -0.0150835738059228
  4.2948221944342109  4.2834867930216154  1.4261137256293879
  2.8507406018959660  2.8557387254932358  2.8508325746765633
  4.2956611804406553  4.2862529223547474  4.2955981849683820
  2.8721800112683886  2.8608319683851882  5.7303393644791329
  4.2971169616343188  4.2874143774122331  7.1447196304984848
  2.8602866375521971  2.8585438627445918  8.5726704889918182
  4.2943614257192415  4.2796899322303652  9.9967433578341005
  2.8610916153316071  5.7012881973140992 -0.0029077318131521
  4.2951475474466401  7.1192341871935865  1.4258239262387731
  2.8548055505395773  5.7012880423491081  2.8548055045233971
  4.2955982948566263  7.1163231788587602  4.2956611394800461
  2.8618459030039944  5.7012808306427507  5.7176099725202079
  4.2971914205375761  7.1151075969616597  7.1447643361155198
  2.8587015532604494  5.7012813893346070  8.5778464098422091
  4.2941761029209511  7.1228860634857680  9.9965580744844917
  2.8732672120027440  8.5611512516932091 -0.0149639999045898
  4.3065636907809299  9.9693548679679385  1.4454353083505691
  2.8508325636172600  8.5468373862147597  2.8507405743837957
  4.2880200928945360  9.9785487552037253  4.2881040807062858
  2.8721216664297256  8.5417077809672399  5.7302906185344495
  4.2986612889556870  9.9675927078518551  7.1527385635342471
  2.8603128208908664  8.5439297972323587  8.5726855976391985
  4.3163913854864147  9.9620001772594726  9.9741896330928128
  5.6934585015861154 -0.0000359110342057 -0.0017536330033066
  7.1454596686647598  1.4290640569214057  1.4290918828552663
  5.7292965067153290  0.0001354812058185  2.8665233599102979
  7.1527386434595490  1.4349833430339494  4.2986612720818478
  5.7139524985257779 -0.0000000440680065  5.7139525114183325
  7.1454597143003218  1.4404706901647450  7.1454597309302432
  5.7234145024000354  0.0000000593659501  8.5675051232745982
  7.1381808404304499  1.4349832984447481  9.9922581163522075
  5.7182337252227269  2.8586461235595952 -0.0021288855992927
  7.1454597121455885  4.2887325213235670  1.4290919705470471
  5.7302906635781952  2.8608683307376674  2.8721216985708322
  7.1447642679672949  4.2874684498173483  4.2971913387842289
  5.7190466987813489  2.8594451656525464  5.7191158207037649
  7.1454597108146194  4.2892826468228584  7.1454597131416859
  5.7322954535471657  2.8692076169594447  8.5586101293173122
  7.1461551208974097  4.2874684768589653  9.9937279920777620
  5.7130730319605716  5.7012948190747741 -0.0005176583304157
  7.1454597566986600  7.1137574315903285  1.4290917732010071
  5.7176098833695059  5.7012952658558476  2.8618457864119051
  7.1447196225840974  7.1151617665495834  4.2971168723298554
  5.7149643861936115  5.7012880745951424  5.7149643601264044
  7.1454597557289050  7.1132933518726054  7.1454597633637835
  5.7184480661335622  5.7012880334685390  8.5724714727999931
  7.1461999711122735  7.1151616848960995  9.9938026185045477
  5.7182490953733192  8.5440321804297277 -0.0021026758333924
  7.1454597375818993  9.9738354115772179  1.4290918824572696
  5.7303393252483232  8.5417441123278905  2.8721799255797289
  7.1528882479892237  9.9674628010448476  4.2982791855857059
  5.7191159474160740  8.5431309088794549  5.7190466415377310
  7.1454597672568951  9.9621054427316231  7.1454597041136285
  5.7323095353665234  8.5333683385302272  8.5586239489132492
  7.1380314040515360  9.9674629171274791  9.9926402282160591
  8.5616228753955959  0.0001352309194139 -0.0083396510227177
  9.9844265473632774  1.4334310002863875  1.4130987544512621
  8.5974608287898118 -0.0000359044236118  2.8599374067204839
  9.9741890829421198  1.4405765525132497  4.3163919040891958
  8.5675051185827193 -0.0000000909533676  5.7234143737842995
  9.9926402670967409  1.4351132350691651  7.1380312226592464
  8.5769669654813683  0.0000000077379783  8.5769669282888010
 10.0028154543883865  1.4240273073956398 10.0028992026469243
  8.5606286735600889  2.8608684923747587 -0.0139380159553268
  9.9960974536152900  4.2834869352656009  1.4320702238344778
  8.5726856452311662  2.8586462325731241  2.8603128712053998
  9.9965580758205697  4.2796899166927078  4.2941760655553622
  8.5586240498128241  2.8692076008014062  5.7323093537132017
  9.9938026922267635  4.2874143210190105  7.1461998931617208
  8.5718727701817929  2.8594452074530587  8.5718035099284702
  9.9952584562600482  4.2862529816020531  9.9953210625100954
  8.5733095999367510  5.7012954482180964 -0.0036619491423338
  9.9957719119830326  7.1192342958844801  1.4323598477056285
  8.5778464420000216  5.7012947645069323  2.8587015516026391
  9.9967433616450094  7.1228862994373126  4.2943613625450539
  8.5724714470826235  5.7012880789816984  5.7184479916776683
  9.9937279545500033  7.1151076217261613  7.1461550983732067
  8.5759550684802033  5.7012879803737802  8.5759550518468295
  9.9953210780095176  7.1163231542469054  9.9952583805508599
  8.5605802473615089  8.5417441835872978 -0.0139959152115942
  9.9843556113776568  9.9693548124039228  1.4127484338097811
  8.5726704903989290  8.5440322481707405  2.8602866605597104
  9.9745267165404812  9.9619988937750410  4.3167310365068063
  8.5586103124764499  8.5333686635361605  5.7322952580395432
  9.9922581674746933  9.9675928099872806  7.1381806509261461
  8.5718035802982104  8.5431309064398953  8.5718726655444719
 10.0028992378986743  9.9785488353234975 10.0028153548151479
  2.8739829305786215 -0.0000016138094554 -0.0158004962863008
 -0.0157983166719674  0.0000026164082321  2.8739805905402855
