Fe V 
 1.0000000000000000
    11.3821106218254133    0.0000000000000000    0.0000000000000000
     0.0000000000000000   11.3821106216869818    0.0000000000000000
     0.0000000000000000    0.0000000000000000   11.3821106217982582
 Fe  V  
 126   2
Cartesian
  0.0202219448108871 -0.0005201437949067 -0.0005623862166507
  1.4227638114598224  1.4227638313074407  1.4227638141387688
 -0.0005201415199665  0.0202219510263495  2.8460900133409712
  1.4363952411559648  1.4092239117921885  4.2722025057997026
  0.0023961686256944  0.0048164219347760  5.6875339450024702
  1.4226020119263270  1.4226020225527154  7.1138191299019171
  0.0048164258891391  0.0023961497616889  8.5401042901056812
  1.4092239164769937  1.4363951984275154  9.9554357750499154
 -0.0005623577152122  2.8460478111033680  0.0202219509165154
  1.4363037590546541  4.2722025381316362  1.4091324206040010
  1.4322071955737636  4.2847806282614940  4.2846873804384922
  0.0013762397600169  2.8441283061475988  5.6725874828022675
  1.4226980917566641  4.2698573246053195  7.1077793199048749
 -0.0042617659005822  2.8497580213789386  8.5315599549153713
  1.4227638547401324  4.2640503293435996  9.9635879539695615
  0.0024283142054017  5.6875575974715140  0.0048615602487814
  1.4229256378449129  7.1138191368171420  1.4229256267807444
  0.0013993453301930  5.6725874648818539  2.8441513968795937
  1.4225337301796050  7.1077707424411036  4.2700836334101249
  0.0026434841664706  5.6882813062460276  5.6883071185554934
  1.4227638333938091  7.1137692323420767  7.1138690565024856
 -0.0000872944029600  5.6885242513089160  8.5373453541149757
  1.4228295715744423  7.1198589847748552  9.9577809932682033
  0.0048615725246950  8.5400807217601074  0.0024283078307041
  1.4091324008372501  9.9554357548058547  1.4363037547497559
 -0.0042303589963549  8.5315599706691394  2.8497894133225614
  1.4227638513448428  9.9636433020698476  4.2639949487002111
 -0.0001044717218922  8.5373164518487954  5.6885619018566738
  1.4229939018858835  9.9575546276114952  7.1198675490751135
 -0.0049506073021534  8.5316443151846251  8.5316804074081194
  1.4133204978450664  9.9429509406455381  9.9428576689715538
  4.2722025026885362  1.4363037584934841  1.4363952433511009
  2.8460477969240743 -0.0005623631589651  2.8253057079502266
  4.2640503109452101  1.4227638214843121  4.2640503259555338
  2.8497580181800894 -0.0042617547356921  5.6960783123266898
  4.2698573018056045  1.4226980621817469  7.1198589492428059
  2.8441283364280316  0.0013762565088636  8.5550508182848457
  4.2847805802877952  1.4322071856754985  9.9429509085625565
  2.8460900385386334  2.8253057089784384 -0.0005201472265067
  4.2639949732138422  4.2639949968779973  1.4227638446883917
  2.8253057266224109  2.8460900443083070  2.8460478128658004
  4.2629077323245816  4.2703513522983902  4.2702688495232364
  2.8406661352039362  2.8430993371932622  5.6875576148743452
  4.2701929209062843  4.2701929113930506  7.1138191231157464
  2.8430993385321375  2.8406661322962967  8.5400807013252944
  4.2703513511274362  4.2629077656912377  9.9573694328030911
  2.8497894172900606  5.6960783179572321 -0.0042303277379063
  4.2700836018493167  7.1198675316582989  1.4225337482960925
  2.8407112495184732  5.6875339587825069  2.8431315035075957
  4.2701499488724526  7.1138191354369029  4.2701499602211852
  2.8504782898340810  5.6959578765590129  5.6959939886481763
  4.2681748789771827  7.1110108543900203  7.1109969124516788
  2.8456149793268350  5.6902929532019408  8.5391140340971088
  4.2663056030561064  7.1178297484809514  9.9612017541042110
  2.8441513876849305  8.5550508178431812  0.0013993480257407
  4.2846873885803394  9.9428576464175755  1.4322071976746136
  2.8431314841974902  8.5401043015746012  2.8407112490533373
  4.2702688720455022  9.9572869132712221  4.2629077432989515
  2.8456320941148370  8.5390763711842066  5.6903217963664696
  4.2664365244435158  9.9613326466960164  7.1178297445329335
  2.8428841594083547  8.5393311184737968  8.5393569589534568
  4.2774556592956143  9.9501826420455828  9.9501826355054845
  5.6725874793198505  0.0013993430380821  0.0013762522929615
  7.1138191341675778  1.4229256408744766  1.4226020198447078
  5.6875575820335555  0.0024283315669005  2.8406661087862126
  7.1198589700357529  1.4228295485890394  4.2698572893947890
  5.6885242353437970 -0.0000872918121113  5.6902929349327094
  7.1137692379386221  1.4227638152401434  7.1137692441634188
  5.6882812951916293  0.0026434833948706  8.5393311217742109
  7.1077707208104650  1.4225337422959292  9.9575546248457272
  5.6875339547588846  2.8407112375486969  0.0023961566840108
  7.1198675554729807  4.2700836531574389  1.4229939109988197
  5.6960783156693280  2.8497894324849673  2.8497580362957069
  7.1178297435207130  4.2663056131689618  4.2664364917269442
  5.6902929445412100  2.8456149402921387  5.6885242128204414
  7.1110108576602125  4.2681748725904205  7.1166413451665962
  5.6959578545471521  2.8504782939279476  8.5316443226761383
  7.1138191423589756  4.2701499471471953  9.9574883381787860
  5.6885619265803546  5.6903218290021620 -0.0001044614256691
  7.1138690396676125  7.1138690242163767  1.4227638274140606
  5.6903218099478456  5.6885619245060806  2.8456321084425800
  7.1109969035346525  7.1166274553165989  4.2681748818185810
  5.6881019506650148  5.6901334694623911  5.6901139545057164
  7.1138191308337975  7.1138191302789631  7.1138191554337808
  5.6901335067784302  5.6881019591558584  8.5375243053883896
  7.1166274214864202  7.1109969373250914  9.9594633826217489
  5.6883071346551324  8.5393569784732399  0.0026435061238046
  7.1077793278977541  9.9577809778769293  1.4226980981733430
  5.6959939993290076  8.5316803961427716  2.8504782692416453
  7.1138191299366342  9.9574453658412860  4.2701929247844186
  5.6901139737508304  8.5375047824848806  5.6881019692622621
  7.1166413432585101  9.9594633997506659  7.1110108474955336
  5.6946383454245435  8.5329999187798098  8.5329999303350750
  7.1098085533560038  9.9612017318808892  9.9613326703238663
  8.5315599561989259 -0.0042303763565389 -0.0042617552626502
  9.9554357638813613  1.4091324339038991  1.4092238944358906
  8.5400806918694894  0.0048615319902576  2.8430993190859408
  9.9429509186237794  1.4133204790849210  4.2847805979829019
  8.5316443205452774 -0.0049506268967894  5.6959578578889953
  9.9575546280926694  1.4229938793729857  7.1077707174148639
  8.5373164625958751 -0.0001044412475528  8.5390763625393866
  9.9636433280580388  1.4227638369557918  9.9636433171847347
  8.5401042939858964  2.8431314706120805  0.0048163937772053
  9.9428576631838226  4.2846873425598924  1.4133204903935064
  8.5550508017798421  2.8441513760426114  2.8441283493234004
  9.9501826521235230  4.2774556206381487  4.2774556627439084
  8.5393311412268460  2.8428841894205972  5.6882813090647293
  9.9613326612854909  4.2664365254580767  7.1098085563595914
  8.5390763635043925  2.8456321061865704  8.5373164807643889
  9.9572868679161335  4.2702688256629893  9.9647305249673828
  8.5316804297518622  5.6959939800116679 -0.0049506034304277
  9.9577810216054274  7.1077792925751728  1.4228295574657488
  8.5393569648717325  5.6883071412381252  2.8428841705556809
  9.9612017354155817  7.1098085301826250  4.2663056054578608
  8.5329999079804040  5.6946383538623371  5.6946383165783914
  9.9594633869504143  7.1166413400397390  7.1166274285888873
  8.5375047553740817  5.6901139570252139  8.5395363172970917
  9.9574453502552487  7.1138191324661886  9.9574453453896563
  8.5373453324362050  8.5391140175160949 -0.0000872954166824
  9.9635879579600299  9.9635879552057904  1.4227638556930060
  8.5391140349953343  8.5373453184254142  2.8456149354870766
  9.9573694343923655  9.9647305365946490  4.2703513902455645
  8.5375243080519834  8.5395362938620512  5.6901334943542903
  9.9574883446859754  9.9574883440224990  7.1138191145364775
  8.5395363022260167  8.5375243126994338  8.5375047663417973
  9.9647305070171939  9.9573694353070739  9.9572868881287704
  2.8542078763678718 -0.0086802084300384 -0.0086802432844381
 -0.0086802362743312  2.8542078647231999  2.8542078645871389
