Fe Au
 1.0000000000000000
    11.4217502017458905    0.0000000000000000    0.0000000000000000
     0.0000000000000000   11.4021516573196333    0.0000000000000000
     0.0000000000000000    0.0000000000000000   11.4217502094214964
 Fe  Au 
 126   1
Cartesian
 -0.0002950141929968  0.0126457427409413  0.0000131476853726
  1.3969670019790157  1.4855201527314119  1.4584771335836739
 -0.0187210055963871  0.0069771758693904  2.8740466125158766
  1.4100943604382246  1.4329852584875549  4.2937116106280859
 -0.0140474437818085 -0.0025840541246144  5.7108526476433328
  1.4100121752705994  1.4328430363814737  7.1279290510404048
 -0.0186090471072714  0.0069771668059342  8.5475919605161810
  1.3969604025661391  1.4855201643389999  9.9632790258873225
 -0.0623943871047119  2.8640483775425927 -0.0000868432721222
  1.4673001455588430  4.2223506797427897  1.3879521520754949
 -0.0258519511835585  2.8869086444275109  2.8813409650787918
  1.4183137308493965  4.2894097099942972  4.2933696231380072
 -0.0092515603023434  2.8696568501983535  5.7108473651736382
  1.4182302208441437  4.2894224587965937  7.1284783401408518
 -0.0259031123781413  2.8869085911713319  8.5404609188584413
  1.4674851335252739  4.2223500753364309 10.0336123021559391
  0.0072357258225181  5.6871327025271379  0.0000621221128799
  1.4165865498935111  7.1316041497331462  1.4390912652167547
  0.0042053757270548  5.6865444611544733  2.8512536680976339
  1.4233017567572517  7.1164366645963213  4.2919458827199399
  0.0078970644088151  5.7010499965815518  5.7108464490321822
  1.4233251426232951  7.1163742503363165  7.1296303549220204
  0.0041835794417440  5.6865445802676353  8.5705179745647708
  1.4163464667753047  7.1316043381621359  9.9828992244543251
 -0.0039416117888194  8.5428569581483291 -0.0000135418809178
  1.3823659042052883  9.9375478158859583  1.4728336129322874
 -0.0290371499183112  8.5254572341942172  2.8844313194300129
  1.4184396844448814  9.9669220339925140  4.2851468368198669
 -0.0080209668861758  8.5356842179722463  5.7107939892393986
  1.4185800074779313  9.9667466674766576  7.1364856326326462
 -0.0289938362439528  8.5254570350288432  8.5372754477380095
  1.3826035419461922  9.9375477415333435  9.9486783170269160
  4.3139142672197979  1.4855201690727753  1.4584707762975933
  2.8554506221509808  0.0126462762843895  2.8557326972413706
  4.3008631006485540  1.4328428130779927  4.2938212075881825
  2.8554376805083796  0.0045996481534083  5.7108748954889395
  4.3007805789429128  1.4329852207962912  7.1280384136881265
  2.8554239713663723  0.0126461122132200  8.5660176427201851
  4.3139084793587514  1.4855202212370002  9.9632732170531213
  4.2433894790336426  4.2223505661027296  1.3881376825296814
  2.8553512207222487  2.8640483977243427  2.9178319096727496
  4.2926444425185197  4.2894226496183068  4.2932723013541665
  2.8554374721007201  2.8648271889459358  5.7108753042416911
  4.2925612370430208  4.2894099061615378  7.1283807471715201
  2.8555241028741927  2.8640486085129813  8.5039185495802130
  4.2435755013545347  4.2223503467588648 10.0337979156015837
  2.8554378702872030  5.7531274247504598  0.0000004673357950
  4.2945282673941341  7.1316042253783900  1.4388510285079135
  2.8555000695110104  5.6871326819642150  2.8482016428779908
  4.2875497872289596  7.1163744153218582  4.2921192759890472
  2.8554374575514538  5.6952364428300939  5.7108749845830529
  4.2875739613771602  7.1164366366548908  7.1298041067575610
  2.8553752546908213  5.6871323626601633  8.5735485749736231
  4.2942887175471620  7.1316043778231029  9.9826593157234438
  2.8554375670255880  8.5911052464836413 -0.0000002231147231
  4.3282711675555330  9.9375479355072667  1.4730715765426470
  2.8554241270035168  8.5428568233839393  2.8593790382969244
  4.2922953509426511  9.9667466131702689  4.2852648911551210
  2.8554375172595412  8.5409327922677587  5.7108749282779305
  4.2924357482754347  9.9669218121809564  7.1366035503460639
  2.8554508119826174  8.5428569220349733  8.5623714647689191
  4.3285096513133778  9.9375475618536342  9.9489161369386974
  5.7111704908345917  0.0126460957322827 -0.0000137084131491
  7.1491494716869273  1.4329853404049560  1.4453429828436697
  5.7294842161095136  0.0069771441957648  2.8741587489979015
  7.1540364893421824  1.4372733619022646  4.2986525641179387
  5.7249227000950524 -0.0025842178904961  5.7108975393234802
  7.1540904568402759  1.4372732018696446  7.1231511963325556
  5.7295961595432363  0.0069768874945647  8.5477037828003581
  7.1492586844237929  1.4328427798504320  9.9763248852385864
  5.7732695722925857  2.8640482434156844  0.0000867181969559
  7.1488072600681756  4.2894097864217047  1.4371240331184558
  5.7367781325971441  2.8869083499522223  2.8812896489824360
  7.1535860910692559  4.2986047451560534  4.2981056964599409
  5.7201269085517215  2.8696567454776418  5.7109029409661280
  7.1535435331872561  4.2986048271597239  7.1236021465015229
  5.7367269690818778  2.8869086784609088  8.5404094388934713
  7.1487098276649510  4.2894227831726575  9.9845427273645075
  5.7036392903577440  5.6871329254590401 -0.0000622293548634
  7.1473838548881830  7.1164365487934065  1.4321358245506084
  5.7066916328234587  5.6865446332817946  2.8512321952867734
  7.1456497765611644  7.1040258914314744  4.2902297536378882
  5.7029775865634473  5.7010497217487135  5.7109038518801771
  7.1456676639417394  7.1040258579415436  7.1315380452669723
  5.7066697676482123  5.6865447460351399  8.5704963812536814
  7.1475571924008614  7.1163745083722434  9.9896378561658512
  5.7148166406507173  8.5428570506370907  0.0000133409812200
  7.1405845983420058  9.9669218830742210  1.4369980689881547
  5.7398687309455383  8.5254568774977297  2.8844749405286483
  7.1504490833726431  9.9659858627100881  4.2950349910330559
  5.7188963182559922  8.5356841585027912  5.7109564797514674
  7.1504721150880428  9.9659855929724621  7.1267387854594668
  5.7399123689106917  8.5254570270468104  8.5373187996642539
  7.1407018724425866  9.9667470308784338  9.9848923909966150
  8.5663125815338717  0.0045997669513341  0.0000000578435393
  9.9833665309356014  1.4328426374676091  1.4454254964869402
  8.5662900688879038 -0.0025839722401467  2.8694853137466327
  9.9785353063342725  1.4372737168160732  4.2985989506965003
  8.5663125524316968  0.0005623781272966  5.7108750727051172
  9.9785887884290414  1.4372734653545081  7.1230978441954633
  8.5663353734776742 -0.0025839532604181  8.5522652741524858
  9.9834762538677104  1.4329854414482801  9.9764070565620653
  8.5663126662981579  2.8648272797914824 -0.0000000403559625
  9.9839156071736355  4.2894224996141475  1.4372073742869700
  8.5662850855548260  2.8696568025276914  2.8646892134570181
  9.9790815734771012  4.2986045238571622  4.2981481649506419
  8.5663125397083952  2.8603649818047803  5.7108749434655222
  9.9790395356623982  4.2986045815650975  7.1236442660550896
  8.5663403874798831  2.8696571583807526  8.5570610027779139
  9.9838184204090190  4.2894100408211253  9.9846264216921892
  8.5663127141411106  5.6952362740404761 -0.0000001726316641
  9.9850682495667069  7.1163743769241483  1.4321125676297910
  8.5662838611118026  5.7010498695534935  2.8475402168782105
  9.9869577923977033  7.1040256565051187  4.2902122148417670
  8.5663127530849685  5.7036768433366998  5.7108748923765047
  9.9869757134537469  7.1040256018378809  7.1315199611023399
  8.5663411252976260  5.7010495683507747  8.5742098976717731
  9.9852415848930463  7.1164367492910223  9.9896141628708186
  8.5663124815530640  8.5409325145974151  0.0000001473335788
  9.9919230875664997  9.9667466796554844  1.4368578403900321
  8.5662314317396344  8.5356840013473221  2.8634584386851483
  9.9821530526053621  9.9659859113106766  4.2950112220236072
  8.5663125076500481  8.5404719677418512  5.7108750107118258
  9.9821765299978793  9.9659857606170075  7.1267151582366450
  8.5663938462739200  8.5356840201188469  8.5582916103861741
  9.9920409381663209  9.9669217961236907  9.9847520710165192
  2.8554378817457389 -0.0322691788038289  0.0000004958319377
