Fe Ag
 1.0000000000000000
    11.4331318768546062    0.0000000000000000    0.0000000000000000
     0.0000000000000000   11.4317170372734846    0.0000000000000000
     0.0000000000000000    0.0000000000000000   11.4331318719135542
 Fe  Ag 
 126   2
Cartesian
 -0.0123934589217106 -0.0025878435621561 -0.0040937976759670
  1.3996043336932229  1.4672341920155423  1.4587140996202204
 -0.0429499046492512  0.0018282744782571  2.9012075316708881
  1.4196795189133333  1.4115551137968980  4.3228891006456411
 -0.0195277775151602 -0.0149583522592257  5.7261791461370306
  1.4160856679092046  1.4271918638396652  7.1386048365199430
 -0.0426150653081445 -0.0180791691408960  8.5257874576251798
  1.3803673622744506  1.4299501245789725  9.9231045709905992
 -0.0808857110450929  2.8569436600385814 -0.0487742410802756
 -0.0701904745629112  2.8388114623705727  2.9282375926652162
  1.4247159255009019  4.2955277851441975  4.3009690623049437
 -0.0184376401690712  2.8582040683376562  5.7140288116235007
  1.4190543878403499  4.2990537409929823  7.1331692029949476
 -0.0400611484265929  2.8768131253714091  8.5448112083591941
  1.4250476365604348  4.2894816319372540  9.9915970664608977
 -0.0417698685007769  5.7402868219532843 -0.0361013928079791
  1.4265924088956148  7.1511056729135802  1.4317093030209589
 -0.0444195327466157  5.7498157114236212  2.9025920553331841
  1.4222480043033270  7.1584925699425641  4.3270214471852055
 -0.0072728355765714  5.7255524322890565  5.7120015672354336
  1.4218497568288115  7.1407800273149586  7.1336255044685402
 -0.0193537053171688  5.7253778045586543  8.5672123607785089
  1.4174496130031340  7.1730333651631701  9.9660778732315070
 -0.0379123974803659  8.5455775041170483 -0.0116918325530279
  1.3944456657823505  9.9839849790997395  1.4640528837425908
 -0.0344783483795763  8.5455181629144654  2.8928951495916824
  1.4210692137327536  9.9961975765864892  4.2977711717621556
 -0.0124129616804969  8.5795665413432634  5.7293909640191751
  1.4198609281010552  9.9957511203238205  7.1473783475151826
 -0.0329407009532192  8.5622243073377557  8.5355722069749085
  1.3930399338552522  9.9783239259254639  9.9622203703102663
  4.3686137137814836  1.4298756924758307  1.4779680299801499
  2.8622927391961532 -0.0025282018526727  2.8704737151087643
  4.3274618517389483  1.4100848249560596  4.3173799767441210
  2.8682811030860935 -0.0121366469938778  5.7291041134223466
  4.3058095565085939  1.4286290921308069  7.1482249424815301
  2.8624806200969983 -0.0087025823005969  8.5612561335982882
  4.3573792409451251  1.4480824762994755  9.9337998837287458
  2.8878556324328066  2.8196597103617780 -0.0295373199919014
  4.2996148645003478  4.2894218347364443  1.4331512530277744
  2.9071094877458301  2.8570183092286152  2.9394720801187821
  4.3301043262448751  4.3050649785255972  4.3363992679702150
  2.8712670216866032  2.8597630812680186  5.7237240213890592
  4.3069620811684031  4.3017892731266496  7.1360017415917518
  2.8679539999288406  2.8754763242596533  8.5393942857694274
  4.3303490270452221  4.2850654664632435  9.9610405527608066
  2.8931943654492627  5.7346256751059732 -0.0346958240199495
  4.3253819398195272  7.1731853628870432  1.4409061602949302
  2.8944911508744502  5.7403743817151138  2.9001238368197404
  4.3205075721520707  7.1564349004020738  4.3268056123157592
  2.8675772639125285  5.7228085976997232  5.7148364845661686
  4.2998480691920449  7.1390348601728064  7.1328712638876697
  2.8663483887800423  5.7224763059837658  8.5644725344344810
  4.3220368093039401  7.1730928849266435  9.9695119275413546
  2.8608506533536802  8.5675054473903618 -0.0025488234432072
  4.3292655863515304  9.9782366906671260  1.4653499374511532
  2.8700476410514919  8.5454255284388214  2.8962403632570233
  4.3067129431656994  9.9933466760545624  4.2950644370810238
  2.8656230100908169  8.5778104899476251  5.7285989926295846
  4.2946399054962869  9.9931003078183895  7.1503119559088715
  2.8652015561028237  8.5600842670045427  8.5352552958172971
  4.3317336656461523  9.9687952619203237  9.9595710011181247
  5.7301103903078188 -0.0086337294847317 -0.0044254108954714
  7.1528656192576419  1.4271305477761627  1.4421253870690480
  5.7655407164736703 -0.0181712174626648  2.9009626814631315
  7.1610881612674824  1.4295274528187276  4.3082522667572212
  5.7396320266530978 -0.0136967045650768  5.7259534331689119
  7.1605832698362049  1.4363207556342521  7.1308500352083728
  5.7599774584993169 -0.0159172130215116  8.5314861994914981
  7.1431701671715926  1.4286899894549954  9.9855527346100850
  5.7520305962438512  2.8753387040041236 -0.0094620119822632
  7.1582453106056372  4.2990305583919319  1.4391397663513534
  5.7465212986518219  2.8768091982261872  2.8983204558872635
  7.1550948462283301  4.3005905720282840  4.3104907020365211
  5.7373938945764342  2.8573665076779386  5.7319465123864939
  7.1579460479198591  4.3020474382645215  7.1334238099518474
  5.7594061419146279  2.8773973730871076  8.5320338865742631
  7.1553205184778275  4.3018520641918983  9.9844627459079494
  5.7269128283592670  5.7224134787709868 -0.0080721706457445
  7.1577404695251463  7.1408006442584755  1.4364815408643343
  5.7242058596185368  5.7252642480638869  2.8775714249270572
  7.1565740702845053  7.1404640088185145  4.3057537066263505
  5.7296587397382579  5.7268279893440512  5.7318346220466623
  7.1587703029607530  7.1343717679341143  7.1326141974712725
  5.7396579667563437  5.7282099783581035  8.5517500313280639
  7.1585322898220491  7.1390444049254631  9.9915773734564421
  5.7561627735738448  8.5601185122727497 -0.0068934710097407
  7.1439778275581292  9.9958022050793680  1.4384358083971711
  5.7559471822658193  8.5621758032195707  2.8913661126207879
  7.1609762041713365  9.9917826236126910  4.3005173168203328
  5.7348953466100463  8.5781471266950433  5.7274326234878696
  7.1590565521478293  9.9916741713755552  7.1322999941390473
  5.7527596688067861  8.5561130775863674  8.5386347511608083
  7.1411432037259344  9.9930585484307759  9.9967175887092967
  8.5623107894603017 -0.0121597647934358 -0.0100871159499882
  9.9685356051880731  1.4114177065705042  1.4388124942758000
  8.5651433344944401 -0.0148956031101961  2.8778206136972408
  9.9611753068441562  1.4094962951434789  4.3302646800170903
  8.5625653880649644 -0.0151532943013339  5.7288046320488837
  9.9831653215316187  1.4294870839643505  7.1303578905024931
  8.5654663064573739 -0.0136818941598401  8.5517583042128873
  9.9739528340522750  1.4100807572575969  9.9639293624702798
  8.5677463723459422  2.8597021565142384 -0.0130556988593067
  9.9903977403217326  4.2955963352878603  1.4333393172139566
  8.5773663901673363  2.8582646293971461  2.8766680880752342
  9.9606277231927702  4.3028109984607008  4.3308360931743461
  8.5599913461891806  2.8505730342742917  5.7314417413973473
  9.9808998848241686  4.3005757614683864  7.1363249158074460
  8.5594994838513951  2.8574069520951926  8.5540239599094505
  9.9549288116739856  4.3049730046839763  9.9613752675869183
  8.5765197443297030  5.7228597506734733 -0.0092807108802185
  9.9643969242698098  7.1585264412165719  1.4360603972125068
  8.5794536381369344  5.7255108545094844  2.8654986838426346
  9.9677761589445275  7.1624979386232388  4.3236182560362604
  8.5614414623001647  5.7269368226252624  5.7299150032607837
  9.9856653781824747  7.1405119265539918  7.1348268399232015
  8.5596248999057973  5.7268835233035356  8.5617227096401685
  9.9647135070985424  7.1563866028605370  9.9710496989443129
  8.5627671125512226  8.5778307940614091 -0.0072918621093753
  9.9936140823850490  9.9961345716945988  1.4372069258200366
  8.5620128127493516  8.5795763032565873  2.8707065699102858
  9.9808913601363898  9.9904009420643742  4.3105162953865221
  8.5617557636423047  8.5842388812379014  5.7296286344928058
  9.9908643098354393  9.9917274938179101  7.1304833975071258
  8.5639685092844484  8.5780991067473753  8.5565238927070784
  9.9963538502941311  9.9932331783029564  9.9846367566721206
  2.8832817482294315  0.0039360054637368 -0.0250134123038375
  1.4041284035001302  4.2829578248984239  1.4541402865431294
