Fe Nb
 1.0000000000000000
    11.3948492368439105    0.0000000000000000    0.0000000000000000
     0.0000000000000000   11.4078919404134460    0.0000000000000000
     0.0000000000000000    0.0000000000000000   11.3948492318642280
 Fe  Nb 
 126   2
Cartesian
 -0.0038731278478546 -0.0000001323592963 -0.0038729832863800
  1.4243561032587047  1.7871344494649080  1.4243563143874132
  1.4900028600341089  1.4990835600265493  4.2854675977922616
  0.0224970447854660 -0.0000161238353716  5.6789591136791451
  1.4243561619528227  1.4370561036564253  7.1217806944899387
  0.0287962754003902 -0.0001338914054102  8.5631482191719979
  1.3587095249999246  1.4990834637513455  9.9580938808081676
 -0.0075620675034729  2.8758329337766164 -0.0080403507778749
  1.4243560719518180  4.2386997777909867  1.4243562764656350
 -0.0277671775675184  2.9246199610563801  2.8765980174228676
  1.4313344876830909  4.2791886023652257  4.2870631005160780
 -0.0073393358450536  2.8453989817608707  5.6853106637868827
  1.4243560838034015  4.2733729067557196  7.1217807420014285
 -0.0262989361323999  2.8678689550073719  8.5354062253940555
  1.4173779339347468  4.2791886508106511  9.9564984769285498
 -0.0005155630716246  5.7039459655866622 -0.0005156155899840
  1.4243561054037537  7.1691920110745446  1.4243562490679746
 -0.0070157373186534  5.7039457995886087  2.8557279305759127
  1.4318533236465594  7.1286845211855336  4.2868277849131040
 -0.0032191156400862  5.7040841094840200  5.7062573837441164
  1.4243561965426708  7.1346136139837428  7.1217808619578102
 -0.0142075443313709  5.7039818784810867  8.5280120543179674
  1.4168589819919046  7.1286845340684160  9.9567338264231431
 -0.0080405393937344  8.5320590473193576 -0.0075618811104149
  1.4243560332111815  9.6207577362430889  1.4243560495717884
 -0.0278856605322448  8.4832718520169852  2.8764792516177313
  1.4897143485833646  9.9085613405372506  4.2853015191450865
 -0.0073847886306468  8.5625243672593001  5.6853100431309294
  1.4243561937168168  9.9701832675620690  7.1217807316529580
 -0.0264635661092625  8.5399577625643701  8.5355884036863863
  1.3589980608608832  9.9085613253371339  9.9582598065085222
  4.2853014737452915  1.4993304709722197  1.4897144655460903
  2.8525854382342186 -0.0000002053655087  2.8525851959407182
  4.2427092275061371  1.4143127858150009  4.2428448951427340
  2.8199161983762235 -0.0001338853323276  5.6804133444500327
  4.2658826200631665  1.4177331572093181  7.1205625511926671
  2.8262153092694824 -0.0000161856705569  8.5646024260972098
  4.2937539478818065  1.4538191707316499  9.9499111350832177
  2.8764791809248820  2.9246199726616444 -0.0278856168760983
  4.2868277901317722  4.2792074647766221  1.4318535707546396
  2.8562742079590535  2.8758329617974483  2.8567527074678609
  4.2854752548989508  4.2885597801833608  4.2855566939770195
  2.8750113139964144  2.8678688799402945  5.7081555289758468
  4.2886070728764114  4.2780346532004696  7.1299793625016727
  2.8560517278495978  2.8453990243203542  8.5582508923104736
  4.2964580517289503  4.2909063491118866  9.9471046637979139
  2.8557278669393842  5.7039458780251682 -0.0070155335754689
  4.2870632120613701  7.1287030127281694  1.4313344695850749
  2.8492280007134703  5.7039459019079635  2.8492278368839368
  4.2855567477862477  7.1193319331789535  4.2854751907872011
  2.8629198002239193  5.7039818962630138  5.7155493814059746
  4.2886789319928758  7.1299011701154082  7.1298281066061264
  2.8519315966180860  5.7040840406579933  8.5373041879953124
  4.2964570920271230  7.1169856864399481  9.9471035306291498
  2.8765981778959158  8.4832719244902162 -0.0277669374615783
  4.2854676723676315  9.9088086127293753  1.4900028289304073
  2.8567526854215393  8.5320589901104533  2.8562741413060935
  4.2428448357491133  9.9935791163306877  4.2427092119756056
  2.8751759221296864  8.5399577560172713  5.7079730295942435
  4.2660825097209827  9.9903640350864773  7.1204515672688231
  2.8560970937251255  8.5625243319238145  8.5582514629961075
  4.2936505977065833  9.9540728126216376  9.9498076467430110
  5.6789590605877933  0.0000159565950614  0.0224971596021278
  7.1217808215867011  1.4377087096424115  1.4243562209194101
  5.6804133321963075  0.0001337639578151  2.8199163128258489
  7.1204517874918682  1.4175278057137968  4.2660825896192600
  5.6864675823762267 -0.0000000799525936  5.6864675407250491
  7.1217807499140244  1.4120504454015848  7.1217807331384115
  5.6761020910891347  0.0000000048237477  8.5674593656712172
  7.1231099868212642  1.4175281637361463  9.9774788731279926
  5.6853100768349512  2.8453675663080515 -0.0073850054500314
  7.1217809330868818  4.2732783150019600  1.4243562240753915
  5.7079732860492474  2.8679344136159868  2.8751758500170981
  7.1298281267770118  4.2779905381218857  4.2886788826989308
  5.6996364864045006  2.8478674778527422  5.6997392022664366
  7.1217805722583334  4.2638858131925543  7.1217807444230701
  5.7104769184826569  2.8463619353246163  8.5331354216970201
  7.1137332292966846  4.2779908014467951  9.9548827090179994
  5.7062573331346345  5.7038078276237840 -0.0032191988405378
  7.1217807936228219  7.1345188568350633  1.4243561193660934
  5.7155494185338274  5.7039097934434340  2.8629197028676914
  7.1299791231566854  7.1298571888892104  4.2886072771662986
  5.7138394040718214  5.7039459116527089  5.7138394176468967
  7.1217807694026689  7.1440063841429682  7.1217807642844519
  5.7197369233105642  5.7039459337381135  8.5238245618716899
  7.1135824191702941  7.1298571710061971  9.9549542209920556
  5.6853103390126174  8.5624928676244014 -0.0073394905389473
  7.1217807825248984  9.9708356407899821  1.4243562207563794
  5.7081556116911427  8.5400230343728811  2.8750114528557180
  7.1205626097439101  9.9901587399334311  4.2658824792545298
  5.6997390324574413  8.5600246556451420  5.6996364438239846
  7.1217808600191637  9.9958414772731032  7.1217807863337459
  5.7104259767107939  8.5615301448921137  8.5330845359008034
  7.1229989005518624  9.9901586836110177  9.9776789851717229
  8.5631480962124229  0.0001339033158006  0.0287962248944501
  9.9582599884529763  1.4993304778723329  1.3589977376781717
  8.5646025565754940  0.0000160939422048  2.8262153178884866
  9.9498074736150048  1.4538193872365275  4.2936507483392159
  8.5674595097049693 -0.0000000353559402  5.6761024255584918
  9.9776788379106769  1.4177332944866914  7.1229988804726752
  8.5570939402817565  0.0000001177174625  8.5570938264360219
 10.0008524190098100  1.4143127748716267 10.0007168521363567
  8.5355884435799769  2.8679339576190954 -0.0264637165252546
  9.9567338095782993  4.2792073195891689  1.4168588896104923
  8.5582515673373365  2.8453675939242489  2.8560970987937204
  9.9471036090487210  4.2909061340168773  4.2964570573158207
  8.5330848317761241  2.8463618852818908  5.7104258633627749
  9.9549544036141739  4.2780345844319818  7.1135823111411112
  8.5439249623211087  2.8478672825121483  8.5438226499370717
  9.9580862485593435  4.2885599590771317  9.9580046300005129
  8.5280119123852067  5.7039098342190000 -0.0142076763780252
  9.9564983455415490  7.1287033180728461  1.4173780043091100
  8.5373041271120229  5.7038078818082258  2.8519313241553701
  9.9471044911843354  7.1169859137273885  4.2964580690011571
  8.5238244915948354  5.7039459376334092  5.7197369139251428
  9.9548826935381918  7.1299012394248749  7.1137335094873899
  8.5297219228380712  5.7039458966335737  8.5297221391547886
  9.9580047463410093  7.1193321173832995  9.9580862182316512
  8.5354059547126617  8.5400230561613615 -0.0262988859748067
  9.9580937866793153  9.9088082453113770  1.3587093573997295
  8.5582510208633771  8.5624928329905998  2.8560517986531946
  9.9499108706608990  9.9540724517818351  4.2937539438789329
  8.5331355536896147  8.5615301349752144  5.7104769913438167
  9.9774790090523275  9.9903639282473105  7.1231099452192206
  8.5438224549613171  8.5600244605203706  8.5439250846139245
 10.0007169592258460  9.9935792171080848 10.0008524151316820
  2.6705903204355081 -0.0000000929019454  0.1781219612444087
  0.1781218427228964 -0.0000000424107176  2.6705905653005937
