Fe Ta
 1.0000000000000000
    11.3793614464455146    0.0000000000000000    0.0000000000000000
     0.0000000000000000   11.3779808502436524    0.0000000000000000
     0.0000000000000000    0.0000000000000000   11.3793614449940179
 Fe  Ta 
 126   1
Cartesian
 -0.0062951903710365  0.0000822743205928 -0.0453280932309945
  1.3066510626951771  1.3964083638059086  1.5379092900480091
  1.3779000488427151  1.3615788752964746  4.2016804778816059
 -0.0007058996183851 -0.0000619301615355  5.7408875388031024
  1.4263810568618818  1.4237555131379960  7.1264564047775867
  0.0147201404364872  0.0000716199132242  8.5509431089799488
  1.3632028261956324  1.4852014939487119  9.8890228534604177
  0.0136460302864199  2.8117275644023030  0.0138886478858629
  1.4253473693297316  4.2532687618657006  1.4193890601517885
 -0.0265874116479723  2.9122572468364778  2.8714498688022596
  1.4280701975736536  4.2650454695939306  4.2686209575100280
 -0.0041053257546619  2.8326992610990911  5.6764104236249722
  1.4223914087336131  4.2642303878235879  7.1130363099738663
 -0.0161422649641506  2.8530202764740777  8.5181034750032918
  1.4209812005309290  4.2570604867616817  9.9594750767926268
  0.0004045957907373  5.6889958182110592  0.0133504037573522
  1.4254512506596835  7.1247119814768265  1.4194929138301715
 -0.0047424043339271  5.6889904196839343  2.8495827583754814
  1.4282066259185169  7.1129979198993949  4.2684081195931896
  0.0049926485092002  5.6890680066048533  5.6802239041391074
  1.4223734830469374  7.1137944038556560  7.1130855861918505
 -0.0050171110354739  5.6890289292265077  8.5310530093834327
  1.4209040275011720  7.1209342633601125  9.9595738228419091
  0.0136410301868765  8.5659739985327370  0.0138713470969237
  1.3069310183701728  9.9815725036106535  1.5381893500403729
 -0.0266095338687876  8.4657236412282888  2.8714277947315789
  1.3777550378715337 10.0163318911711556  4.2020651229916544
 -0.0042239891065053  8.5451633602810180  5.6765383919887897
  1.4263804036337238  9.9538831543705300  7.1265035219584600
 -0.0163428306735231  8.5249573778631493  8.5182412187590479
  1.3630415058035676  9.8929598098103675  9.8889949667589203
  4.3352068265431578  1.4850210244748094  1.4817988350143936
  2.8901684816425379 -0.0000822209503764  2.8511355405752425
  4.2718813657976318  1.4230005296053909  4.2619971858985553
  2.8316456754442716 -0.0000735635953703  5.6820332055344638
  4.2687138161407541  1.4227403046122520  7.1193153764947654
  2.8443895545105442 -0.0000652361407127  8.5191497181130540
  4.3322409369809263  1.4929210379132729  9.8919487219539963
  2.8256417995995333  2.8281935272649981  0.0191995335331416
  4.2646279770218394  4.2570466685122303  1.4239363476884952
  2.8309690027615209  2.8120068981549444  2.8311993268135405
  4.2630436003642087  4.2632719796925311  4.2634554458498348
  2.8241894985167018  2.8252219370874458  5.6734065487516645
  4.2563807996472462  4.2598071137367137  7.1063455949616721
  2.8432604846906995  2.8281363945760813  8.5517808920800000
  4.2565700751421884  4.2535781494608340  9.9677604015734858
  2.8357964569796592  5.6889904018329327  0.0090439508636538
  4.2647267598428877  7.1209203874645652  1.4238592244738428
  2.8314900587315504  5.6889849788453519  2.8444357093915928
  4.2630996236312866  7.1148250932210404  4.2634405404187161
  2.8389631482809352  5.6890766929463208  5.6840114744949046
  4.2564131670562970  7.1182008286515757  7.1064051402973281
  2.8398026114070167  5.6890029269598985  8.5355319547789872
  4.2564414450661374  7.1244027241882559  9.9676317808480306
  2.8256409004889713  8.5497872938935267  0.0191985323679007
  4.3351789791232012  9.8927793318975041  1.4816375523137730
  2.8309517698474305  8.5662532868037733  2.8311943179383063
  4.2720417087716624  9.9547404927225625  4.2622071622276323
  2.8242417835823077  8.5527268603639062  5.6735449485514753
  4.2688493588543110  9.9553309147253142  7.1193525172698342
  2.8431737153325716  8.5499703716695503  8.5519045343637057
  4.3322529655944555  9.8850598790549462  9.8919609538025650
  5.7050521468152571  0.0000652565776191  0.0004508238500389
  7.0976983262310371  1.4240976729596160  1.4184600082642265
  5.6732586926592541 -0.0000716632356370  2.8301202263468812
  7.1047578843203123  1.4227569390151953  4.2703524251717742
  5.6895030680739973  0.0000030408926581  5.6828197466291099
  7.1106723642665619  1.4211485159430932  7.1136182205848142
  5.6744773212444919 -0.0000000026518231  8.5497245101449089
  7.1048491423899618  1.4226499117497606  9.9553525407347951
  5.6722972119144925  2.8280104757697218  0.0016666161797232
  7.1111161952453639  4.2641864759482635  1.4224668246205763
  5.7059606225754145  2.8530234521759694  2.8611831867425388
  7.1207771044207400  4.2720100237542775  4.2720457434129795
  5.6930656825120796  2.8482868217297947  5.6867138458113446
  7.1273433760750260  4.2670300401383559  7.0968000148476804
  5.7077964783860731  2.8653150978861035  8.5163170662214114
  7.1177966657227527  4.2597800239442121  9.9677886199933212
  5.6886698141374499  5.6889779338402828  0.0050378119331355
  7.1111654023672779  7.1137504038025954  1.4224488970588858
  5.6931488457249921  5.6889520236751334  2.8498574941880945
  7.1208157808112755  7.1059659979240690  4.2720015393264790
  5.6851732462909981  5.6890207767346723  5.6855969271291418
  7.1274017820783930  7.1109509235539097  7.0968582783340244
  5.6933037637747965  5.6889903871730869  8.5308980509628416
  7.1178563544152231  7.1181738140138471  9.9678210515876877
  5.6724209031663611  8.5498444692759783  0.0015798621600687
  7.0977454132153648  9.9542252731928240  1.4184592646959282
  5.7060983247719248  8.5249605790131362  2.8609825684439314
  7.1048046723760301  9.9551707700734493  4.2701944866540726
  5.6931708269925405  8.5295956656655623  5.6867625477193124
  7.1105835940517581  9.9568323947146951  7.1135295233408549
  5.7078847407503988  8.5126657229465241  8.5164052233522280
  7.1048864698688563  9.9552404717317895  9.9554879463458299
  8.5421686156653180  0.0000735755993515  0.0131947003927739
 10.0221366917674732  1.3616490484032768  1.4670853492885096
  8.4833142309484604  0.0000618524411425  2.8455462651422607
 10.0089522796766790  1.3633415085788978  4.2152175321500334
  8.5457227087956991  0.0000000068197948  5.6784791351511315
  9.9540073008566985  1.4228100757253734  7.1193971091364796
  8.5413820911773453 -0.0000030599424939  8.5346987283061377
  9.9619947050810786  1.4232402588484099  9.9521602061428460
  8.5506568894894919  2.8252540623515476  0.0205985963438683
  9.9557936703821195  4.2649828827086607  1.4166338035223152
  8.5476633938049122  2.8328174700368125  2.8490643506363496
  9.9450460701041372  4.2782167285993236  4.2791649362889217
  8.5545510464031569  2.8219105942794740  5.6696537166684005
  9.9522003256511802  4.2720149514245138  7.1033860601542731
  8.5374392733167621  2.8483852305307518  8.5310309687870465
  9.9607612722912773  4.2631557886388007  9.9611022402143750
  8.5401903703702065  5.6889041307689947  0.0058773302575115
  9.9555809531714878  7.1129353413734187  1.4167701440868241
  8.5439779697298910  5.6889128774195310  2.8398476562021941
  9.9450367921202840  7.0997640803025961  4.2791557686198995
  8.5384847855023871  5.6889905141600066  5.6857170907667820
  9.9521561274115626  7.1059707425989505  7.1034246414764777
  8.5386050037242338  5.6889600378555674  8.5390285882697512
  9.9607463334588946  7.1147089214869395  9.9611582451363656
  8.5507952369727089  8.5527589654063583  0.0206508043205815
 10.0225213346431907 10.0164020275421066  1.4669402669675651
  8.5477914725522339  8.5452815519802670  2.8489455952562270
 10.0089841952853540 10.0146393010876604  4.2152495762435889
  8.5545481183318550  8.5560702911583935  5.6696506367820847
  9.9538494138579949  9.9552240002167292  7.1194439260937008
  8.5374879613299779  8.5296940177427594  8.5311361142916144
  9.9622045610636931  9.9549804322357911  9.9523204697992131
  2.8793423194619341 -0.0000000711445748 -0.0345019511161168
