Fe Co
 1.0000000000000000
    11.3849286949846444    0.0000000000000000    0.0000000000000000
     0.0000000000000000   11.3374129638332217    0.0000000000000000
     0.0000000000000000    0.0000000000000000   11.3849287195631401
 Fe  Co 
 126   2
Cartesian
  0.0235383725830855 -0.0000001159845733  0.0235381899362640
  1.4231152060927195  1.3513999848734064  1.4231171644000760
  1.4230832553542989  1.3949302561500516  4.2628274624174276
 -0.0061969209243060 -0.0000548689802378  5.6457355663886455
  1.4231159915606786  1.4087929611261263  7.1155807615277125
 -0.0066353561142515 -0.0000211546482492  8.5333122866757325
  1.4231477115081224  1.3949316004597732  9.9683316440292327
  0.0071939609328264  2.8123231137115878  0.0069952531164530
  1.4231161244106221  4.2226455478239098  1.4231163276995267
 -0.0021983867308496  2.7752574049827414  2.8484248367960183
  1.4185250546112655  4.2408903763466324  4.2638780441605029
  0.0059046974592939  2.8263289619759528  5.6899306550335371
  1.4231161999084478  4.2569779719359113  7.1155804816497188
 -0.0043180655601980  2.8383186007927739  8.5326417394922434
  1.4277069821354049  4.2408904235284801  9.9672826946580280
  0.0052260247315379  5.6687065544454107  0.0052263979976602
  1.4231159696150677  7.1147679075394814  1.4231159500879309
  0.0080692809907487  5.6687065651642987  2.8381624673770971
  1.4184639229414626  7.0965813991452604  4.2639189606693062
  0.0030808216205976  5.6687051461797484  5.6876616779832760
  1.4231162029334250  7.0803198014951496  7.1155805729478541
  0.0072696895495251  5.6687016034848368  8.5469655252028147
  1.4277682480945599  7.0965812326614923  9.9672418344329703
  0.0069950713832240  8.5250897919932864  0.0071936850375698
  1.4231160697028193  9.9860131512252526  1.4231161203612788
 -0.0021930716024602  8.5621554696115876  2.8484301512875603
  1.4232660751013821  9.9422282120860785  4.2627693191213032
  0.0058869452675423  8.5110594970133455  5.6899343797914064
  1.4231161221116451  9.9287087313832085  7.1155805746791136
 -0.0042755990490825  8.4990505803730620  8.5325877168179236
  1.4229663658109879  9.9422278439201133  9.9683912010431843
  4.2627683006690482  1.3951838863548314  1.4232644074761909
  2.8226942315043386 -0.0000001798049645  2.8226941129281209
  4.2657060528757258  1.4164729205893289  4.2656654484682539
  2.8528674248531369 -0.0000214155520508  5.6978483793393009
  4.2739438930773668  1.4209127704211395  7.1271511930298468
  2.8524289378386842 -0.0000552093771658  8.5854253130590941
  4.2788861467656965  1.4169820627998919  9.9522504167486385
  2.8484303816691736  2.7752576744099766 -0.0021930080245816
  4.2639189657268100  4.2408316805809561  1.4184635046544343
  2.8390379109198123  2.8123232635200242  2.8392372109670925
  4.2677565529835046  4.2538302271660644  4.2677603691029766
  2.8505503804292713  2.8383187370208716  5.6985194729206947
  4.2658855170890213  4.2569675480335194  7.1134719524445522
  2.8403272398301462  2.8263297232955429  8.5412303972576602
  4.2620209512067664  4.2414803343552787  9.9690948454947215
  2.8381632612977805  5.6687064785630374  0.0080695370216828
  4.2638779355032064  7.0965222698450487  1.4185248912003661
  2.8410058810754406  5.6687065160376697  2.8410058264718918
  4.2677603814622298  7.0835828981481157  4.2677564234355749
  2.8389622546838096  5.6687015717865181  5.6841950153949679
  4.2659352417583554  7.0805011872922199  7.1134358949606238
  2.8431513225482923  5.6687051461633668  8.5434988905659672
  4.2620663197854336  7.0959323513232047  9.9691401909816477
  2.8484253414055019  8.5621550479081225 -0.0021979422989034
  4.2628263764151093  9.9424837589376462  1.4230820993854989
  2.8392367238704508  8.5250895383059593  2.8390381274411780
  4.2656651054309878  9.9209403255590072  4.2657064035754546
  2.8505074612693440  8.4990505688420228  5.6985729062974615
  4.2739426038383499  9.9164512800752185  7.1271830899960618
  2.8403450211109025  8.5110595808412963  8.5412264444093609
  4.2789103390172434  9.9204312041235045  9.9522750960307746
  5.6457356691436917  0.0000549258409646 -0.0061971726765613
  7.1155804856552072  1.4087037440396240  1.4231159937087487
  5.6978489725471944  0.0000211553917819  2.8528675386741398
  7.1271830393627127  1.4209612410700498  4.2739423628348590
  5.6950368948384416 -0.0000002313381849  5.6950370779937041
  7.1155804355588694  1.4261957457291015  7.1155801773943725
  5.6959072948077010  0.0000000627996987  8.5352537298132987
  7.1039777116666070  1.4209613635581453  9.9572184841945948
  5.6899341564346866  2.8263534337766467  0.0058867990827662
  7.1155804769614095  4.2570929195634823  1.4231161429007158
  5.6985733434596764  2.8383627327349412  2.8505082077817390
  7.1134360062034760  4.2569117189719972  4.2659347825782552
  5.6898484693537998  2.8359656682828009  5.6898679365673424
  7.1155805071500033  4.2614907844409364  7.1155805698222263
  5.7010965036820798  2.8510606817685313  8.5300110879366979
  7.1177248020558022  4.2569118884071662  9.9652261842903318
  5.6876617930196316  5.6687078908046189  0.0030809759261560
  7.1155803146901162  7.0804353830893003  1.4231162702745865
  5.6841953070472746  5.6687114759562949  2.8389630315356014
  7.1134718222863587  7.0804453704953740  4.2658857026562158
  5.6881060672303025  5.6687065016544800  5.6881056238806504
  7.1155804467824071  7.0759218179502721  7.1155803083215101
  5.6840700203172663  5.6687063373511650  8.5470909587239046
  7.1176888585355904  7.0804449470043309  9.9652754057264321
  5.6899305998481404  8.5110834833008386  0.0059045079116654
  7.1155805771839855  9.9286205932943581  1.4231158721268873
  5.6985194444740177  8.4990936553306824  2.8505505985693715
  7.1271514634277695  9.9164998974427068  4.2739438454033918
  5.6898676670044281  8.5014471862875780  5.6898487738017476
  7.1155801804276502  9.9112172133243313  7.1155801486981813
  5.7011500389933882  8.4863524799350802  8.5300644674054347
  7.1040096436799276  9.9164998750455720  9.9572171532164919
  8.5333114068488207  0.0000211020147563 -0.0066355207444777
  9.9683929173999282  1.3951835546055948  1.4229678743440517
  8.5854250119438671  0.0000551196123861  2.8524289426873568
  9.9522745888683684  1.4169820192778100  4.2789105569420354
  8.5352534542367202 -0.0000000572110503  5.6959067746176508
  9.9572170262741171  1.4209129871905881  7.1040096945803057
  8.5361235950530379  0.0000001784344449  8.5361238824792789
  9.9654553722447261  1.4164729552502311  9.9654949515601050
  8.5325874577336105  2.8383624761835398 -0.0042762883627139
  9.9672422181610099  4.2408316746651957  1.4277684520597893
  8.5412264954493899  2.8263534806829993  2.8403452680328924
  9.9691400423010048  4.2414806624101482  4.2620660848770466
  8.5300642717707795  2.8510602906541869  5.7011499207153618
  9.9652749168316124  4.2569679120171946  7.1176891243876677
  8.5413123649595484  2.8359657498639090  8.5412928871029870
  9.9634044250287417  4.2538299860352238  9.9634008763370421
  8.5469653032418655  5.6687114603745528  0.0072695590742839
  9.9672825750827716  7.0965223249181602  1.4277069795741837
  8.5434987487544483  5.6687080503681697  2.8431513841206764
  9.9690943497302005  7.0959324824586112  4.2620204525966985
  8.5470907322307283  5.6687066673457513  5.6840697496310160
  9.9652259533047527  7.0805012250826547  7.1177245454349292
  8.5430553026453673  5.6687064600502728  8.5430549856359068
  9.9634006912814037  7.0835830156165569  9.9634044735012832
  8.5326416823414313  8.4990940763824323 -0.0043182469286098
  9.9683331988067785  9.9424830426867725  1.4231492967229131
  8.5412302406087619  8.5110833690088530  2.8403276502435006
  9.9522494708711786  9.9204305655777159  4.2788865433997545
  8.5300109667568709  8.4863524727280915  5.7010965065250057
  9.9572182473586093  9.9164515351344296  7.1039777445583860
  8.5412932123466216  8.5014471724298257  8.5413121459535351
  9.9654954209449826  9.9209400267269672  9.9654546901722068
  2.8669193968168396 -0.0000014359704955 -0.0206822247602303
 -0.0206842599889088  0.0000017401166737  2.8669146229499849
