Fe W 
 1.0000000000000000
    11.3819956785795924    0.0000000000000000    0.0000000000000000
     0.0000000000000000   11.3819956785234773    0.0000000000000000
     0.0000000000000000    0.0000000000000000   11.3819956785683214
 Fe  W  
 126   1
Cartesian
 -0.0017660816764605  0.0175970348147744  0.0173047692247539
  1.3161121828938731  1.5293865688020740  1.5293867002884083
 -0.0026380358979378 -0.0437243375407958  2.8480678749001869
  1.3711309040420228  1.4744051994850391  4.2209108914359250
  0.0054562278454424  0.0132501065019483  5.6802501980022386
  1.4175620010142858  1.4277270703755909  7.1189882354020924
 -0.0071552604160638  0.0070916913846465  8.5322872740512796
  1.3888197287904824  1.4569988949760364  9.9163372904376299
 -0.0025690282727169  2.8481369835661696 -0.0437244367738353
  1.3710939137946097  4.2209109347254818  1.4743679754332084
  1.3658685017120993  4.2043711419879362  4.2042001661007262
 -0.0029822249693349  2.8485664176026355  5.7320039092227155
  1.4241318296934127  4.2687193336401856  7.1160392785807254
 -0.0162453427800045  2.8617763077561791  8.5218652428795210
  1.4206115571857023  4.2704700939522411  9.9509151990260793
  0.0055218348175817  5.6800432320708669  0.0132651176691003
  1.4177719626270056  7.1189881991053197  1.4279370254515957
 -0.0030674460245351  5.7320039089203538  2.8484811383969912
  1.4239057263474963  7.1159845679602869  4.2688677595130455
  0.0033263590234425  5.6749648237856869  5.6750373865695529
  1.4210537983170792  7.1130438352048628  7.1131709728838652
 -0.0046517998962886  5.6800366298527356  8.5327155126036942
  1.4151765437165771  7.1147806743146154  9.9542727224077669
 -0.0070478619317717  8.5322062799116765  0.0069813351982431
  1.3885000824436231  9.9163373723375852  1.4566791276985163
 -0.0162776102272739  8.5218653140311371  2.8617442826499628
  1.4202838143058969  9.9510889834329852  4.2704916263233690
 -0.0046763626869265  8.5326259423005606  5.6801590329702085
  1.4153090485670621  9.9540260894564501  7.1148225653102850
 -0.0155508685288147  8.5240939919415268  8.5241539791976333
  1.3937025981666862  9.9371144475006119  9.9370759608526615
  4.3111572975489532  1.4566790215690806  1.4569987744979473
  2.8279019130724610  0.0173045902750657  2.8472650681927094
  4.2765794156846999  1.4248874308558892  4.2704699359428941
  2.8272620689808639  0.0181770923732607  5.6757474365266924
  4.2732218134721123  1.4303224710194555  7.1147806059439587
  2.8423704872262077  0.0030609252522933  8.5273742193266546
  4.2904186945132317  1.4517961988040358  9.9371145296171086
  2.8281941427673170  2.8472649182457803  0.0175969235986481
  4.2764057091493228  4.2704915906439780  1.4252151380469662
  2.8892234145398827  2.8480678216689754  2.8481370079336474
  4.2702680744021126  4.2698435303172193  4.2696904629217487
  2.8322337113697755  2.8399769102926715  5.6800433387423181
  4.2670110994924384  4.2673812264360560  7.1133769179126531
  2.8385177218928153  2.8525468501300333  8.5322061020771631
  4.2714104470572352  4.2659443010292701  9.9562206999306486
  2.8273217938034336  5.6757473977235202  0.0182367518443959
  4.2734684282354403  7.1148227352473832  1.4301896832549486
  2.8322487582453943  5.6802503137965434  2.8400427365039969
  4.2669618914310821  7.1134788352911231  4.2673152425479790
  2.8225388894320345  5.6688204333802572  5.6687786121547585
  4.2594067916707736  7.1051172905554854  7.1050657244078685
  2.8413572973995667  5.6857978524511656  8.5413587189114999
  4.2659349083267495  7.1069161836363532  9.9613945062587366
  2.8424380179143873  8.5273743385257070  0.0031284863824629
  4.2903802022160429  9.9370758420823240  1.4517962632915020
  2.8384071564898083  8.5322872420924334  2.8526542197315008
  4.2712738558958572  9.9560841100545812  4.2659441385695818
  2.8412514424860000  8.5413723743433252  5.6858186144379923
  4.2661000395898983  9.9615597756006604  7.1069160610632149
  2.8438063527856015  8.5319212781574407  8.5319627628545653
  4.2859840312619806  9.9415104471184392  9.9415104948489930
  5.7001201407382744  0.0031285623009110  0.0030610067849922
  7.1085063083772475  1.4279369847300620  1.4277269013583200
  5.6952883635364930  0.0069812321667605  2.8525468011909378
  7.1114551660100673  1.4213671710761633  4.2687193587376635
  5.6861361183864805  0.0041416903725993  5.6857976569025785
  7.1143236898377555  1.4244451456462111  7.1130438353259908
  5.6955319647001303  0.0016925637168015  8.5319211045590801
  7.1126720128969048  1.4301897722007715  9.9540260811163925
  5.6952073557966179  2.8526542673927464  0.0070917186886442
  7.1115098618308510  4.2688678631573511  1.4215932527036723
  5.7056293437750103  2.8617442292285680  2.8617763600266803
  7.1180015461678634  4.2735234878766510  4.2735862132841635
  5.6947792275491800  2.8501508849099468  5.6800366994360951
  7.1200215540755192  4.2704585224027820  7.1074052251163753
  5.7033404933855740  2.8610497005013431  8.5240938169029015
  7.1140159516431645  4.2673153010296980  9.9605326547256574
  5.6861223302353805  5.6858187496837065  0.0042476848138008
  7.1144507167996451  7.1131709684951128  1.4244451963782534
  5.6948685442284344  5.6801590000460109  2.8501754129767471
  7.1200892856212947  7.1074728352431995  4.2704585981500598
  5.6891407653643746  5.6863509946127202  5.6862628634483539
  7.1266938693951616  7.1008007207157036  7.1008004979908126
  5.6959869947554953  5.6883304538631689  8.5314824772840758
  7.1223774567717140  7.1050655755255088  9.9680877501324847
  5.6955733300374796  8.5319624771218283  0.0016925256821870
  7.1127138465182282  9.9542728923114332  1.4303224984143017
  5.7034007838781733  8.5241538854460952  2.8610497763586120
  7.1141176531371393  9.9604834610476818  4.2673813039583202
  5.6960122033461174  8.5315075772909665  5.6883306416967256
  7.1224289280629467  9.9680878550206202  7.1051171977335184
  5.7058845068583368  8.5216101605013765  8.5216101275594927
  7.1205785870839424  9.9613946104594611  9.9615598082617502
  8.5517470706152174  0.0182366946842711  0.0181769673807902
 10.0065838072656366  1.4743679371799387  1.4744050122928389
  8.5474513048427649  0.0132650573614967  2.8399769863337649
 10.0232944292466417  1.4796305923129385  4.2043712004620577
  8.5587160958907376  0.0229599889178619  5.6688203949681260
  9.9586267670915252  1.4215932175281631  7.1159845818862779
  8.5416758029392792  0.0042474053670213  8.5413722275562609
  9.9570028345169224  1.4252150734476978  9.9510886407193002
  8.5472442917008831  2.8400428301642400  0.0132501107880308
 10.0231232963371664  4.2042001920831220  1.4796305629019384
  8.4954906634684857  2.8484811867547957  2.8485665759022885
 10.0122075889348245  4.2152868968370720  4.2152869570606937
  8.5524570625421514  2.8421725287714699  5.6749646899961732
  9.9539711308408005  4.2735861483615478  7.1094933665983131
  8.5473356369245419  2.8501753623521684  8.5326260326684551
  9.9576510473248607  4.2696903739902945  9.9572264878643892
  8.5586743944696853  5.6687786742284336  0.0229599408140768
  9.9587753029465063  7.1160394171760384  1.4213671398542220
  8.5525297815889072  5.6750375079309023  2.8421725002142235
  9.9539085057992231  7.1094931408313373  4.2735234555303991
  8.5576144303305561  5.6698800787931019  5.6698802447707148
  9.9570358975016013  7.1074052961668688  7.1074729791330338
  8.5411434760350353  5.6862627246474045  8.5383539886982103
  9.9601134648815410  7.1133768102191155  9.9604834876111976
  8.5416969255589059  8.5413587528015817  0.0041416648252004
  9.9570245847829142  9.9509150921591516  1.4248873952215251
  8.5474579270284732  8.5327154057766705  2.8501507957231551
  9.9578042235412347  9.9572264057555362  4.2698434594642478
  8.5412317566583891  8.5383540446541577  5.6863512624299899
  9.9601793753328032  9.9605326091402979  7.1134788849094761
  8.5391640184800792  8.5314825608966149  8.5315075334986705
  9.9615504680646669  9.9562207685915443  9.9560840031986384
  2.8125289415136088  0.0329700608145960  0.0329701684972756
