Fe Au
 1.0000000000000000
    11.4188070559533976    0.0000000000000000    0.0000000000000000
     0.0000000000000000   11.4188070541494042    0.0000000000000000
     0.0000000000000000    0.0000000000000000   11.4188070525479297
 Fe  Au 
 127   1
Cartesian
  0.0017111602674763 -0.0000001441867187 -0.0000000483468105
  1.3835664907414531  1.4711353294298799  1.4711352566960210
 -0.0181752374468602 -0.0000000054435690  2.8728770341354468
  1.4171404006602568  1.4377363289917673  4.2876427236572185
 -0.0110512256042727 -0.0000000147417004  5.7094034897155117
  1.4169655424858654  1.4375616441952288  7.1311643733462793
 -0.0181752054244988 -0.0000000608638777  8.5459300419788740
  1.3835664397510101  1.4711354163083206  9.9476716698957333
 -0.0181752204951863  2.8728770148850264  0.0000000100083811
  1.4169656469992058  4.2876428767075234  1.4375614521872380
 -0.0318972832125619  2.8865991533841120  2.8865989926278184
  1.4201960186243268  4.2945291163891106  4.2945878907790309
 -0.0125513440575795  2.8672532267748170  5.7094035200216720
  1.4201958284989213  4.2945877060122388  7.1242779126990285
 -0.0318972671400137  2.8865989922823929  8.5322081348357433
  1.4171403161793468  4.2876427642161534  9.9810707391130631
 -0.0110513339304849  5.7094035525514109 -0.0000000021830463
  1.4171404297018382  7.1311642735688441  1.4377361422165573
 -0.0125515146251282  5.7094035328944210  2.8672531363652642
  1.4201958308158875  7.1242192477851436  4.2945291220032393
  0.0019906199644621  5.7094034439829997  5.7094033675112179
  1.4201957814114776  7.1242780753665569  7.1242192303363172
 -0.0125514043742807  5.7094035762815514  8.5515538855868396
  1.4169654942039147  7.1311645892826450  9.9812456009402624
 -0.0181750941770198  8.5459302517018099  0.0000000180938075
  1.3835663362000679  9.9476716735204072  1.4711352462083909
 -0.0318974169419440  8.5322079648380473  2.8865990178708292
  1.4169655785341204  9.9812455994053142  4.2876426900088145
 -0.0125514144234165  8.5515538080570881  5.7094034954928299
  1.4171402617144910  9.9810708108132484  7.1311643507127593
 -0.0318973236294584  8.5322080311796391  8.5322080340741806
  1.3835664619749879  9.9476717019125935  9.9476718850740546
  4.3258370917116924  1.4711354596474424  1.4711354819607785
  2.8547017056645894  0.0000000179054337  2.8529908400418003
  4.2924379372602681  1.4375614066872739  4.2876426589385526
  2.8547016636617295 -0.0000000440789013  5.7094035707334427
  4.2922633276218498  1.4377362239305211  7.1311642590004833
  2.8547017774042756  0.0000001055466586  8.5658162668753715
  4.3258371190489537  1.4711352135039233  9.9476718412350014
  2.8547018102855279  2.8529905882402571 -0.0000000842350983
  4.2922631600376464  4.2876425858689835  1.4377362665976470
  2.8547017696352652  2.8728769865159043  2.8728770618072819
  4.2892077900636787  4.2945878810739480  4.2945290573724133
  2.8547016828933871  2.8657532421570124  5.7094035318786238
  4.2892079687781441  4.2945289627211194  7.1242192829956190
  2.8547017411745248  2.8728769607546139  8.5459301826996068
  4.2924379002508477  4.2876425953423469  9.9812455480480935
  2.8547017558917598  5.7094036613958874  0.0000000297837394
  4.2924377728304295  7.1311642125287271  1.4375615802519681
  2.8547015340095721  5.7094034883869700  2.8657531822949838
  4.2892076536909158  7.1242783471184241  4.2945877706950863
  2.8547017043271130  5.7094035137487964  5.7094034683513541
  4.2892078604253134  7.1242192954184071  7.1242778744189970
  2.8547016807073460  5.7094036573823788  8.5530539113985515
  4.2922630911892368  7.1311643514993737  9.9810709594522624
  2.8547018672878735  8.5658162849056403 -0.0000000534830294
  4.3258369680345936  9.9476716924569448  1.4711352262279185
  2.8547017138749360  8.5459301639086096  2.8728768628341235
  4.2922633781629154  9.9810710244040521  4.2876427098392167
  2.8547019604929176  8.5530538999105783  5.7094036333477254
  4.2924380723456856  9.9812456491105603  7.1311643849504414
  2.8547016521078143  8.5459300767319295  8.5459302211793080
  4.3258370714882117  9.9476716460361061  9.9476715330401362
  5.7076924040320280  0.0000000366426253  0.0000001575266580
  7.1423442866317464  1.4377361817175760  1.4375615501217940
  5.7275787604972441  0.0000000634705899  2.8728771005638829
  7.1492310102510581  1.4345057616161074  4.2945878530642929
  5.7204548106937017  0.0000000059929207  5.7094035811657369
  7.1492897144628893  1.4345059679572694  7.1242779972607240
  5.7275787713774271 -0.0000001069550221  8.5459301286114897
  7.1423443999881551  1.4375614482169572  9.9810710092246246
  5.7275786480847914  2.8728768418389650  0.0000000451824037
  7.1492897628437859  4.2945290168355816  1.4345059509377258
  5.7413009884931299  2.8865990706791571  2.8865990137504123
  7.1513812370291499  4.2966796037904649  4.2966796737332871
  5.7219549098363887  2.8672531482049575  5.7094035872356059
  7.1513810608118176  4.2966795721299835  7.1221276826240301
  5.7413008658544786  2.8865991714984718  8.5322080666414983
  7.1492308267571367  4.2945878120903238  9.9843011336796259
  5.7204550830473906  5.7094034047995255  0.0000001159327756
  7.1492308127006909  7.1242193201503063  1.4345060173381772
  5.7219549305981898  5.7094035904493161  2.8672533103161943
  7.1513809356903444  7.1221275403432429  4.2966794783585707
  5.7074127820275775  5.7094034793686923  5.7094035722754493
  7.1513810877991792  7.1221276738885795  7.1221276630568173
  5.7219548976387813  5.7094034261532478  8.5515537942918112
  7.1492896720232233  7.1242780695675236  9.9843010482989492
  5.7275785936377321  8.5459301995977697 -0.0000000870173252
  7.1423444189174781  9.9812456567843988  1.4377364010634701
  5.7413007773608600  8.5322078174210496  2.8865990928630367
  7.1492895074184259  9.9843012604102039  4.2945290423703035
  5.7219549024951437  8.5515537488281907  5.7094036816902811
  7.1492307340593895  9.9843010860833630  7.1242193080971719
  5.7413010121920234  8.5322079759083369  8.5322080102152658
  7.1423444785927437  9.9810710359635397  9.9812455250034393
  8.5641052208929622 -0.0000001034808952  0.0000000266369767
  9.9858661035443212  1.4375614620338104  1.4377363800344360
  8.5641052102377664 -0.0000000466617931  2.8657532122043041
  9.9789209836610482  1.4345058306148351  4.2945289507119480
  8.5641052311369048  0.0000001469613490  5.7094036354715252
  9.9789796890051612  1.4345059359719474  7.1242192251255476
  8.5641052983032289 -0.0000001109583621  8.5530538411735577
  9.9858661003950875  1.4377361286679811  9.9812456457294889
  8.5641052446232173  2.8657533778472839 -0.0000000603522472
  9.9789797448297346  4.2945876178664584  1.4345059568595397
  8.5641054171151616  2.8672532144229415  2.8672529854647837
  9.9768295319616165  4.2966793918779569  4.2966794738992915
  8.5641053758228178  2.8527113437421798  5.7094035600266446
  9.9768293801309813  4.2966795028139391  7.1221277163537993
  8.5641053152410951  2.8672530244726318  8.5515538317198203
  9.9789211165120761  4.2945288364776975  9.9843011461101305
  8.5641052609111679  5.7094034786860872  0.0000000981462094
  9.9789209257373575  7.1242781479900898  1.4345059235321413
  8.5641053660833020  5.7094035928063738  2.8527110931557842
  9.9768295939519227  7.1221275174335634  4.2966791437136580
  8.5641052634016273  5.7094033276048810  5.7094035087404027
  9.9768294006757081  7.1221277231212259  7.1221276698208973
  8.5641053635977364  5.7094036544537348  8.5660959635576344
  9.9789798406097372  7.1242193085619094  9.9843009867375301
  8.5641051975697593  8.5530536651132536  0.0000000766643975
  9.9858661621169276  9.9810708351739574  1.4375612870335905
  8.5641053467085495  8.5515540043836697  2.8672530869881019
  9.9789798302450148  9.9843011709455478  4.2945876597724917
  8.5641052108785285  8.5660959835084540  5.7094035575452935
  9.9789209960576883  9.9843011458312709  7.1242781980286782
  8.5641055067196028  8.5515538967815452  8.5515538447414574
  9.9858660497984513  9.9812456151532949  9.9810708565692572
  2.8547017764088110 -0.0000000802490079 -0.0000001957028563
