Fe Nb
 1.0000000000000000
    11.4012370879208813    0.0000000000000000    0.0000000000000000
     0.0000000000000000   11.4012370874556517    0.0000000000000000
     0.0000000000000000    0.0000000000000000   11.4012370905940656
 Fe  Nb 
 126   2
Cartesian
 -0.0493895552177716 -0.0469437937585074 -0.0470996204680399
 -0.0579642652916881 -0.0771161663905253  2.9085791561358669
  1.4192762961051728  1.4312186339399053  4.2914462780842726
  0.0009678031429151  0.0017350079645314  5.6936753916645300
  1.4265106176290121  1.4236794867816447  7.1340393737243648
  0.0133072320741694  0.0033401314993467  8.5754597316135595
  1.3780550849941735  1.4720985452937980  9.9266929711745817
 -0.0582699756154313  2.9082736735687078 -0.0771161566191683
  1.4190907593537512  4.2914461945297155  1.4310330737356844
 -0.1267239954939585  2.9770332516000169  2.9770332273873268
  1.4276387475735544  4.2674024635500443  4.2675588014340793
 -0.0079653132037322  2.8583279397883641  5.6887040846698351
  1.4273361774929239  4.2738538689538750  7.1295240322494351
 -0.0134715121759252  2.8636095028696729  8.5487154656551034
  1.4284273456200904  4.2508607183491192  9.9894393707926668
  0.0010696210600255  5.6938543983803793  0.0015753898830010
  1.4266298010181580  7.1340394665635234  1.4237986203381292
 -0.0080186808849652  5.6887040528087072  2.8582746524646989
  1.4273187535840155  7.1295024632104198  4.2739374128288370
  0.0029689330367891  5.6989958647222281  5.6991528362108754
  1.4244925567124107  7.1251173094993003  7.1251659956018045
 -0.0025733954167146  5.6961632846619645  8.5474035775791091
  1.4267299984977129  7.1325373298682626  9.9771520672158243
  0.0133569329027921  8.5755309672045250  0.0032727643679502
  1.3782107420733196  9.9266929188291755  1.4722542412415451
 -0.0133003216331079  8.5487154313358715  2.8637808352937237
  1.4284947362193918  9.9893897121477000  4.2509318499641262
 -0.0025411827282800  8.5473400360101657  5.6963105509968566
  1.4268895570070628  9.9770500840686758  7.1327162735721172
 -0.0140321456394798  8.5344378160852052  8.5343956058586610
  1.3480385368341985  9.9181180945802101  9.9178125304869802
  4.3248534598762767  1.4722543027445301  1.4720984282066536
  2.8972531163652642 -0.0470996717683423  2.8996988186994304
  4.2621070349344921  1.4218820006873085  4.2508606623682637
  2.8488341176315863  0.0013560247280876  5.6923522336110617
  4.2743942483292221  1.4235793462586144  7.1325373200571445
  2.8563731691739260 -0.0058783736993216  8.5349454749287350
  4.3337338167268564  1.5022707277791065  9.9181181459299044
  2.8974090077435917  2.8996987858915300 -0.0469439494585958
  4.2621566217260485  4.2509318858221983  1.4218144150643846
  2.9274254146843899  2.9085791471527318  2.9082735860292566
  4.2894962141990485  4.2919960068610257  4.2919539868712979
  2.8487338841088072  2.8492396130063833  5.6938543860592441
  4.2780372816783352  4.2789881423701397  7.1302285008463002
  2.8470366439916841  2.8369523361715259  8.5755310792014559
  4.2889353943765478  4.2776762617125810  9.9627820877671223
  2.8489532312351447  5.6923522409711014  0.0014751358110522
  4.2744961261616252  7.1327163129559006  1.4234196776690731
  2.8485743175844078  5.6936754763575834  2.8493414634419474
  4.2780050945469892  7.1300813906322693  4.2790515190724774
  2.8509713578045783  5.7012257523791954  5.7012744124565824
  4.2724950173424725  7.1272388549667216  7.1273959015206518
  2.8481276833934803  5.6968675639478503  8.5525378873462792
  4.2834292346510061  7.1376876032895984  9.9680637577687747
  2.8561875684133260  8.5349454371569600 -0.0060639488002126
  4.3334281269378270  9.9178124874233351  1.5022707046501109
  2.8469690507887120  8.5754598350829792  2.8370021022488259
  4.2887642485053519  9.9626110120357687  4.2776762779394799
  2.8481453581808127  8.5524542537925985  5.6968894395059975
  4.2834825405651635  9.9681170972999755  7.1376876153802495
  2.8478251971585737  8.5588330413932034  8.5589893599633946
  4.4021879113054139  9.8493585707080022  9.8493583784018135
  5.7166009043623047 -0.0060639456612622 -0.0058783781705080
  7.1175068717190779  1.4237986328659733  1.4236795216257274
  5.6760153554706090  0.0032726923835282  2.8369522720026028
  7.1220221644764941  1.4229731718900152  4.2738538340832140
  5.6990084286639355  0.0021815027332975  5.6968675704548524
  7.1263803920808826  1.4258167165812492  7.1251172868837624
  5.6925569435659273  0.0024841093607236  8.5588329763449646
  7.1188301257381790  1.4234196175081757  9.9770502060814064
  5.6760865467905122  2.8370019891316018  0.0033400760732719
  7.1220440021039355  4.2739374451167942  1.4229905841757629
  5.7028309652077080  2.8637808380752410  2.8636097061515060
  7.1326381183166543  4.2853413393780153  4.2852907503706028
  5.7041427961670941  2.8528827239976247  5.6961631956292607
  7.1308941598191753  4.2776507710212890  7.1206915334604508
  5.7171507511636692  2.8643415570219273  8.5344377240550671
  7.1214651235307516  4.2790516064111781  9.9735412824389265
  5.6990921055773027  5.6968894445695906  0.0021639807415010
  7.1264290537771124  7.1251660587540488  1.4258166837924895
  5.7042062015922470  5.6963103905645180  2.8528504991196013
  7.1308548604618140  7.1206521364781414  4.2776507915930875
  5.7028053363142259  5.7057395265299258  5.7057002132321646
  7.1351674642793945  7.1163788501293199  7.1163789768996262
  5.7104960464639376  5.7074833544104520  8.5411010632417348
  7.1243075590041567  7.1273959087792242  9.9790514682224796
  5.6927133795442266  8.5589893796531715  0.0024841207609890
  7.1190090899577898  9.9771519381487632  1.4235792418409803
  5.7171086543092988  8.5343956452018599  2.8643415031106141
  7.1213178234450618  9.9735089654042408  4.2789882045841745
  5.7104452701075292  8.5410503955061721  5.7074834428624204
  7.1241504573828287  9.9790513552040920  7.1272389023056437
  5.7363178713497955  8.5152285160663173  8.5152284043847519
  7.1138586324992978  9.9680637400593337  9.9681171072884975
  8.5591940574010437  0.0014750954916313  0.0013560236711667
  9.9601001237178206  1.4310330162248712  1.4312185072062884
  8.5576920333389808  0.0015753688255702  2.8492396651577105
  9.9839875379492877  1.4226706359043499  4.2674024035501539
  8.5502718658808803 -0.0006620910953813  5.7012257131687258
  9.9776088964538623  1.4229906108456132  7.1295023823538335
  8.5546569161602726  0.0021639264948859  8.5524541549838169
 10.0006144645329069  1.4218144827931112  9.9893897186202771
  8.5578708889085089  2.8493415414115684  0.0017350583588055
  9.9841439608901315  4.2675587285813963  1.4226704577456559
  8.5628423357317747  2.8582746028145607  2.8583279643830890
  9.9403831637742091  4.3111632425693189  4.3111631630713365
  8.5523935440932100  2.8473403484433017  5.6989957340634554
  9.9662049956118732  4.2852906590460247  7.1189083857452822
  8.5552359103105573  2.8528504186974915  8.5473400831039772
  9.9595502934332654  4.2919539670079789  9.9620502543915830
  8.5503205819081991  5.7012744324866409 -0.0006620168400761
  9.9776925054120813  7.1295241437881076  1.4229730791574424
  8.5525505882409352  5.6991529196199009  2.8473403082690578
  9.9662555848861967  7.1189083285381090  4.2853414152465259
  8.5415335384832911  5.7100127672249670  5.7100128458677677
  9.9738957427095443  7.1206914901023435  7.1206521980673285
  8.5458067407555856  5.7057001132255394  8.5487409829685994
  9.9725581950154716  7.1302285517002080  9.9735089210265997
  8.5546786270990829  8.5525379082584720  0.0021815352790586
 10.0006857307189083  9.9894394087853229  1.4218819313328390
  8.5553831986539208  8.5474035237791206  2.8528826626455812
  9.9595924379354877  9.9620502611261053  4.2919961031764844
  8.5458461778599180  8.5487410208891550  5.7057396518345405
  9.9724948360328902  9.9735413499059646  7.1300812730607994
  8.5440629556409640  8.5411009857187956  8.5410504188792853
  9.9738700810544803  9.9627821356920645  9.9626108735888295
  2.9822069085543954 -0.1318975106606126 -0.1318974332972992
  1.2932571361232641  1.5570520949468243  1.5570522466228252
