Fe Ag
 1.0000000000000000
    11.4203955686159979    0.0000000000000000    0.0000000000000000
     0.0000000000000000   11.4203955675376054    0.0000000000000000
     0.0000000000000000    0.0000000000000000   11.4203955703687363
 Fe  Ag 
 126   2
Cartesian
 -0.0831899347920417 -0.0340037286287579 -0.0340358008094721
 -0.0522174962619579 -0.0181236813428740  2.9064440704427179
  1.4086277504484996  1.4466274591669883  4.2917956939145308
 -0.0163186109510353 -0.0090777496552611  5.7069023504254295
  1.4178338838632132  1.4370984084303020  7.1441321174491836
 -0.0532376514803133 -0.0118977546012791  8.5338653876718560
  1.3935136928509348  1.4615530030604864  9.9096561195917374
 -0.0513453595320287  2.9073164094613371 -0.0181237946023525
  1.4084713278739434  4.2917954913277931  1.4464712128984833
 -0.0118636185406650  2.8669626457322628  2.8669626230767458
  1.4135432401190509  4.3171603311105669  4.3171992874931009
 -0.0212621794935249  2.8764101991250079  5.7163446443198263
  1.4223605977078018  4.3003685913596836  7.1270167843977212
 -0.0364105910968345  2.8916444488912112  8.5300330260361825
  1.4154760060772631  4.3140049416226862  9.9394348615036492
 -0.0163909608104071  5.7070927038643759 -0.0091438962757061
  1.4180005417573713  7.1441322169159989  1.4372650855364739
 -0.0213114018006010  5.7163446697260332  2.8763610799329342
  1.4223007678363977  7.1269996826206610  4.3001864544242272
 -0.0017978109306260  5.7171193490083274  5.7169789786297818
  1.4233966864076684  7.1307018468441381  7.1306442144877904
 -0.0220571291845628  5.7209607756350263  8.5407317443669459
  1.4184055160148907  7.1408524118926744  9.9764550712601956
 -0.0534112165768742  8.5339400330477773 -0.0120734514863540
  1.3935458355333974  9.9096560527658841  1.4615851728916314
 -0.0365455065238379  8.5300329544603191  2.8915095847880372
  1.4156518235321682  9.9396084149912802  4.3140794621482019
 -0.0219929433806079  8.5407552171247882  5.7208595463263006
  1.4184717549868415  9.9765274256256884  7.1410425939840438
 -0.0241603625752586  8.5355919045045852  8.5354105681455437
  1.4094258717550145  9.9406286337782497  9.9415007363720953
  4.3658381666604607  1.4615851168789669  1.4615529115469554
  2.8891025238933326 -0.0340357096115965  2.9382888817513551
  4.3360592975046597  1.4396228830374540  4.3140049053880887
  2.8646478547294816 -0.0097156599387036  5.7038129270378679
  4.2990393315905520  1.4366933365124945  7.1408522371637684
  2.8741769368358301 -0.0189216698760714  8.5561493470415044
  4.3339934423470643  1.4456729885306681  9.9406287518672229
  2.8891346192054037  2.9382888054838268 -0.0340035768515070
  4.3358859713458555  4.3140795129452645  1.4394471146766252
  2.8732225401998401  2.9064440980291533  2.9073163071756274
  4.3068086150074958  4.3125344135363308  4.3123531626081402
  2.8642428088961234  2.8714900820292408  5.7070926724710045
  4.3047055249364083  4.3072133152003849  7.1269843345530788
  2.8671723910292326  2.9085100791679097  8.5339399959502593
  4.3190590247577729  4.3179120428510194  9.9563006425187766
  2.8648143874564407  5.7038129673953719 -0.0095489373654560
  4.2989670194593437  7.1410425960679138  1.4366270842217876
  2.8641765755602351  5.7069023896750215  2.8714175114040041
  4.3046413284153235  7.1270854096648142  4.3071900981331588
  2.8592514614080660  5.7173008727219150  5.7172429316366866
  4.2844458816015285  7.1309659538767374  7.1308258376994997
  2.8602877495875632  5.7209282034107076  8.5475763702909511
  4.3039104291241630  7.1316003372277823  9.9715347687708356
  2.8740207176273032  8.5561494353244836 -0.0190779495161533
  4.3348657464835236  9.9415008090789794  1.4456730473336090
  2.8669966470396289  8.5338654435524006  2.9083365581771359
  4.3191939043994090  9.9564354658760301  4.3179119950369422
  2.8603474586997049  8.5477585904476499  5.7209454015571772
  4.3039596417306987  9.9715840372015965  7.1316003659188985
  2.8691050278698618  8.5307458293702698  8.5307846837950319
  4.2945120790366822  9.9809825065849314  9.9809825555546610
  5.7193450253929230 -0.0190781051457863 -0.0189217502304213
  7.1313623953851710  1.4372650249473999  1.4370984072994035
  5.7415542723719595 -0.0120733481332043  2.9085099060303756
  7.1484775830117888  1.4327382240656370  4.3003687383347629
  5.7279183250712533 -0.0051888093383427  5.7209280660176036
  7.1448503027396635  1.4317021628183775  7.1307019238334215
  5.7447096453783981 -0.0140062270155285  8.5307457891786971
  7.1344519438302365  1.4366272370257192  9.9765273959054959
  5.7416290089686068  2.9083364970916814 -0.0118977894300233
  7.1484947725602579  4.3001864770252300  1.4327981422958858
  5.7454613953313123  2.8915096254434864  2.8916445171899503
  7.1613649105260784  4.3087009352980026  4.3087113296939599
  5.7347628529100954  2.8771559607031176  5.7209607272789444
  7.1490186957798558  4.2924237339509252  7.1265210457125461
  5.7400838700442494  2.8792594290502933  8.5355918856137940
  7.1484090870466961  4.3071899393005744  9.9708531900837514
  5.7277359243047110  5.7209454664491215 -0.0052485853546600
  7.1447923884281197  7.1306441480937650  1.4317021983607296
  5.7347393629846053  5.7208596940212848  2.8770917658248618
  7.1489734244842635  7.1264758824419907  4.2924238087903248
  5.7199731683340929  5.7214691854874253  5.7214239569356513
  7.1460783665778340  7.1294160547941985  7.1294162094387454
  5.7362504527279778  5.7338155183764759  8.5392337351391614
  7.1445284920228698  7.1308259001676007  9.9910484272067723
  5.7447486752905013  8.5307847117472040 -0.0140059833721441
  7.1346421333998897  9.9764550391169511  1.4366934278994810
  5.7399025528823113  8.5354106159384582  2.8792592828573991
  7.1485102917947962  9.9707889795546940  4.3072133330442730
  5.7362608155105628  8.5392441831557324  5.7338155074399539
  7.1446685895070852  9.9910484477053654  7.1309658396892042
  5.7331297107558532  8.5423648621995412  8.5423647555196851
  7.1438940741887924  9.9715348113712761  9.9715839230437275
  8.5716815021660455 -0.0095491184469139 -0.0097155045806392
  9.9836989601554578  1.4464711447658498  1.4466274891687754
  8.5684017672358497 -0.0091439415188017  2.8714899541213730
  9.9582952803565163  1.4415556046470976  4.3171602255636401
  8.5582514538515451 -0.0041526671608584  5.7173007840668477
  9.9753079782543637  1.4327981501820914  7.1269996483316325
  8.5545490354849072 -0.0052486796882824  8.5477585192782222
  9.9614148260153499  1.4394471225121976  9.9396084548400143
  8.5685921343851135  2.8714175676217817 -0.0090776970202422
  9.9583342149035214  4.3171992438488314  1.4415556322036571
  8.5591497941876575  2.8763610802721362  2.8764101585094899
  9.9699143774720618  4.3055802671437409  4.3055802221394028
  8.5585153671749392  2.8568965917344475  5.7171191293789212
  9.9667935224011384  4.3087112206124756  7.1141294812933316
  8.5546349083377571  2.8770919033437297  8.5407550948285582
  9.9629600995275833  4.3123531273013276  9.9686856634144192
  8.5581935958037274  5.7172428952869367 -0.0041526735025701
  9.9751257473103276  7.1270169010951818  1.4327382802969095
  8.5583751869228379  5.7169790406018262  2.8568966228199764
  9.9667831820268198  7.1141294809053264  4.3087009070628390
  8.5569655920236674  5.7185288665608196  5.7185288188574415
  9.9830706681328820  7.1265210959046792  7.1264758106003461
  8.5540253588506179  5.7214240469985054  8.5555212242065330
  9.9682811658101773  7.1269843005585605  9.9707889131562890
  8.5545663964481911  8.5475764312938125 -0.0051889098400209
  9.9614895657628999  9.9394350095950177  1.4396228203433763
  8.5545336399672713  8.5407317951124018  2.8771559844450931
  9.9631414034721342  9.9686856096348233  4.3125343805523650
  8.5540704752993122  8.5555212533501539  5.7214691984553614
  9.9683045242366202  9.9708532070210740  7.1270855083468305
  8.5416789364075711  8.5392336998859264  8.5392440434880186
  9.9575824016431138  9.9563004581026355  9.9564354199032596
  2.8077710986188475  0.0473277913645818  0.0473278056667126
  1.4748770375175362  1.3802216423561446  1.3802216113732204
