Fe Ir
 1.0000000000000000
    11.3878483145174219    0.0000000000000000    0.0000000000000000
     0.0000000000000000   11.3878483105375672    0.0000000000000000
     0.0000000000000000    0.0000000000000000   11.3878483153062877
 Fe  Ir 
 126   1
Cartesian
  0.0389916820927547  0.0155064384887454  0.0154622415563045
  1.3434623991081998  1.5034996981572821  1.5034996750099847
 -0.0022627768116469 -0.0472538402228112  2.8492811120961843
  1.3683240727375809  1.4788751480109712  4.2117329658904152
  0.0046884439687761  0.0142702073945702  5.6838328939239346
  1.4210033054692364  1.4256457131280467  7.1237450831705953
 -0.0080791126629408  0.0090658455667896  8.5336857237649060
  1.4059963819608903  1.4410545430833430  9.9380658566264621
 -0.0023189333385063  2.8492248091981498 -0.0472539951749359
  1.3680869674884866  4.2117328251213895  1.4786379057168213
  1.3612095597490288  4.2175391246504308  4.2175027161140335
 -0.0032656027190249  2.8503308625885553  5.7416188802348529
  1.4195507617934444  4.2798750296873811  7.1114514438184244
 -0.0203203630250485  2.8673159990777473  8.5192938213518943
  1.4223059720801108  4.2694096005695039  9.9580889157458490
  0.0047501998382306  5.6837992431641018  0.0143255559533605
  1.4213163699877678  7.1237448791482239  1.4259587907918405
 -0.0033688340054284  5.7416188084447128  2.8502277897710719
  1.4194398809322366  7.1113852590232005  4.2798675503735462
 -0.0007655111376834  5.6791870984638813  5.6791985708775776
  1.4161481470072845  7.1079417377574439  7.1079252954798067
 -0.0034062785460262  5.6816039078427725  8.5380058031823953
  1.4201703828248267  7.1149002010070337  9.9649684545512418
 -0.0080207562151849  8.5336443976449150  0.0090658856384927
  1.4059076505269821  9.9380660245901655  1.4409655426983363
 -0.0203539805560691  8.5192937974065739  2.8672824313382330
  1.4221991329425798  9.9582662565542464  4.2693068705373696
 -0.0034060000785631  8.5380035741653302  5.6816267001095619
  1.4203878437515940  9.9646706362629747  7.1149109231977468
 -0.0149615392770836  8.5264169214752616  8.5264360203081146
  1.4159634560733285  9.9558150629385356  9.9557605154101960
  4.2967445755216183  1.4409655954706848  1.4410544276434327
  2.8314557051820106  0.0154623312061274  2.8079705139963975
  4.2767215714694204  1.4246560774376207  4.2694097906027748
  2.8244327368536464  0.0224280323273642  5.6695473103798513
  4.2698420646317059  1.4267916281516224  7.1149003162986091
  2.8437082405017629  0.0032723479670686  8.5665552437964685
  4.2790499470371124  1.4309988031290024  9.9558148998890488
  2.8314998476475330  2.8079704351385852  0.0155063588930412
  4.2765442925522876  4.2693067871166184  1.4247629326437730
  2.8942160627638680  2.8492808926431632  2.8492247243817985
  4.2770110598552389  4.2791708855193979  4.2789105763418398
  2.8326365961185624  2.8422120093639514  5.6837992281538421
  4.2757207939256112  4.2780438151864404  7.1093061640879576
  2.8378962649418464  2.8549827907318526  8.5336444940746663
  4.2708252772268054  4.2689600708397677  9.9641622820848106
  2.8245341281770044  5.6695473327876487  0.0225294808226745
  4.2701398129269190  7.1149108277958861  1.4265742777103605
  2.8326917797044571  5.6838328254272383  2.8422735251339031
  4.2757466145189129  7.1094200013457876  4.2781292587306776
  2.8256920219581003  5.6725442912586974  5.6725435210018240
  4.2663323714993560  7.1019333163878375  7.1020320256447205
  2.8419990092660319  5.6880299778248293  8.5451070457193836
  4.2638674632687223  7.1067114835413419  9.9707199211484081
  2.8436897516625006  8.5665550404959809  0.0032538155915155
  4.2789952687017756  9.9557605383933598  1.4309987385008145
  2.8378961746464615  8.5336856036955773  2.8550411498139856
  4.2706480853783111  9.9639850773866883  4.2689600590947014
  2.8420014278712955  8.5451134872633716  5.6880898433195233
  4.2640903391672635  9.9709430133827190  7.1067115254343864
  2.8444365933383717  8.5344780179772073  8.5345225978560482
  4.2615814058916257  9.9732290490212705  9.9732291253611951
  5.6682551763483726  0.0032539435949114  0.0032723610987250
  7.1110655203105120  1.4259587832397853  1.4256456254440404
  5.7011658811943526  0.0090658678412630  2.8549827678474538
  7.1233589546345453  1.4274114624746599  4.2798750628676041
  5.6897034086904705  0.0049631452400536  5.6880299368987197
  7.1268849792845499  1.4308138180266086  7.1079416869983945
  5.7002877654954922  0.0025254457298743  8.5344781728674715
  7.1198994713598722  1.4265742544996993  9.9646706713846420
  5.7011247145247275  2.8550411397965427  0.0090658118412936
  7.1234250812816837  4.2798675969392477  1.4275221461302152
  5.7155165233664622  2.8672824121742138  2.8673158835452304
  7.1217896514061199  4.2796327359074438  4.2797713164203071
  5.6968047588862927  2.8503686152060461  5.6816040489124955
  7.1245250678580874  4.2734711123271092  7.1102854411492880
  5.7083744172216075  2.8619236319832515  8.5264169544220927
  7.1253904565773025  4.2781292921095950  9.9590636802773211
  5.6896969311356473  5.6880897747136405  0.0049606338103972
  7.1268686815309268  7.1079254282000708  1.4308138371560282
  5.6968067212000362  5.6816267217462491  2.8503680179173823
  7.1245249821730470  7.1102853806195983  4.2734710450029088
  5.6942254125218010  5.6893215681054299  5.6893110306322017
  7.1295455498921863  7.1052648417406399  7.1052648375440750
  5.6972205941115002  5.6934632175822451  8.5375745755803560
  7.1328770288614987  7.1020320584900487  9.9684780325185951
  5.7003321806284770  8.5345225769697404  0.0025255690151736
  7.1199101105643257  9.9649684980848079  1.4267916250228903
  5.7083934330694142  8.5264360003397730  2.8619235787270134
  7.1255042618809101  9.9590896457190876  4.2780438601948916
  5.6972357277445251  8.5375897274726995  5.6934631412087899
  7.1327782193648090  9.9684779277065978  7.1019332279791030
  5.7059611656240392  8.5288492129911617  8.5288493364033169
  7.1280988144253614  9.9707198733363853  9.9709430896546198
  8.5652630176877995  0.0225294814864915  0.0224279240927668
 10.0230775111085872  1.4786379567318786  1.4788752303086437
  8.5510110446122329  0.0143255730871850  2.8422119400456114
 10.0173076712786830  1.4857526721616860  4.2175392110939836
  8.5622669601529715  0.0212700262436632  5.6725442414376923
  9.9549427786382925  1.4275220787547607  7.1113854119335977
  8.5467204205507841  0.0049605759209635  8.5451135254919972
  9.9655035859581886  1.4247629699771984  9.9582661940850414
  8.5509775429673276  2.8422735480228520  0.0142702659516468
 10.0172712103154513  4.2175026529934101  1.4857524747871862
  8.4931915324290639  2.8502277242098479  2.8503308742104227
 10.0174881827835254  4.2173221696917729  4.2173221789397823
  8.5556119064889007  2.8477274597206947  5.6791870824484585
  9.9551776216965990  4.2797713132273341  7.1130207809339696
  8.5531835169255004  2.8503680204103858  8.5380036833822093
  9.9556394896320644  4.2789106064325360  9.9577993056289760
  8.5622661911670903  5.6725434481112504  0.0212701205753436
  9.9549352447564967  7.1114513355220650  1.4274113233195624
  8.5556231677565435  5.6791985063014234  2.8477274605558405
  9.9550390118759093  7.1130206604501742  4.2796326868437973
  8.5611557108757133  5.6736546345946817  5.6736546157336889
  9.9613392871860817  7.1102853620666782  7.1102854829168018
  8.5454887745645873  5.6893110139644403  8.5405849955341537
  9.9567666509060437  7.1093059688957592  9.9590896795930828
  8.5467804445697144  8.5451070141086873  0.0049630579624694
  9.9654006625254770  9.9580889005638777  1.4246561273620448
  8.5532063998071681  8.5380056914631268  2.8503685977403763
  9.9558997207248350  9.9577995095401182  4.2791709256279615
  8.5454993922650857  8.5405850013858355  5.6893216075966349
  9.9566810922111522  9.9590636902999972  7.1094201078949917
  8.5413472662464685  8.5375745872394830  8.5375898249152087
  9.9658503541520069  9.9641622507227652  9.9639851873501630
  2.8120200084188864  0.0349415484688400  0.0349420079541518
