Fe Pt
 1.0000000000000000
    11.4288262182530573    0.0000000000000000    0.0000000000000000
     0.0000000000000000   11.4288262133423153    0.0000000000000000
     0.0000000000000000    0.0000000000000000   11.4288262204615911
 Fe  Pt 
 126   2
Cartesian
 -0.0400213927051010 -0.0335419995950813 -0.0332863119608137
 -0.0248957696593712 -0.0330970286699650  2.8815285020241692
  1.4318599529864688  1.4254138818998898  4.2434780100072009
  0.0005320250452137 -0.0021039321393041  5.7064197113354878
  1.4249132393730659  1.4319864309667674  7.1417705756173708
 -0.0185699170790125  0.0025083303932204  8.5684230793489693
  1.3953169582788658  1.4621451840045145  9.9602016393709683
 -0.0243220991190095  2.8821023652216868 -0.0330971087155477
  1.4317926534344609  4.2434780799692771  1.4253465647215255
 -0.0364863840458296  2.8936929471083399  2.8936929736352703
  1.4315462475177299  4.3019124896219285  4.3017904688670887
 -0.0072131301793284  2.8649316535717104  5.7034951932813760
  1.4243434651648901  4.2936668593875593  7.1341537892342073
 -0.0301884390068887  2.8874758629724631  8.5477317438173639
  1.4310945884147384  4.2892398307122077  9.9813330160529325
  0.0007277331992925  5.7064340199553962 -0.0022897289201094
  1.4252200755429310  7.1417706425322773  1.4322933227842778
 -0.0077252331042481  5.7034951990718179  2.8644196112904527
  1.4242068564520209  7.1342008624175461  4.2934057859527304
 -0.0038188364768104  5.7189499243413024  5.7188880749499695
  1.4222861761144796  7.1328843201522769  7.1325988233566235
 -0.0107328048330126  5.7203992246032733  8.5566773537591221
  1.4263136752375116  7.1509955768918756 10.0009507288190029
 -0.0188898945468350  8.5681896124919454  0.0024913323635598
  1.3950613750261507  9.9602016145993488  1.4618895678126993
 -0.0302693055273268  8.5477317481183164  2.8873949311432137
  1.4311116994792341  9.9816529925426281  4.2890064880711627
 -0.0107435349757540  8.5566622042379414  5.7201094809308017
  1.4264993538244781 10.0007548977801832  7.1510098165126115
 -0.0242478126487026  8.5422430750478480  8.5419798386929049
  1.3955064287860710  9.9753272179801478  9.9759010417451996
  4.3258312125795939  1.4618895985961897  1.4621451957870195
  2.8907484800291856 -0.0332863650758497  2.8972278853474460
  4.3046998152924676  1.4261119515823117  4.2892398361981900
  2.8605897355350818 -0.0036900360424530  5.7156588173290626
  4.2850821258769027  1.4308929994480570  7.1509955436430213
  2.8540171335220657  0.0032566334892687  8.6139514421214027
  4.3101319128575639  1.4617002510613524  9.9753271880960757
  2.8904929325902273  2.8972278709481687 -0.0335419724165423
  4.3043798019177331  4.2890065173778451  1.4260948778388534
  2.8903035599069096  2.8815286231556336  2.8821022834910242
  4.3100576565851849  4.3154496801260382  4.3151863992848423
  2.8594962434424507  2.8564787844662471  5.7064338753951924
  4.2965426705489165  4.3007521478683790  7.1370302138452573
  2.8547151738369863  2.8760964035653314  8.5681896489036777
  4.3159983508279662  4.3096976876896536  9.9699535628932239
  2.8608965857915734  5.7156588450922188 -0.0033831511875012
  4.2852778778487419  7.1510098371535431  1.4307070772653832
  2.8593104008100507  5.7064196582813871  2.8566745355617464
  4.2965533273853804  7.1373199749451013  4.3007671989387628
  2.8635235810481303  5.7248306724191780  5.7245451116365640
  4.2896286138629129  7.1385414618587877  7.1384794978760437
  2.8614664257073210  5.7232756555975133  8.5637626008117493
  4.2930228812941200  7.1539343124620487  9.9924977603971392
  2.8539498341430778  8.6139514101762487  0.0031893954241996
  4.3107055085062989  9.9759008407270215  1.4617002807363817
  2.8546982140462833  8.5684230472522174  2.8757764525037510
  4.3160792398329502  9.9700344735300241  4.3096977361015769
  2.8616029768394893  8.5640236721767096  5.7232286024801331
  4.2935350134538721  9.9930099035165778  7.1539343451086692
  2.8542635730096624  8.5556389913466564  8.5555170210589608
  4.3222960355801909  9.9637366547062207  9.9637366424131777
  5.6720813943169706  0.0031893588369784  0.0032566756344249
  7.1442621690274821  1.4322933064275405  1.4319864286861175
  5.7178430893946643  0.0024913262253290  2.8760964239112026
  7.1518789704891601  1.4328630797908082  4.2936668244586418
  5.7222701219256491 -0.0042598071281878  5.7232756398226083
  7.1534340431133758  1.4349203174837202  7.1328843610459085
  5.7305157627910264  0.0029430291576268  8.5556389529001748
  7.1350229499262579  1.4307072332741617 10.0007548788834058
  5.7176097195683662  2.8757763876951494  0.0025083757664311
  7.1518318664666705  4.2934058190258693  1.4329997147794435
  5.7383010439933084  2.8873949998882100  2.8874759243400101
  7.1562460005035700  4.3032473086744742  4.3034146018665425
  5.7293555191563330  2.8679393744391519  5.7203992082337098
  7.1535986767297617  4.2936901583444689  7.1324242896127732
  5.7440529852567197  2.8814543811028361  8.5422430540908962
  7.1487128208576651  4.3007673000723630  9.9894794167904042
  5.7220091132173581  5.7232286152548300 -0.0043964572439671
  7.1531484260622378  7.1325987741682457  1.4349203532740893
  5.7293705618587119  5.7201094786031872  2.8679500714099238
  7.1536084118863945  7.1324340430481010  4.2936902273287680
  5.7222934203101392  5.7249954617768992  5.7250051990065947
  7.1512425571905105  7.1347902962927972  7.1347902008486423
  5.7318505937596722  5.7276427244821750  8.5540148115430803
  7.1474913059439826  7.1384795708880135  9.9964041233060712
  5.7303937437950934  8.5555170519999209  0.0029430012420602
  7.1350372526572468 10.0009506804294848  1.4308930101504596
  5.7437897279247494  8.5419797498721497  2.8814543749720993
  7.1490026068687662  9.9894901054596854  4.3007521261738075
  5.7320178791810434  8.5541822489623645  5.7276426947706671
  7.1475531510561501  9.9964041141814963  7.1385413715118231
  5.7456882774832501  8.5403445706057166  8.5403445406476077
  7.1320984784711721  9.9924977796683780  9.9930098344123834
  8.5703739168204294 -0.0033830822085288 -0.0036900289678852
 10.0425546877274279  1.4253466077945238  1.4254139121828577
  8.5795987738418358 -0.0022897412538094  2.8564787763691073
  9.9842422553072598  1.4256602427396889  4.3019124055641518
  8.5614875705559381 -0.0063169936224478  5.7248307390458066
  9.9926269284036575  1.4329996677776520  7.1342008696006083
  8.5628041312300081 -0.0043964826636565  8.5640237937447878
  9.9970262963371894  1.4260948333791839  9.9816530625953082
  8.5796130741348211  2.8566745890602858 -0.0021039146421214
  9.9841203210810079  4.3017904635704856  1.4256602839603172
  8.5825375757077964  2.8644195606466787  2.8649317389739473
  9.9689477388980698  4.3170849608457242  4.3170850002826873
  8.5671447468051749  2.8610253636348149  5.7189499797471344
  9.9827855288520482  4.3034146043581742  7.1297868767579899
  8.5659232851913050  2.8679501026278054  8.5566622760113198
  9.9705831322550633  4.3151864697244644  9.9759751827497567
  8.5612020324956433  5.7245452302725299 -0.0063170710210204
  9.9923658415081675  7.1341538205599662  1.4328630833002276
  8.5670828449653218  5.7188879262663068  2.8610253942585784
  9.9826181674845476  7.1297867800595540  4.3032472193783278
  8.5633934077321712  5.7226393258357993  5.7226394843346942
  9.9923426118218384  7.1324243001654111  7.1324340637412975
  8.5610373569081037  5.7250052197482431  8.5637392927364466
  9.9852804861843758  7.1370302264287089  9.9894901111751011
  8.5627570980937531  8.5637627444529798 -0.0042597948799220
  9.9967929331781882  9.9813329918400147  1.4261120195721730
  8.5656335157522534  8.5566772561792952  2.8679394072616629
  9.9708463413649255  9.9759752532662027  4.3154496409229264
  8.5610276090300328  8.5637392390474787  5.7249954007141790
  9.9852654669381060  9.9894794145697077  7.1373199939092782
  8.5583901092856749  8.5540148914498744  8.5541822080049510
  9.9763349915647677  9.9699535482499613  9.9700345249454614
  2.8819288914053494 -0.0247222910005852 -0.0247222723830678
  1.4038808965985590  1.4533255572592640  1.4533255777317480
