Fe Mn
 1.0000000000000000
    11.3744767909467761    0.0000000000000000    0.0000000000000000
     0.0000000000000000   11.3744767896835342    0.0000000000000000
     0.0000000000000000    0.0000000000000000   11.3744767994518128
 Fe  Mn 
 127   1
Cartesian
  0.0137700643322279  0.0000000265216577 -0.0000000315372338
  1.4411167091033623  1.4025025868225971  1.4025025308477348
  0.0085869283428293  0.0000000554561738  2.8350321843070110
  1.4261730559551187  1.4175069256839310  4.2527518730671749
  0.0012603960265583 -0.0000002009760888  5.6872382538995865
  1.4261124385173902  1.4174462289544749  7.1217248167965312
  0.0085868365070112 -0.0000001389928209  8.5394447410898717
  1.4411165342737808  1.4025026659971438  9.9719742985938140
  0.0085870390987620  2.8350322347881574 -0.0000000734356118
  1.4261124353484993  4.2527518626970249  1.4174460059887593
  0.0061400469455598  2.8374790264589875  2.8374792238654090
  1.4217179091589105  4.2680160166368291  4.2679583731622888
  0.0058300214366299  2.8377893744959528  5.6872384416208046
  1.4217179380970131  4.2679582205169559  7.1064606532197905
  0.0061399536559445  2.8374789680960939  8.5369978964373736
  1.4261731848830173  4.2527517767728025  9.9569699449882556
  0.0012601910247965  5.6872384348348897  0.0000000730670498
  1.4261731343370145  7.1217249294589049  1.4175068770820802
  0.0058299801846844  5.6872382590806483  2.8377893794730746
  1.4217180640141731  7.1065185437020437  4.2680159349824613
  0.0017260742747455  5.6872382882409225  5.6872385330603334
  1.4217179795619017  7.1064604979035169  7.1065184441172553
  0.0058299725677665  5.6872383468594361  8.5366873594637998
  1.4261123693105875  7.1217250508037475  9.9570307908904461
  0.0085870855925102  8.5394444720664371 -0.0000001274898707
  1.4411166840755856  9.9719741381271181  1.4025026418995921
  0.0061401915508922  8.5369978308051557  2.8374791209733226
  1.4261122140498363  9.9570306281135199  4.2527518638167185
  0.0058296376380861  8.5366876415057291  5.6872382214698165
  1.4261730351722672  9.9569700386480289  7.1217248499536714
  0.0061400055359952  8.5369979850048434  8.5369978898640237
  1.4411165759531523  9.9719740475353547  9.9719742092776951
  4.2461219002768065  1.4025024240167383  1.4025024020315608
  2.8436192657055575 -0.0000000679485145  2.8298492646763860
  4.2611261299980976  1.4174461455593728  4.2527520861640964
  2.8436193488291015 -0.0000000961461913  5.6872383944804881
  4.2610653555054547  1.4175067861187123  7.1217249001846685
  2.8436194342579908  0.0000000615836213  8.5446273818766212
  4.2461218806529475  1.4025024589143391  9.9719741291854991
  2.8436190370741072  2.8298495151983323  0.0000000018757803
  4.2610653101098439  4.2527519404201390  1.4175067617025332
  2.8436190718487153  2.8350321812741575  2.8350322078015053
  4.2655205330977655  4.2679584793633154  4.2680161062835094
  2.8436190644176689  2.8423588403733429  5.6872385601334878
  4.2655203753198911  4.2680161969783041  7.1065185992420199
  2.8436191237509436  2.8350321803172212  8.5394445141660746
  4.2611260427842783  4.2527519779087548  9.9570306364791925
  2.8436191262121762  5.6872383217826092  0.0000000891848329
  4.2611259794173089  7.1217248773725350  1.4174460999452561
  2.8436191278629690  5.6872385308197151  2.8423589494274815
  4.2655202723261407  7.1064605905439695  4.2679584619390916
  2.8436192297148701  5.6872384874836284  5.6872384480963154
  4.2655205116927366  7.1065184471276934  7.1064607381613421
  2.8436193814082613  5.6872383663014991  8.5321178243233256
  4.2610652681266901  7.1217249616867102  9.9569697922321438
  2.8436190102902912  8.5446272676478756 -0.0000001335211237
  4.2461219419370382  9.9719743284633697  1.4025026302849519
  2.8436190405456507  8.5394445603589322  2.8350320671635392
  4.2610651131751744  9.9569700850952394  4.2527520113897115
  2.8436193196107449  8.5321178798449111  5.6872382659580891
  4.2611261660312598  9.9570309354374267  7.1217249019589106
  2.8436192209216640  8.5394444828518452  8.5394448711864221
  4.2461219220817110  9.9719742499536661  9.9719739970325971
  5.6734683972204589  0.0000002665931324  0.0000001024165064
  7.0963709716606944  1.4175067525259712  1.4174461775065978
  5.6786515660921371 -0.0000000247557212  2.8350320078973117
  7.1116352315269031  1.4219013036863715  4.2679582958360642
  5.6859779057391728  0.0000001087393995  5.6872384545547083
  7.1115775036602296  1.4219012641037192  7.1064605728886683
  5.6786512141341765 -0.0000001406830349  8.5394445608941876
  7.0963710986103603  1.4174461118773403  9.9569699520075314
  5.6786514230812291  2.8350322383164324  0.0000001465541761
  7.1115774180671867  4.2680161022979544  1.4219012150701138
  5.6810984073311150  2.8374790848579852  2.8374790366105023
  7.1039190220288155  4.2602997898644928  4.2602996623133835
  5.6814087829232918  2.8377891740435852  5.6872384799958908
  7.1039191081161848  4.2602997836531094  7.1141768758118715
  5.6810982796131473  2.8374789760704098  8.5369976612402070
  7.1116353595309603  4.2679584050271870  9.9525758171588610
  5.6859781949985662  5.6872382404685515  0.0000001003340374
  7.1116353348333945  7.1065185993824747  1.4219015320937516
  5.6814086241943738  5.6872383918145486  2.8377894853243975
  7.1039190007845621  7.1141768142920432  4.2602995277189208
  5.6855124599564864  5.6872384625115160  5.6872384403054106
  7.1039188005465892  7.1141769499532312  7.1141769813671702
  5.6814083889775073  5.6872384405025382  8.5366873003972863
  7.1115776017607732  7.1064607599031291  9.9525756749719871
  5.6786513982468003  8.5394445823253982 -0.0000000715755611
  7.0963709349411053  9.9570307638565296  1.4175071711475820
  5.6810986046035215  8.5369977764230711  2.8374788225348526
  7.1115775975818618  9.9525756532575720  4.2680157869237805
  5.6814084852015307  8.5366874495638143  5.6872386535005761
  7.1116353420954557  9.9525756065285531  7.1065184444013978
  5.6810982197462705  8.5369978168384062  8.5369978249256810
  7.0963710312228203  9.9569698193690090  9.9570306400517765
  8.5308575375905882  0.0000001197353323  0.0000000067362059
  9.9653441376853333  1.4174461383622643  1.4175068686297352
  8.5308574447734919 -0.0000000011457998  2.8423588896432355
  9.9501378038292145  1.4219011772703416  4.2680158369226451
  8.5308575585473374 -0.0000000839079154  5.6872382937594512
  9.9500799222861716  1.4219012913051068  7.1065186655108032
  8.5308576657882966 -0.0000000717821169  8.5321179263420674
  9.9653441325278589  1.4175068815919423  9.9570305380091710
  8.5308576661380702  2.8423590846215925 -0.0000001324223714
  9.9500799618774529  4.2679581969828018  1.4219012364149155
  8.5308576984106619  2.8377891863813494  2.8377893601155857
  9.9577963055887881  4.2602997041760524  4.2602996270150095
  8.5308574204767886  2.8418932452050356  5.6872384814740142
  9.9577961680378984  4.2602997817189996  7.1141771184033153
  8.5308577631603804  2.8377893059956567  8.5366874832553492
  9.9501374806752985  4.2680159078263369  9.9525756013829625
  8.5308575778091829  5.6872382603846221 -0.0000000373123076
  9.9501377759227214  7.1064607186348994  1.4219010848211036
  8.5308573162982775  5.6872385135617529  2.8418931823806504
  9.9577962406181797  7.1141772085016051  4.2603000098878736
  8.5308574396655921  5.6872383989331325  5.6872384284289916
  9.9577962459515632  7.1141770801827588  7.1141769127139831
  8.5308575666209219  5.6872382777774737  8.5325837630702779
  9.9500799231697243  7.1065186534352174  9.9525757234971532
  8.5308577286438183  8.5321177589786377 -0.0000001711719221
  9.9653442204465179  9.9569699745273503  1.4174461469955950
  8.5308574258691632  8.5366874870341096  2.8377893568175447
  9.9500800946833348  9.9525754167686920  4.2679584507503350
  8.5308578941054680  8.5325836800025741  5.6872384148274397
  9.9501376351100976  9.9525753813000115  7.1064607730191067
  8.5308576824415514  8.5366877078631411  8.5366876344858174
  9.9653442282122651  9.9570306504001245  9.9569697308705365
  2.8436191994275992  0.0000000827781417  0.0000000963552985
