Fe Cr
 1.0000000000000000
    11.3664190108396301    0.0000000000000000    0.0000000000000000
     0.0000000000000000   11.3678993368910426    0.0000000000000000
     0.0000000000000000    0.0000000000000000   11.3664272304540255
 Fe  Cr 
 126   1
Cartesian
  0.0210874649632285 -0.0008051880363094 -0.0013220966756132
  1.4256923896306271  1.3723645736430354  1.4160339847712109
  0.0035327937989505 -0.0019185120136113  2.8380918414017122
  1.4240656860681018  1.4298501307342784  4.2460484015006879
  0.0034306899375556  0.0010115199905436  5.6827737895830133
  1.4243618911181963  1.4257691111109239  7.1090644990603353
  0.0056700881456266  0.0006181578541067  8.5303022142670546
  1.4262342054342885  1.4254662721221070  9.9633638859015488
  0.0597783282283089  2.8888288550447427  0.0561985305881672
  0.0548913667696867  2.9014246581906495  2.7866750685330590
  1.4212540809370831  4.2670698681580257  4.3037801779594709
 -0.0001960006733264  2.8397369754424560  5.6847879963122621
  1.4211350355976080  4.2665065302644587  7.1014570440159339
 -0.0069850689578853  2.8471790359568985  8.5162607003195827
  1.4252143659750314  4.2570265632247253  9.9117740838864368
  0.0563962159868103  5.6322744863598961  0.0532497210698862
  1.4235338233734640  7.1513982625205434  1.4183966438752709
  0.0545117990096916  5.6338549116237715  2.7871734823031611
  1.4203396518494980  7.0909597334965264  4.2541797758693560
 -0.0018296510397674  5.6855153836437049  5.6854945906080747
  1.4202657159176884  7.0933243302419884  7.1019894221346318
 -0.0008647573310100  5.6844466301490293  8.5256799193508819
  1.4221335159742650  7.1007105328832925  9.9587499988302177
  0.0017654885344898  8.5326224704675635 -0.0015764117929714
  1.4309913849419100  9.9562985602236207  1.4105837278794209
 -0.0091515791605766  8.5202941830402139  2.8506839430628070
  1.4242888669827016  9.9495393065227251  4.2483634292469983
  0.0009285459026581  8.5261594160010610  5.6824741497860547
  1.4233522487704642  9.9494123847902802  7.1079593851217764
 -0.0059882874425114  8.5200371516978155  8.5180183872376958
  1.4238428443006734  9.9521382633545752  9.9598996792100696
  4.2447010761015962  1.4252531048520467  1.4152390447161913
  2.8429210422331250 -0.0008423379543822  2.8204073810622496
  4.2410116064299146  1.4359037185619892  4.2397151503065729
  2.8404322153434838  0.0008094380522304  5.6802094746751175
  4.2532346843304465  1.4224561224755203  7.1110039256708149
  2.8390759905291483 -0.0009740999097179  8.5422604988010935
  4.2369124933139357  1.4304409154986293  9.9710658527900229
  2.7822282627933985  2.8800781367946837  0.0593803266541803
  4.2961601360790462  4.2571620801116845  1.4167535415201804
  2.7851446572877157  2.8890101003071842  2.7815439102011825
  4.2471495166937192  4.2641705676516901  4.2511312859907093
  2.8420921183462489  2.8379759776337612  5.6840340843833737
  4.2522515777132028  4.2649795662328343  7.1024152046231768
  2.8422323605208208  2.8325441614342490  8.5301474478368160
  4.2440374981215241  4.2548982232090742  9.9641832014280993
  2.7890389102433097  5.6351873122468703  0.0526651861581780
  4.2495377140735373  7.1007181164760738  1.4192764517833585
  2.7884257901561234  5.6324078320636266  2.7854061999904780
  4.2454018535266771  7.0851454233336586  4.2466296827993713
  2.8442478021220050  5.6861758042235202  5.6852090007336429
  4.2584407246284224  7.0974395617662678  7.1030337405778052
  2.8422722831969116  5.6855393981518576  8.5272910024155841
  4.2428375081598864  7.0929300190597511  9.9650555251549786
  2.8435857023587081  8.5460576573455960 -0.0019210127929762
  4.2481147171190239  9.9520409681712483  1.4177473287792162
  2.8432049658626695  8.5326682276704116  2.8399527211109232
  4.2544488598869794  9.9502940770916908  4.2520393657429540
  2.8409946129182817  8.5275662872834204  5.6829522881816228
  4.2573292293829681  9.9505916384747710  7.1083673255233162
  2.8399506003222816  8.5308149214531408  8.5292882504100476
  4.2537621330476449  9.9505549073458841  9.9542535863857005
  5.6657105650703876 -0.0010024099529615  0.0024589029316079
  7.0990423018301323  1.4259928812031726  1.4169759004114646
  5.6777562099975096  0.0006979592542875  2.8359695915510192
  7.1065376017197508  1.4267995452409212  4.2600679025181858
  5.6722549021211108  0.0087718355034933  5.6749140063726315
  7.1068294194661696  1.4242908926138185  7.1010888695617931
  5.6711044078325727  0.0084507531591088  8.5369060505286427
  7.0969861326734609  1.4222684014869562  9.9545078014418582
  5.6778026280797063  2.8324940158111183 -0.0004759456947890
  7.1065359023292780  4.2665633043934701  1.4205080211231702
  5.6917410362702467  2.8471966361771495  2.8487026061248759
  7.1035579595502094  4.2625602010784398  4.2538482966713760
  5.6806493227274490  2.8421293279732431  5.6834064795748747
  7.1041055148173555  4.2629371760495065  7.1039123922202352
  5.6882389509106774  2.8488641934233931  8.5198040341021262
  7.1056636529215309  4.2648619261431993  9.9557580215114783
  5.6807741627502422  5.6853834425268976 -0.0007481164402930
  7.1061385937641059  7.0933887879528896  1.4213653605569134
  5.6824117637981644  5.6845620555016163  2.8424764695415088
  7.1026783059192997  7.0991490330362508  4.2580562908089847
  5.6801565878023208  5.6816140617779523  5.6819532185891761
  7.1037591070181483  7.1011506248182741  7.1042550514917888
  5.6811863380575796  5.6806761822616760  8.5267972904210261
  7.1048912830066451  7.0973562225385498  9.9496148385553358
  5.6787922193610507  8.5307671093592354  0.0016722530245682
  7.1000586471887912  9.9496580731449384  1.4184467861526400
  5.6899995916754857  8.5201166365527286  2.8475977909390737
  7.1065842423157628  9.9472524360222589  4.2633209875670488
  5.6742841912373763  8.5190138175374930  5.6754273584068038
  7.1073216394079317  9.9467386730882357  7.1007780395124538
  5.6816617313710980  8.5129255481349446  8.5263678644034790
  7.0996589942319357  9.9503506487976665  9.9508896779489273
  8.5277680638740989  0.0008333935763514  0.0010952394535275
  9.9619974953862300  1.4296342819791663  1.4176251092798369
  8.5253122953424416  0.0010121682034642  2.8381534337442322
  9.9627716962392459  1.4421789891795527  4.2453828092071664
  8.5334723622958784  0.0095514924365436  5.6745749523016338
  9.9478508297106103  1.4267852553996880  7.1016204703730486
  8.5330611049439984  0.0086955390104077  8.5357289236648093
  9.9682209060276712  1.4360213638059227  9.9670883617556765
  8.5240155613849620  2.8380507923339606 -0.0006626437899917
  9.9042566540686092  4.2669565098443663  1.4203427516047686
  8.5232811371086807  2.8396288435461683  2.8416607642432012
  9.9594646905360680  4.2623973749361612  4.2485691469615157
  8.5262502554952491  2.8430638064928617  5.6817348734262785
  9.9541866919707598  4.2626441064236547  7.1044769379794550
  8.5246285837072584  2.8421661232541839  8.5272729863182715
  9.9569822460495345  4.2642699877595236  9.9608439122755321
  8.5228458943950667  5.6862130737814587 -0.0025593881824952
  9.9539761099964110  7.0908034119896186  1.4212690456360975
  8.5225530663943090  5.6853945563135904  2.8435201102857111
  9.9634165227313201  7.0858918429724662  4.2446089334742361
  8.5260048491636091  5.6819053962966901  5.6820621420941579
  9.9499982358284367  7.0991171679394132  7.1054064633524794
  8.5260038775486553  5.6816023875202868  8.5279241449615135
  9.9613819118045033  7.0851718971957798  9.9626850145928394
  8.5250909739015341  8.5275811632385565  0.0006121529092624
  9.9596459847031138  9.9493304471803938  1.4171050097982039
  8.5255060814625718  8.5261301405441543  2.8406484236780307
  9.9482814170750675  9.9478567741510968  4.2596610204988083
  8.5328480619970488  8.5177723434352561  5.6752039433367836
  9.9447825130543563  9.9472041162855529  7.1013673953974381
  8.5325947033489342  8.5189790304424609  8.5337514707046207
  9.9560063073442659  9.9504122653747409  9.9533853873329736
  2.8544708450402378 -0.0089466172173977 -0.0130086775616262
