Fe Hf
 1.0000000000000000
    11.4000519405851346    0.0000000000000000    0.0000000000000000
     0.0000000000000000   11.3779229569256621    0.0000000000000000
     0.0000000000000000    0.0000000000000000   11.4000519498389004
 Fe  Hf 
 126   2
Cartesian
 -0.0061113861930595  0.0163373546142563  0.0004219581760238
  1.2388732905796496  1.4222402880900924  1.6111396916303107
 -0.0265653867841082 -0.0154659661463696  2.8768213158043170
  1.4211214016029272  1.4224171782788808  4.2597464896735335
 -0.0108329807297565 -0.0037169222484418  5.7000440017472922
  1.4211213519179544  1.4220637518541921  7.1403056321321641
 -0.0268085881826112 -0.0154657213710346  8.5234732830207829
  1.2388730723614501  1.4222400815460847  9.7889119798135233
 -0.0061117649733919  2.8281432480506736 -0.0004218292826351
  1.3100011493719719  4.3359895755033540  1.5401701902824001
 -0.0268088249203507  2.8599465884726718  2.8765786126612674
  1.4238064975176192  4.2652905832995183  4.2623840601832894
 -0.0108332690701288  2.8481974044471086  5.7000079422684182
  1.4239741164631556  4.2652549478331387  7.1376782219621369
 -0.0265657984237345  2.8599467867209749  8.5232301923475795
  1.3098429864326508  4.3359892998830043  9.8600398771389219
  0.0237966043763380  5.6692224635473538  0.0000373946354991
  1.4251344872265648  7.1112016904759736  1.4248781417198857
 -0.0390274698799581  5.7258267045346418  2.8889835593070097
  1.4306412267721649  7.1112398317880396  4.2715583760842026
 -0.0036113324534304  5.6971855329824006  5.7000080157434665
  1.4306413295885956  7.1111639090844365  7.1284935931985309
 -0.0389706477064492  5.7258268621429069  8.5110116832282348
  1.4251347953076470  7.1112020147116031  9.9751738487516075
  0.0237964878705019  8.5531810228342167 -0.0000373166243823
  1.3098428302483232  9.8864144746624394  1.5400121235244366
 -0.0389706619665948  8.4965767787840534  2.8890404346245053
  1.4239741143622331  9.9571488697419053  4.2623737351750925
 -0.0036108591126427  8.5252183359275868  5.7000436609995671
  1.4238066116487924  9.9571134894976936  7.1376677595903182
 -0.0390273463877230  8.4965769182973929  8.5110684227006939
  1.3100010651223875  9.8864142476496077  9.8598818386176088
  4.4611527080162618  1.4222404890097742  1.6111397935746059
  2.8504350586152860  0.0163374244158125  2.8561246150178037
  4.2789043294386877  1.4220638228683635  4.2597465052157233
  2.8500131870476739 -0.0057424556272777  5.7000261961657088
  4.2789046184207589  1.4224170234200215  7.1403052811119680
  2.8495910025054902  0.0163377014544589  8.5439276437711626
  4.4611524174237616  1.4222404202037824  9.7889124308307593
  4.3901830108954618  4.3359893346962926  1.5400119896825142
  2.8495910609135890  2.8281434051546506  2.8561246708662349
  4.2760515521300979  4.2652546826847413  4.2623736245447548
  2.8500129624048571  2.8502230591354589  5.7000261262777698
  4.2762194654708461  4.2652904768302120  7.1376680810304247
  2.8504349837713239  2.8281434789911191  8.5439274620327961
  4.3900246402334657  4.3359893800646905  9.8598821748161747
  2.8500130044656413  5.7194276144318366 -0.0000000022200527
  4.2748914849925441  7.1112017831684904  1.4248781900000962
  2.8500501027771379  5.6692222463167710  2.8262167835295697
  4.2693847243291945  7.1111638238320278  4.2715584385301595
  2.8500129533174134  5.6910874088883290  5.7000258837734501
  4.2693847471422499  7.1112400106132219  7.1284933689988463
  2.8499756705848576  5.6692225583428364  8.5738356333842809
  4.2748909985569004  7.1112020374025660  9.9751740225152954
  2.8500129433700554  8.5029759713757649  0.0000000223719251
  4.3900251881898180  9.8864142213321351  1.5401702255932632
  2.8499755553933888  8.5531812624716697  2.8262164768937361
  4.2762194186210838  9.9571134532952836  4.2623837410941841
  2.8500130138301238  8.5313162371015920  5.7000262559318378
  4.2760517370215263  9.9571488541986781  7.1376781256611537
  2.8500506701896398  8.5531809373931491  8.5738355681799181
  4.3901826885995687  9.8864142306167846  9.8600399532534464
  5.7061375532962781  0.0163375916796384 -0.0004219328907446
  7.1097594860943625  1.4224169417748653  1.4288915777341267
  5.7268346859575585 -0.0154661033938511  2.8765787141314472
  7.1310761677274392  1.4222402972180268  4.2810632869330014
  5.7108588320590634 -0.0037167921283927  5.7000080928372094
  7.1310763575870677  1.4222401880486299  7.1189886931290012
  5.7265917891294853 -0.0154661613575155  8.5232305998789482
  7.1097595883669573  1.4220636672949285  9.9711605212745553
  5.7061372363462306  2.8281432910228723  0.0004222620452796
  7.1123969514691714  4.2652904212014766  1.4262063653149879
  5.7265917241168944  2.8599467393612681  2.8768216518496881
  7.1365677165943699  4.2810123565409866  4.2865513455990252
  5.7108589142760531  2.8481975752654436  5.7000439060589967
  7.1365643131439152  4.2810125319597763  7.1134974608985537
  5.7268343958001404  2.8599469259712338  8.5234732547188035
  7.1123866404793841  4.2652547942296586  9.9740131626290793
  5.6762293569444333  5.6692227179571901 -0.0000372338579705
  7.1215713746434108  7.1112398561853620  1.4193717015250742
  5.7389966253488307  5.7258266776538074  2.8890402959639259
  7.1507407877816105  7.1112018825801817  4.3007277081641258
  5.7036372650028602  5.6971856272949442  5.7000437596864293
  7.1507407256249369  7.1112018461679067  7.0993244207601514
  5.7390534089304905  5.7258267949609358  8.5110682755609233
  7.1215714467640288  7.1111637155738912  9.9806803710097931
  5.6762293693811854  8.5531812177978441  0.0000373063589944
  7.1123866145703367  9.9571491755960757  1.4260391060515996
  5.7390531556989979  8.4965770926678577  2.8889835526134982
  7.1365643951788176  9.9413915182001720  4.2865546346398169
  5.7036369227248480  8.5252183147759251  5.7000081192173564
  7.1365675542670264  9.9413914761895814  7.1135006346579930
  5.7389966889130450  8.4965769440214824  8.5110116500751314
  7.1123968634614574  9.9571135394256576  9.9738455385588995
  8.5500390298792741 -0.0057421009594225  0.0000000450625238
  9.9903184065201067  1.4220636687897339  1.4288915603486960
  8.5500563293981653 -0.0037168405981633  2.8608457367654880
  9.9690018737044799  1.4222406280896880  4.2810631631298550
  8.5500390297246334 -0.0128682911405663  5.7000263361683778
  9.9690016643205848  1.4222400532470203  7.1189890264118887
  8.5500209895750601 -0.0037168913462852  8.5392062505629820
  9.9903184613808094  1.4224171523481743  9.9711606069644709
  8.5500390089000842  2.8502231587362608  0.0000001667001656
  9.9876911588585386  4.2652548019885295  1.4260388766352221
  8.5500209848832949  2.8481976601123487  2.8608457115627508
  9.9635135298635031  4.2810122487280671  4.2865548524161490
  8.5500390871374226  2.8573491142728220  5.7000257820416103
  9.9635102839220835  4.2810124039417161  7.1135004437115521
  8.5500569461019023  2.8481977340595694  8.5392060367103042
  9.9876811472982379  4.2652903818419334  9.9738456495073002
  8.5500388518808776  5.6910873971718079  0.0000001425397608
  9.9785065103773007  7.1111641126346639  1.4193717716721845
  8.5500210614552046  5.6971854921911635  2.8536242141869170
  9.9493371402512913  7.1112019338904187  4.3007276621307557
  8.5500388782323125  5.6893655444185249  5.7000261558505843
  9.9493371102344934  7.1112020950662487  7.0993243180254133
  8.5500564320927310  5.6971855068153943  8.5464276681111109
  9.9785064519680091  7.1112397541070660  9.9806801925200652
  8.5500389905408110  8.5313160911238253  0.0000000291312704
  9.9876811921949145  9.9571132829437943  1.4262063708378634
  8.5500568868124116  8.5252181939188425  2.8536243315004746
  9.9635100691072527  9.9413911153004619  4.2865517127784480
  8.5500389704598412  8.5330380229813994  5.7000260090979289
  9.9635136906229995  9.9413914197981832  7.1134970705841019
  8.5500211761055365  8.5252180281311887  8.5464278546942101
  9.9876910733915505  9.9571490156484064  9.9740132116321778
  2.8500129551643356 -0.1509354941727164 -0.0000000221388918
  2.8500133505493128  2.9954158171254659 -0.0000001342670030
