Fe Zr
 1.0000000000000000
    11.3713120025100469    0.0000000000000000    0.0000000000000000
     0.0000000000000000   11.3713120024684926    0.0000000000000000
     0.0000000000000000    0.0000000000000000   11.3713120062106139
 Fe  Zr 
 126   1
Cartesian
 -0.1537264736497699 -0.0970619630941601 -0.0976015748770884
  0.1190180232133310  2.7238099760675092  2.7238100158015079
  0.0650417277715693 -0.0122456456490479  2.7772963083810418
  1.4658875577995913  1.3771871414871013  4.2167248318933304
  0.0222099326510833 -0.0217493803948139  5.6668308846498539
  1.4342232946086440  1.4086788524922282  7.0952800383670755
  0.0050842145171291 -0.0318586780761319  8.5207582430306452
  1.3571082436287134  1.4851718206045077  9.7625648814605093
  0.0655316843632276  2.7777862860396354 -0.0122456312223666
  1.4656409250070765  4.2167248225493550  1.3769404987115765
  1.4457724725433769  4.2109008417739267  4.2106482702922596
  0.0265217016337442  2.8164748856252357  5.6552708122894071
  1.4412123665560763  4.2457405038471734  7.0894929621316347
 -0.0054490079206617  2.8482891627071725  8.4806103158972483
  1.4230824273941358  4.2379922711096860  9.9211023225341055
  0.0222313348959910  5.6670173288883499 -0.0218506336796449
  1.4341491091330634  7.0952799863539520  1.4086046526606228
  0.0263531378475437  5.6552708704929318  2.8163063677907014
  1.4411370097808045  7.0894231954046436  4.2457595644608368
  0.0274223448838672  5.6630901926880304  5.6629476675428325
  1.4400487300784097  7.0929693520662074  7.0931545417355073
  0.0059472132313851  5.6685839184841518  8.4979139901601553
  1.4333118090090411  7.0918642293480207  9.9386022268809207
  0.0050051543933474  8.5208850376933949 -0.0318307749588621
  1.3576562265730578  9.7625648451419007  1.4857197212896847
 -0.0054611969811098  8.4806102736475868  2.8482770940650468
  1.4230571818537938  9.9211863685684687  4.2381169211283254
  0.0061280852453843  8.4980453870012997  5.6686415921047875
  1.4334148528009241  9.9385874846459608  7.0920471931322639
  0.0148066591255453  8.5210151769892999  8.5208471125415528
  1.4425194714551239  9.9815058096124361  9.9819894319607751
  4.4515751482773043  1.4857197959221899  1.4851717981524757
  2.9398899641156224 -0.0976015912194589  2.9965545331918442
  4.2930376689761172  1.4197454871342521  4.2379921964988281
  2.8637466559483777 -0.0208393157032211  5.6633576212090482
  4.2755377600240729  1.4095161889427734  7.0918642376842671
  2.8319176279766114  0.0111618935508556  8.5425553238474308
  4.2321505458762045  1.4003086103913953  9.9815058994375203
  2.9404296307138096  2.9965545256549264 -0.0970620251446469
  4.2929536919347644  4.2381169144901536  1.4197708731969294
  2.8550736316853382  2.7772963052822037  2.7777862851396709
  4.2834359793811929  4.2381852978451429  4.2380213594853720
  2.8646786077463786  2.8205967011656186  5.6670173443646581
  4.2920909591331524  4.2610193255010458  7.0905837767434035
  2.8746588003943123  2.8378228745385603  8.5208850704280472
  4.3032703742668703  4.2779208539207625  9.9108541260403342
  2.8636672567286761  5.6633576321583261 -0.0209186590425169
  4.2755524757135444  7.0920471311718840  1.4094131909045622
  2.8645773336236258  5.6668308930545761  2.8206180969898531
  4.2919131529830814  7.0905230042655001  4.2608935252060602
  2.8582770412106289  5.6659569223694213  5.6661445234526600
  4.2702774094728513  7.0964579050520387  7.0963120711160741
  2.8568372189743418  5.6694060271061133  8.5134876071979981
  4.2710458530253099  7.1039823018426880  9.9429198590279970
  2.8316660751648728  8.5425552845863759  0.0109103276702503
  4.2326341552884230  9.9819894195731678  1.4003085077790189
  2.8746867595428327  8.5207582736992080  2.8377438628189200
  4.3032858110299470  9.9108696143308599  4.2779208926972920
  2.8569153389934319  8.5134737963565978  5.6694740807929991
  4.2712201242904326  9.9430941360489165  7.1039823007315368
  2.8519585545893889  8.5487070289269766  8.5484503497099311
  4.1784744816417438 10.0356654929284499 10.0356655181164829
  5.6715846292842649  0.0109102983912921  0.0111619252658554
  7.1188599283566365  1.4086046256965084  1.4086788242532104
  5.6932549765714535 -0.0318308015794126  2.8378229369178554
  7.1246470095894310  1.4016156234790047  4.2457405487965287
  5.7006524815944006 -0.0140092159649829  5.6694059424185053
  7.1209854944865176  1.4027792411096278  7.0929692937673137
  5.6656897266298305 -0.0091305671278338  8.5487070892309358
  7.1220928487838213  1.4094131928631535  9.9385875459512860
  5.6933817524989765  2.8377438056859177 -0.0318587388124531
  7.1247167920159287  4.2457595154216232  1.4016909626170495
  5.7335296760622114  2.8482770088059399  2.8482891517812727
  7.1452546358347364  4.2543822923964445  4.2541756320335491
  5.7162260857180351  2.8368808024142780  5.6685838803061612
  7.1219286259998880  4.2518538271221216  7.0921767662991178
  5.6932929448327743  2.8280213314951084  8.5210151444953937
  7.1236170274801784  4.2608934976050969  9.9222268390566111
  5.7006662221523614  5.6694740992801256 -0.0140873048414456
  7.1211707026334796  7.0931545641264382  1.4027792823237750
  5.7160946181296470  5.6686415689615011  2.8366999221389690
  7.1219632294126800  7.0922114270042984  4.2518538578042051
  5.7067149418147824  5.6671918520573197  5.6672287875589236
  7.1240452805751771  7.0900946917512249  7.0900946985216731
  5.7090799184342611  5.6902671093584125  8.5052655375089401
  7.1176821318775811  7.0963120155296613  9.9438625639257232
  5.6654329088473672  8.5484503509618524 -0.0091305226445875
  7.1222757840280533  9.9386022062858181  1.4095161781683423
  5.6931248281073596  8.5208470995397967  2.8280213580382467
  7.1235562438954050  9.9220490033020496  4.2610192939074274
  5.7088744428975646  8.5050600673320975  5.6902671243673959
  7.1178279403761646  9.9438625429658352  7.0964579689184832
  5.6777490202360301  8.5363909351107115  8.5363910136180667
  7.1101576366422190  9.9429198649424855  9.9430941966415265
  8.5507824157100583 -0.0209186500716009 -0.0208392661800365
  9.9974151440803336  1.3769403894526435  1.3771871526194019
  8.5471227091977191 -0.0218506243063112  2.8205966865900733
 10.0034917434792874  1.3970554951490521  4.2109008085698187
  8.5479955189711809 -0.0154490783803929  5.6659569365594225
  9.9683804627038075  1.4016910215416791  7.0894232760902831
  8.5446659029278962 -0.0140874170772377  8.5134738033908501
  9.9760230656984792  1.4197707858941460  9.9211863513642431
  8.5473090856782150  2.8206181150035134 -0.0217493408954797
 10.0032391379128072  4.2106482445560021  1.3970555006703111
  8.5588692244912252  2.8163063289204855  2.8164748811119651
  9.9909605152595375  4.2231795272026140  4.2231795394841267
  8.5511923187097629  2.8154055729093832  5.6630902435580088
  9.9597577301858404  4.2541756119089502  7.0688853613755080
  8.5454984874958697  2.8366999213643753  8.4980453848467654
  9.9759546619985695  4.2380212802131929  9.9307040619565576
  8.5481830946029831  5.6661445300033524 -0.0154490261640950
  9.9683994819741653  7.0894928662403052  1.4016156106521078
  8.5510497646609185  5.6629477024752273  2.8154056366423994
  9.9599644235686924  7.0688853737580457  4.2543823071517402
  8.5446338334454577  5.6695062693568605  5.6695062005899048
  9.9622861023109230  7.0921767579526387  7.0922114328263106
  8.5469481173901656  5.6672287389156741  8.5074249890768101
  9.9531207050405328  7.0905837473716602  9.9220491064739296
  8.5447339882188675  8.5134876148764054 -0.0140092352093193
  9.9761478107516766  9.9211023182111031  1.4197455809243000
  8.5455560083612490  8.4979139533825059  2.8368808100575862
  9.9761186626005536  9.9307040454345188  4.2381853110138943
  8.5469112962980045  8.5074249553098937  5.6671918820734843
  9.9532465105819998  9.9222268171367531  7.0905230473355836
  8.5238729381721701  8.5052655593663307  8.5050601345741494
  9.9362191320194651  9.9108541777514976  9.9108695596961969
  2.1489692456911960  0.6938587085341451  0.6938587638602899
