Fe Pd
 1.0000000000000000
    11.4296500484711885    0.0000000000000000    0.0000000000000000
     0.0000000000000000   11.4296500491632873    0.0000000000000000
     0.0000000000000000    0.0000000000000000   11.4296500469150768
 Fe  Pd 
 126   2
Cartesian
 -0.0372628286441823 -0.0377801579828384 -0.0377894706190786
 -0.0405214527564361 -0.0467109109698057  2.8971908257051262
  1.4240277833586599  1.4334233899294768  4.2420551360586369
 -0.0014610939351126 -0.0045213534902006  5.7042721091044886
  1.4247563636198017  1.4323216713316851  7.1446624647872765
 -0.0190254833628842 -0.0047706751507671  8.5697400984630345
  1.3909168404160848  1.4664863451944772  9.9636809862245368
 -0.0397780796947658  2.8979338752544681 -0.0467108582695648
  1.4239891820503596  4.2420550368861933  1.4333846112987123
 -0.0519392858265384  2.9093519428387657  2.9093519990410956
  1.4279107004604950  4.2919427034819870  4.2919408062271485
 -0.0090631052875830  2.8667307321945228  5.7031206382957267
  1.4246476377548525  4.2929201502648882  7.1361758044962560
 -0.0329319941009877  2.8903809711079886  8.5505809228314451
  1.4238677664415291  4.2887331454028779  9.9815117210937760
 -0.0011448989762833  5.7043682519274483 -0.0045903203001008
  1.4250907821846277  7.1446623856802001  1.4326561057698886
 -0.0093179828850089  5.7031204807910907  2.8664754298768482
  1.4245527792493968  7.1362738989418846  4.2927901887641946
  0.0040200590000550  5.7222004807964382  5.7221562810987345
  1.4262934574673540  7.1356555321014898  7.1355117918179651
 -0.0124709106307858  5.7228303611662295  8.5541695633318593
  1.4241158434060288  7.1539880395075741  9.9997990870003530
 -0.0194320199950199  8.5696229660420933 -0.0048385758184784
  1.3909261758290659  9.9636810807211376  1.4664957834735923
 -0.0329681538524202  8.5505809877367938  2.8903443085098308
  1.4239358761371466  9.9819181795125651  4.2886162118212185
 -0.0124877336147029  8.5541831378622710  5.7226361252342475
  1.4241849453072235  9.9994826908934069  7.1540842127775557
 -0.0278179353566972  8.5406245836263253  8.5404291480400580
  1.3819950535663295  9.9604223260733509  9.9611654448583327
  4.3233816630370683  1.4664959276251848  1.4664862522971447
  2.8951925959692129 -0.0377895268398293  2.8946751899121836
  4.3055509261786273  1.4335448377385107  4.2887332839364900
  2.8610279218026586 -0.0039497625693808  5.7136938787079714
  4.2872635058020636  1.4332965323757008  7.1539879735420620
  2.8621296068342130 -0.0046784365561261  8.6163013855774420
  4.3258970097996405  1.4754172991482462  9.9604222775455700
  2.8952017864495803  2.8946751688409145 -0.0377800053565940
  4.3051445002687716  4.2886164046752402  1.4334767856932660
  2.9041236291583958  2.8971908404650719  2.8979338810038771
  4.3139364069368922  4.3179268717480781  4.3177315366261917
  2.8620029103759981  2.8585573014255194  5.7043684052298049
  4.2985895112971875  4.3041866108546172  7.1355259282327097
  2.8622509581641653  2.8768445262879032  8.5696230593477729
  4.3190507835027070  4.3077752845301980  9.9679755138106518
  2.8613623973568751  5.7136939079101428 -0.0036156172125345
  4.2875796340564634  7.1540842438413064  1.4332273526608255
  2.8619337884857807  5.7042720838149661  2.8588734372241169
  4.2986066555607394  7.1357199027188098  4.3041732827214831
  2.8598251112912143  5.7228444323978511  5.7227004992942829
  4.2820989419887567  7.1362001973107816  7.1361555854690781
  2.8614711711185481  5.7221807994613254  8.5654361021029182
  4.2951818570202756  7.1552358201996453  9.9916258211306079
  2.8620909096995861  8.6163013095081897 -0.0047170263555725
  4.3266400390700044  9.9611654686578497  1.4754171622064036
  2.8621832430460610  8.5697400588399546  2.8764382777131163
  4.3190868631956114  9.9680117836840783  4.3077753724933174
  2.8615660441188417  8.5655660089208112  5.7220825304655367
  4.2954370109436049  9.9918807431741694  7.1552357747683475
  2.8582081141259725  8.5664154744643888  8.5664135266459240
  4.3380582636038305  9.9490043293299770  9.9490042474139848
  5.6707612186567768 -0.0047170807256208 -0.0046784908341786
  7.1424001020324894  1.4326558812699686  1.4323218308756285
  5.7174396631833337 -0.0048386645313104  2.8768444633490518
  7.1508869093707688  1.4327648605508907  4.2929202912217708
  5.7216265684386025 -0.0040586436660352  5.7221806846079248
  7.1515506368959221  1.4311186634675197  7.1356556903381207
  5.7206488014332866 -0.0007955266274113  8.5664156302928376
  7.1329782968122863  1.4332276225877845  9.9994829188384866
  5.7173226447190633  2.8764382043227998 -0.0047704972552290
  7.1507888136546560  4.2927903452881093  1.4328597600008148
  5.7364816057360324  2.8903444666285463  2.8903805576136081
  7.1579341109189469  4.3058666765765530  4.3059625083266120
  5.7328929616308635  2.8698830554492205  5.7228306036331853
  7.1562610032241096  4.2927369104328799  7.1307569508150541
  5.7466330990555425  2.8852301622367436  8.5406244640494773
  7.1513425040024545  4.3041731085591657  9.9884559935354389
  5.7214966860174199  5.7220823380367385 -0.0041537223496450
  7.1514070277378119  7.1355117969079203  1.4311187482898451
  5.7328794077168146  5.7226362063078211  2.8699004271267552
  7.1563059666710425  7.1308016225352535  4.2927369804831770
  5.7214431886056198  5.7275549899121305  5.7275994277696309
  7.1545786262035582  7.1324835386592440  7.1324838744863737
  5.7345728325461076  5.7292278070035847  8.5523939301602869
  7.1508622692651720  7.1361556900963352 10.0049638612810003
  5.7206471156089522  8.5664136444602317 -0.0007956527540761
  7.1330745778052451  9.9997990594419761  1.4332966753687946
  5.7464379290978131  8.5404293150057669  2.8852303169938245
  7.1515366741794697  9.9884730863840421  4.3041867210550100
  5.7346687853460301  8.5524898351077621  5.7292279258246284
  7.1509068002727547 10.0049638279350592  7.1362001864983702
  5.7494437406763153  8.5376187359132825  8.5376187304655868
  7.1318267494211893  9.9916257457912270  9.9918807933625668
  8.5733687892874375 -0.0036154383688660 -0.0039497657587932
 10.0450075367193037  1.4333845600806761  1.4334232513462253
  8.5826942216627540 -0.0045902358422150  2.8585573719504001
  9.9951218195501923  1.4295017480113106  4.2919425852985515
  8.5643620427699876 -0.0024125831970416  5.7228446722965707
  9.9942721820912457  1.4328597834601129  7.1362737634941320
  8.5649801293299319 -0.0041536881186389  8.5655660359124095
  9.9984463326501292  1.4334768900691015  9.9819182105869135
  8.5827905794436585  2.8588735787819037 -0.0045212938883241
  9.9951198908090522  4.2919407798759996  1.4295017827934777
  8.5839421166731693  2.8664757315520117  2.8667307438713117
  9.9663249878089868  4.3207375310418588  4.3207375039079636
  8.5649066075126186  2.8533924119940104  5.7222007318135324
  9.9811960353921592  4.3059625199908531  7.1291284722714705
  8.5644263400063476  2.8699005021129609  8.5541830152372711
  9.9691357578716406  4.3177317276885523  9.9731259525333051
  8.5642182541256417  5.7227007267105146 -0.0024126286123918
  9.9941422389122199  7.1361756173534721  1.4327648989568809
  8.5648618227107036  5.7221561228135265  2.8533923743253875
  9.9811001434507034  7.1291285560127902  4.3058664428153515
  8.5611900070882339  5.7258725636700945  5.7258725019102572
  9.9943257552317277  7.1307568140642150  7.1308013515751743
  8.5595076129937286  5.7275995312261037  8.5656195468475680
  9.9828761940916184  7.1355259256939956  9.9884729779326520
  8.5648818998786123  8.5654359785553336 -0.0040587039346227
  9.9983292976694500  9.9815116115754225  1.4335447924402989
  8.5642321563507320  8.5541694835181801  2.8698833907481056
  9.9693310016210006  9.9731259476564471  4.3179270407958112
  8.5594630401660652  8.5656195211258943  5.7275547547222772
  9.9828895019534585  9.9884559115640670  7.1357201013295652
  8.5578347883675274  8.5523939852351418  8.5524898089294030
  9.9792871292645007  9.9679755277855815  9.9680119129064853
  2.9167720524736236 -0.0593592635884176 -0.0593594181546070
  1.3693467172971887  1.4880656415632905  1.4880657418196146
