Fe Ni
 1.0000000000000000
    11.3721066845414747    0.0000000000000000    0.0000000000000000
     0.0000000000000000   11.3802442191458937    0.0000000000000000
     0.0000000000000000    0.0000000000000000   11.3721066882646404
 Fe  Ni 
 126   1
Cartesian
  0.0216955887491446  0.0107833277620125 -0.0000542366380139
  1.4700505822884493  1.4741722400123438  1.3729339061328916
  0.0120132659814698  0.0158639502234001  2.8309526802903009
  1.4167432848259307  1.4239972553354834  4.2582605884034761
  0.0055669499056210  0.0042420602718936  5.6860320493961689
  1.4167402852047035  1.4239070538480920  7.1137564831821578
  0.0120738788162469  0.0158640587050652  8.5410933917562417
  1.4700908859119681  1.4741743346220404  9.9991294330399256
 -0.0431255362071163  2.8528274439620716 -0.0000102765197262
  1.4679120984540308  4.2127369564448713  1.3750727228532991
 -0.0041677363072837  2.8608640149997426  2.8472233160988822
  1.4185826224565437  4.2744139019194209  4.2694687803160898
  0.0079551774826533  2.8450156493869327  5.6860042069620391
  1.4184993600637872  4.2743021479220307  7.1026154588978549
 -0.0041968703494705  2.8608638181868078  8.5249128389138740
  1.4679537787940637  4.2127364678698145  9.9969919072160671
  0.0113404053770367  5.6805258331643618  0.0000654123667039
  1.4130935984270885  7.1171081843692763  1.4300164865998264
  0.0149748478026607  5.6742699857522734  2.8280718117307169
  1.4207457625183544  7.1082880703431046  4.2703123952091087
  0.0023196152331845  5.6860252463825232  5.6860180658854249
  1.4206634377966607  7.1082043887201021  7.1017151976775938
  0.0149549977680915  5.6742698912646992  8.5440545651614617
  1.4130098303306484  7.1171082835002242  9.9421737338393132
  0.0039820035646952  8.5306311971054303  0.0000519430472530
  1.4177017845007267  9.9552629093333671  1.4253036142790387
 -0.0100867017762533  8.5227765573031462  2.8531156430433429
  1.4199981630775229  9.9532983471792509  4.2611767697527796
  0.0007164221582916  8.5345744057297619  5.6859936421569284
  1.4199212457284751  9.9532374771845387  7.1108799534496638
 -0.0100888920209078  8.5227770208493450  8.5189936522458254
  1.4177219007224595  9.9552610130408201  9.9467804775989279
  4.2159605975463537  1.4741718982967205  1.3729757126270881
  2.8429721611381846  0.0107827330383007  2.8213303581211671
  4.2693130486173105  1.4239065322035169  4.2583498064722942
  2.8430268847602598  0.0087969107919205  5.6860534509068188
  4.2693094321300062  1.4239968402956733  7.1138463814847839
  2.8430818119598853  0.0107824862041511  8.5507747128760894
  4.2160041806691115  1.4741740957611824  9.9991715612790291
  4.2180995038226676  4.2127365304449924  1.3751152403396283
  2.8430166674967099  2.8528281517424356  2.8861521712086793
  4.2675545741283427  4.2743027270563525  4.2694914871402920
  2.8430267119558548  2.8442171118668234  5.6860538601827413
  4.2674706264127407  4.2744136575606522  7.1026379140673388
  2.8430369432856661  2.8528276753938768  8.4859540346990041
  4.2181420203138806  4.2127359988898379  9.9970337256987651
  2.8430261780460797  5.7291368557347173  0.0000000986208495
  4.2730432143253045  7.1171081994599579  1.4299332584682436
  2.8430921110015932  5.6805259224857361  2.8316867446254435
  4.2653901488763655  7.1082040226155074  4.2703914521250494
  2.8430263085246632  5.6823938316564879  5.6860532350247928
  4.2653072278541995  7.1082884190565343  7.1017939411435451
  2.8429613062351140  5.6805258330051558  8.5404198634766342
  4.2729596186460439  7.1171085562169170  9.9420897172520419
  2.8430262820997760  8.5403966431773686 -0.0000001534355763
  4.2683302475686951  9.9552634368525705  1.4253249187030046
  2.8430785212306562  8.5306315330083731  2.8390444113779503
  4.2661328085489831  9.9532378070105469  4.2612268822045767
  2.8430263810934329  8.5351826349970370  5.6860537318865640
  4.2660544383123629  9.9532982959521625  7.1109307401217849
  2.8429748523284228  8.5306316976516072  8.5330616275770836
  4.2683527689119520  9.9552615318456787  9.9468017493204446
  5.6643572515311558  0.0107829431012039  0.0000552709913448
  7.1012868284531807  1.4239969388814313  1.4262834585720081
  5.6739793134791841  0.0158638071426747  2.8310131570492318
  7.1119254627774167  1.4240380863379329  4.2689234798845934
  5.6804861266480273  0.0042422435354886  5.6860744783878276
  7.1119499955960972  1.4240380712358913  7.1032078440872164
  5.6740394912175125  0.0158633672461845  8.5411539002186245
  7.1013770004067034  1.4239077529659985  9.9458199997421968
  5.7291788833683706  2.8528281792969299  0.0000093066408775
  7.1124950269593077  4.2744137685297661  1.4244440978351272
  5.6902500940644396  2.8608641481648784  2.8471943833788109
  7.1122762842944667  4.2706241594490093  4.2692230673842086
  5.6780983590172820  2.8450157376481631  5.6861024320112854
  7.1122500184444846  4.2706243780942703  7.1028565435729147
  5.6902204773343286  2.8608643425259781  8.5248836408925044
  7.1125178161035167  4.2743022503071986  9.9475789005288888
  5.6747137412971567  5.6805253273911305 -0.0000655073309210
  7.1133389900713055  7.1082881094049855  1.4222812728049621
  5.6710984231410295  5.6742698144592154  2.8280522379737389
  7.1047914488352308  7.1013780453497075  4.2617825098898150
  5.6837341884213783  5.6860250821952798  5.6860877274519313
  7.1048096325135912  7.1013782054515922  7.1103418606845388
  5.6710789314851819  5.6742696372135866  8.5440350251339314
  7.1134182802294870  7.1082044903755319  9.9497431341880382
  5.6820711793259235  8.5306315089895612 -0.0000519866071592
  7.1042028794000398  9.9532984087130369  1.4230284534134439
  5.6961425842661635  8.5227765050786886  2.8531131421470119
  7.1052147746725742  9.9638541748886293  4.2622593360166601
  5.6853370923091218  8.5345745950010397  5.6861133302360791
  7.1052856900693433  9.9638541712990687  7.1099188361692551
  5.6961396733354199  8.5227771475975551  8.5189910008372873
  7.1042535877644513  9.9532373646608470  9.9490005164611031
  8.5290803885099518  0.0087967132664989 -0.0000000253309166
  9.9567837746243608  1.4239069100015065  1.4262864987056902
  8.5290586264823087  0.0042419689818435  2.8374599547426649
  9.9462102369515382  1.4240381636451322  4.2688985522147176
  8.5290799282336724  0.0030046496142740  5.6860532054510458
  9.9462351733077519  1.4240381909077353  7.1031831759990833
  8.5291014840985326  0.0042420321055834  8.5346470304316799
  9.9568729856421694  1.4239971727417975  9.9458237140738550
  8.5290804464610552  2.8442173155899555 -0.0000007202288577
  9.9456423571872410  4.2743021223926343  1.4245276096674178
  8.5290306044556292  2.8450153935806362  2.8350717614755170
  9.9459101940118604  4.2706242393968976  4.2692500929907453
  8.5290800479090336  2.8459069286036707  5.6860533069865156
  9.9458836084871649  4.2706240599490179  7.1028831319188583
  8.5291291556783264  2.8450157543876164  8.5370351430044344
  9.9456642615708724  4.2744133629892085  9.9476625305627628
  8.5290797696481970  5.6823940390677246 -0.0000001098028292
  9.9447421287624724  7.1082043122171248  1.4223632842744838
  8.5290449463056888  5.6860255606457883  2.8407077652141575
  9.9533507189851829  7.1013782312081286  4.2617644810434561
  8.5290801612330540  5.6876449705758949  5.6860530542393555
  9.9533689382831358  7.1013784936709099  7.1103240897306810
  8.5291150662949082  5.6860253092879764  8.5313994796875896
  9.9448208247181018  7.1082885383427348  9.9498260669976872
  8.5290799463972231  8.5351825956109604 -0.0000004931644752
  9.9539065570317522  9.9532379803239142  1.4231056747523210
  8.5290200207342490  8.5345743691224847  2.8423104257301244
  9.9528741924392037  9.9638543139617841  4.2621878790463423
  8.5290798159141410  8.5336103809864259  5.6860533020975321
  9.9529451289043767  9.9638541905137554  7.1098475305428108
  8.5291396137524806  8.5345745477518751  8.5297965462334275
  9.9539566082308717  9.9532984564304030  9.9490784319683261
  2.8430272969528834 -0.0611620410556038  0.0000043095494287
