Fe Mn
 1.0000000000000000
    11.3595796225931078    0.0000000000000000    0.0000000000000000
     0.0000000000000000   11.3721575660430183    0.0000000000000000
     0.0000000000000000    0.0000000000000000   11.3595796304142045
 Fe  Mn 
 126   1
Cartesian
  0.0293962057645525  0.0127573880542543  0.0000343126881551
  1.4911568522094114  1.4602251272552291  1.3490084051418538
  0.0313923636330427  0.0168459588615041  2.8085370165517802
  1.4223040840155374  1.4143207156947561  4.2473733526754573
  0.0051516329623197  0.0046333215912042  5.6798398093448572
  1.4222873296273497  1.4142175199852736  7.1123676904316788
  0.0313579636944413  0.0168459802056402  8.5510771508057690
  1.4908863384343198  1.4602251562846966 10.0108416012084422
 -0.0346487072918845  2.8340945662603629 -0.0001762494474348
  1.4765115047161110  4.2001332166627519  1.3633102372490760
  0.0183182487974177  2.8369287604726088  2.8215196202814510
  1.4192613245504127  4.2701238713467404  4.2625717589070220
  0.0148862541088520  2.8381152721691594  5.6798171536324613
  1.4192903677475548  4.2699888077910009  7.0970188267853871
  0.0183753450381437  2.8369289325468743  8.5380029578438137
  1.4765845007664309  4.2001331464371470  9.9961963512924878
  0.0126421585729439  5.6765519682887664 -0.0000153177911037
  1.4195562511789268  7.1227502104189062  1.4203372642690197
  0.0226521530219310  5.6675955329390222  2.8172419272645581
  1.4195085418509878  7.1023231571004599  4.2644186912235922
  0.0059545498894359  5.6786956994689506  5.6798026514079973
  1.4195020303318242  7.1021845919580811  7.0952231341022545
  0.0226529423089918  5.6675954862923863  8.5423368935187494
  1.4195575342543856  7.1227501499717931  9.9392408838967974
  0.0143645449562793  8.5384441271776303  0.0000123742428408
  1.4348679442384848  9.9604883510557496  1.4052285053727305
  0.0069663334566148  8.5322790429499218  2.8329211315395426
  1.4259946493733726  9.9533843393428594  4.2461657972511269
  0.0057889592748643  8.5343335392900581  5.6797904019719549
  1.4259800493921346  9.9532770967685256  7.1134877277794883
  0.0069738150474088  8.5322791193314309  8.5266510756697560
  1.4346664275269427  9.9604884816606045  9.9545524704530788
  4.1889034423939888  1.4602251071692873  1.3487381070513029
  2.8399291880151676  0.0127574476701316  2.8104986191567680
  4.2575025928092636  1.4142175007876103  4.2472120282830810
  2.8398948842876841  0.0091970106106385  5.6797899425994336
  4.2574854675967293  1.4143207615959024  7.1122060351820142
  2.8398605686995584  0.0127574648201063  8.5490808566541450
  4.1886329834167668  1.4602250606875222 10.0105711486300599
  4.2032050789869597  4.2001331337672347  1.3633834647935141
  2.8397186089262298  2.8340945039318299  2.8745434157614218
  4.2604994773405096  4.2699887325205470  4.2625606913495595
  2.8398949623825458  2.8436315955051681  5.6797898155882400
  4.2605283694149412  4.2701235750094106  7.0970079781146351
  2.8400712277504270  2.8340943822326627  8.4850361078744179
  4.2032783532775770  4.2001331323842193  9.9962693815575765
  2.8398947488605293  5.7354068090017627 -0.0000000049288212
  4.2602321316967648  7.1227503188971530  1.4203387065298061
  2.8398795212179242  5.6765520059882482  2.8272526720180826
  4.2602875600521912  7.1021845247477247  4.2643564505039278
  2.8398947968535802  5.6763175437055864  5.6797897227683354
  4.2602811361772117  7.1023232627104482  7.0951609594424463
  2.8399102267345770  5.6765517862478756  8.5323270337523862
  4.2602336643615484  7.1227503222920063  9.9392423099788196
  2.8398949632192165  8.5455707242098278  0.0000001525000783
  4.2451234619730052  9.9604883787212692  1.4050271770916041
  2.8399071258156674  8.5384441435309935  2.8255303695835186
  4.2538097244736361  9.9532771046658688  4.2460921426756526
  2.8398948346575907  8.5280363070776986  5.6797898321644471
  4.2537953268812716  9.9533844194828411  7.1134138759543841
  2.8398827769521606  8.5384440878901042  8.5340492730972155
  4.2449221598231128  9.9604883218594047  9.9543510690349599
  5.6503935127782992  0.0127574117022111 -0.0000341828436280
  7.0872684252438507  1.4143209095152616  1.4175906542455721
  5.6484317524203425  0.0168460189267296  2.8085026294148983
  7.1021956845280840  1.4223500674318761  4.2622326415883940
  5.6746380118309414  0.0046334421628625  5.6797397538710079
  7.1021273025318212  1.4223499721534922  7.0972786571728337
  5.6483974834675212  0.0168460557003994  8.5510425989485466
  7.0871069663994612  1.4142175523971954  9.9419720786462644
  5.7144383400640315  2.8340945436344454  0.0001762070556355
  7.1024665795006277  4.2701237994231613  1.4206335645528549
  5.6614142615072645  2.8369289227318748  2.8215766733805161
  7.0936605234257639  4.2585244529973716  4.2537239040775203
  5.6649034106486793  2.8381153228053773  5.6797622623952231
  7.0936186674247228  4.2585245124053248  7.1058137776403720
  5.6614713421144165  2.8369288022239028  8.5380602126849237
  7.1024556892315260  4.2699886409704844  9.9389751304381857
  5.6671474967338922  5.6765519723048339  0.0000151893944753
  7.1043133821572892  7.1023232826563314  1.4203863158464223
  5.6571367892194493  5.6675954322588478  2.8172426790446798
  7.0883169498796477  7.1022883660144860  4.2484121680000380
  5.6738352691705840  5.6786956479523418  5.6797769342822573
  7.0883072272193823  7.1022883936801122  7.1111576801658627
  5.6571376589405435  5.6675955421964943  8.5423377859324798
  7.1042513323585430  7.1021843664034146  9.9391867456989385
  5.6654254258879861  8.5384441453593691 -0.0000120766588397
  7.0860606622887570  9.9533843760085325  1.4139003230679728
  5.6728160468570286  8.5322790710450267  2.8329286289793729
  7.0943339565651167  9.9595352018209162  4.2544573419457077
  5.6740008867925766  8.5343336448004994  5.6797892106952546
  7.0943523631764185  9.9595351928448270  7.1051405385923410
  5.6728234188798918  8.5322791226724330  8.5266585359772620
  7.0859869525909644  9.9532770291197341  9.9456647825292119
  8.5196847904455009  0.0091969259861966  0.0000000739671151
  9.9522624046323909  1.4142173623233274  1.4176075273068109
  8.5197346536957355  0.0046335346083856  2.8347431274819948
  9.9372419320814682  1.4223500514082044  4.2623008221995518
  8.5196846705857947  0.0030965951415066  5.6797897499384069
  9.9371735762541427  1.4223499174772165  7.0973470472261262
  8.5196348112138640  0.0046335071238567  8.5248365316868568
  9.9521008862282425  1.4143206851103849  9.9419888218760075
  8.5196846468448939  2.8436316372612787  0.0000000391371431
  9.9369137446161382  4.2699888296404147  1.4206044833397333
  8.5197120802853998  2.8381153857226171  2.8250087319375337
  9.9457506355277037  4.2585242520779429  4.2537657358880772
  8.5196846720127617  2.8417248714469201  5.6797897794076659
  9.9457088343036588  4.2585244464403127  7.1058558816843123
  8.5196574638149922  2.8381153960404171  8.5345710404538480
  9.9369028319653676  4.2701238625008084  9.9389460144022408
  8.5196848071255307  5.6763176826409181 -0.0000000161387951
  9.9351181453366024  7.1021845016697940  1.4203926817162620
  8.5196976325965359  5.6786957173087469  2.8339402508848153
  9.9510623239877987  7.1022885010582462  4.2484220064362246
  8.5196848752072842  5.6805039803823325  5.6797898168680430
  9.9510524577900110  7.1022885176351869  7.1111672692893588
  8.5196718281887360  5.6786955710884728  8.5256393807852753
  9.9350559226881838  7.1023233330568987  9.9391933059205666
  8.5196847013684618  8.5280363056350499  0.0000001111946368
  9.9533825038438497  9.9532770492654539  1.4139147073129799
  8.5196851851345734  8.5343336661448976  2.8341060043146902
  9.9450169794036487  9.9595352734969431  4.2544391870145315
  8.5196847140178296  8.5307764294398769  5.6797898287090565
  9.9450356110379872  9.9595354065532575  7.1051220616985402
  8.5196840943364389  8.5343334916688889  8.5254736476633575
  9.9533087823689570  9.9533844661852520  9.9456793300915312
  2.8398949229658976 -0.0032230653289470 -0.0000001717460570
