Fe Rh
 1.0000000000000000
    11.4190902270086969    0.0000000000000000    0.0000000000000000
     0.0000000000000000   11.4180585469037652    0.0000000000000000
     0.0000000000000000    0.0000000000000000   11.4190902191244597
 Fe  Rh 
 126   2
Cartesian
  0.0326529977806064  0.0022720556417823 -0.0000675875640482
  1.4036549269212391  1.4985663574722417  1.4516296187640856
 -0.0027152570194571  0.0037990215740690  2.8577233367306065
  1.4296031175397090  1.4331559380222136  4.2822223877577503
  0.0011785280244818 -0.0065936051154088  5.7134358547090827
  1.4236525823615813  1.4312138734797661  7.1385975087709248
 -0.0112411400193753 -0.0115352293341752  8.5477965028618836
  1.3864284557652131  1.4387957543708769  9.9567584415427763
 -0.0349454867536363  2.8429763257655511 -0.0409578167594179
 -0.0438998873458016  2.8488785933598262  2.8985299381582563
  1.4255875159501183  4.2886469564473551  4.2637664416092722
 -0.0047729503368444  2.8568624112030623  5.7052602349810222
  1.4240813857951826  4.2859409360315643  7.1314752185855550
 -0.0234867186324538  2.8731171958315969  8.5462445416882602
  1.4273186176691794  4.2794998305741894 10.0243569713773244
 -0.0168893512825168  5.7269990086206404 -0.0195943844917124
  1.4243298170467671  7.1307727536172401  1.4307773620301381
 -0.0178639449079092  5.7260033922866587  2.8725772104946432
  1.4227150928252139  7.1329724062834030  4.2908703340696110
  0.0041785884502704  5.7094712259031297  5.7033199552655036
  1.4219106155306653  7.1257345771618485  7.1311300285458064
 -0.0038136360851369  5.7061524406207687  8.5655668430164145
  1.4219081887639486  7.1408085635789718  9.9841057093443872
 -0.0075983492387252  8.5590219374295788 -0.0054780309916145
  1.4084248773621135  9.9680309076300411  1.4464461702676581
 -0.0210788011456318  8.5459743609422674  2.8758382582247348
  1.4285282950612770  9.9914321925824225  4.2732926107337770
 -0.0060987630794830  8.5676397159886442  5.7150932621320090
  1.4274763866028428  9.9898195885483219  7.1406781665558148
 -0.0206655951843358  8.5563640441691611  8.5410097560353613
  1.4077918643056764  9.9728314581893205  9.9748145218360023
  4.3174066147904480  1.4387140178407427  1.4678754834364802
  2.8550879635843671  0.0025965246035754  2.8218817350832568
  4.3058440035672687  1.4084931916115773  4.3001503256866620
  2.8580315644451342 -0.0040909977848739  5.7150438450544323
  4.2867102605952372  1.4251729517884297  7.1411196424085661
  2.8564888928549603 -0.0067755917975082  8.5825262358903789
  4.3259162872316068  1.4328934368733477  9.9478040424338694
  2.8790159323262476  2.7832054712282939 -0.0237313876707616
  4.2492680826580109  4.2791753917284323  1.4277016993974838
  2.8952617461627024  2.8430579224686432  2.8900203529194899
  4.2934038264850303  4.2933109941871601  4.2985304718167123
  2.8581988869494532  2.8504643287515874  5.7079043243102809
  4.2809347801734416  4.2883703761471539  7.1329801290504147
  2.8527695670875493  2.8488132146645349  8.5641761845942632
  4.2851095159511914  4.2779729573016905  9.9889887156910788
  2.8738325323644167  5.7317996046814157 -0.0189614440494067
  4.2900091075084168  7.1409757055371115  1.4327725932238522
  2.8744087279753101  5.7269551764385973  2.8715970758223546
  4.3028512020378678  7.1435354282875423  4.3055561153782245
  2.8549121502479560  5.7097983658067584  5.7058013513516652
  4.2882743911429806  7.1322192625690057  7.1313795866427361
  2.8536281971867044  5.7086488049123592  8.5731735591972384
  4.3032245537369924  7.1538561982246112  9.9706250110305348
  2.8581636772450683  8.5690576843321491 -0.0030565058327715
  4.2989833610814099  9.9728752832289000  1.4470225110905708
  2.8601587566783007  8.5588547389658487  2.8626229653665782
  4.2858169434308211  9.9934860822439919  4.2810038633071450
  2.8602556470362579  8.5740991793728085  5.7153389718365215
  4.2780727763173019  9.9904683116689608  7.1431767353301012
  2.8594204652188124  8.5667572849665614  8.5557413157689517
  4.2999635290506530  9.9738270485529554  9.9738399441319707
  5.6911526555690015 -0.0068750260461556 -0.0017986851025075
  7.1352906457077800  1.4313077001218883  1.4308125509033469
  5.7259168126439031 -0.0115390375419506  2.8660175372601269
  7.1445414768711428  1.4285278604657063  4.2915632115097955
  5.7128352868826093 -0.0081714882387550  5.7171633488697546
  7.1441350593394191  1.4331800733071591  7.1296863616083641
  5.7197634785405889 -0.0087934252859767  8.5540814275813446
  7.1326466185498907  1.4249095161525398  9.9869310780846590
  5.7096086440198981  2.8486160843051329  0.0022168157921860
  7.1424301384219602  4.2858629496890304  1.4306452450702298
  5.7275366470542082  2.8732787152138060  2.8784576901305132
  7.1445496595545519  4.2899434678502484  4.2854490159118015
  5.7189495041694478  2.8532441981479093  5.7171552423102581
  7.1440071285330093  4.2884051510197576  7.1298067681265662
  5.7329484441236236  2.8672258254521585  8.5409072340541883
  7.1408221581529610  4.2883656817674582  9.9928823709964778
  5.7006788929825332  5.7083984016508937  0.0011420892586323
  7.1427252531198331  7.1257313109940146  1.4328694193674829
  5.7083901835228827  5.7063444130619168  2.8584307116077814
  7.1424766768199168  7.1316426840048459  4.2893980779303673
  5.7149463886401062  5.7142851326937159  5.7185430238726722
  7.1426855156432367  7.1301281411132651  7.1311587710982147
  5.7196947181091611  5.7136108186865480  8.5541710064462713
  7.1424794977478490  7.1321907892426371  9.9856050138366914
  5.7182565779284396  8.5668580517363786 -0.0046711533928499
  7.1331875463765231  9.9900320673443748  1.4275258726681090
  5.7329423489601812  8.5562950171484573  2.8754650243885411
  7.1459292483743955  9.9855453700192651  4.2875601057635651
  5.7167844183756538  8.5681878326318799  5.7150903186385431
  7.1439149347433553  9.9848187678599629  7.1298696315164145
  5.7312558408210492  8.5565111519974586  8.5426400306427634
  7.1307061938528147  9.9903593424515478  9.9958825365586641
  8.5588615594240434 -0.0041690104058282 -0.0033048028916734
  9.9915625422068342  1.4329588868176624  1.4253833796904818
  8.5603663622655919 -0.0065983070126116  2.8535485191744616
  9.9682934483217238  1.4145461205893541  4.3055622255663337
  8.5571930146012658 -0.0066332518900482  5.7166207350549616
  9.9822386753322068  1.4285724259103207  7.1292542437588775
  8.5566570001495155 -0.0081858034033789  8.5609396582017467
  9.9736308398421318  1.4086548067642268  9.9682172959264275
  8.5659838107155934  2.8505581469246049 -0.0037336571936773
 10.0099125065124550  4.2885476074020321  1.4291025839091560
  8.5685059667692780  2.8565990947906483  2.8593239589653971
  9.9814676732790968  4.2905653336550449  4.2923771381634310
  8.5570726104356218  2.8485919474405361  5.7167488013954371
  9.9883259732260719  4.2899577344304749  7.1292707192459517
  8.5566404986116513  2.8531995490616850  8.5548524948584888
  9.9751828322539087  4.2933072255730105  9.9804627837104380
  8.5680644314812842  5.7100109583660892  0.0000900224864345
  9.9831276695884785  7.1330731691815243  1.4320342907404759
  8.5705630268477222  5.7093622271395290  2.8506864409847235
  9.9700263738945321  7.1433193531573886  4.3038695519580488
  8.5572559694049879  5.7150117309300299  5.7165286061176017
  9.9844705437669390  7.1316393146679591  7.1313963197471422
  8.5553027422089656  5.7143088159883426  8.5588651671937583
  9.9683959360200234  7.1434664505597869  9.9710383966637934
  8.5585162515668234  8.5740958231431232 -0.0054756940988987
 10.0005598009192926  9.9911816145222989  1.4262420264078661
  8.5587658717493547  8.5676112738632977  2.8608881188110660
  9.9815573364039434  9.9862196686549876  4.2923084837137280
  8.5585450727356704  8.5697023736904026  5.7152992034664587
  9.9862516038329989  9.9855217202825788  7.1279163705064486
  8.5587827350143098  8.5681912197407453  8.5570841617302289
  9.9929531224298351  9.9936781167667004  9.9878903601343616
  2.8544715429226759  0.0199215846571546  0.0001972813587192
  1.4275835857075647  4.2618504095089049  1.4270852067771289
