Fe Nb
 1.0000000000000000
    11.3921883857979918    0.0000000000000000    0.0000000000000000
     0.0000000000000000   11.3744986486970241    0.0000000000000000
     0.0000000000000000    0.0000000000000000   11.3921883794893706
 Fe  Nb 
 126   1
Cartesian
  0.0002018855060938  0.0185401707693287  0.0001159113913706
  1.3791662448423962  1.5318429755978979  1.4690035340071481
  0.0225679669249366  0.0002554696594535  2.8254461061396063
  1.4141646253279263  1.4196120701040831  4.2658764716194151
 -0.0003417814256547 -0.0024153125346081  5.6961348716423359
  1.4141440248218826  1.4194981210316011  7.1264847896408883
  0.0225985541235523  0.0002544974802559  8.5667113862353368
  1.3790445399167608  1.5318424563190687  9.9233085558776839
 -0.0358805168015180  2.8307685125495747 -0.0001685640891162
  1.4715304387987727  4.1999193516116868  1.3764127974815423
 -0.0229479646623595  2.8713935738549279  2.8711041394318522
  1.4231578537718750  4.2672820527584703  4.2728922454215379
 -0.0036118216940717  2.8525634555461163  5.6962071889072030
  1.4232009927583997  4.2672455343630959  7.1193962553050705
 -0.0230601633304981  2.8713960679139179  8.5211937800562740
  1.4716295425644017  4.1999166679819240 10.0156736584240473
  0.0143628178185459  5.6708664312050381 -0.0000069356609846
  1.4192774329308235  7.1156407722309742  1.4288620055032137
  0.0093940227832980  5.6701095194875428  2.8387464025468163
  1.4252527852123624  7.1092302733281327  4.2692625481798920
  0.0062684371597299  5.6869197659162021  5.6961390794658380
  1.4252369062232058  7.1091319058416236  7.1229395339754991
  0.0092994205111675  5.6701092166104372  8.5535347430053150
  1.4191830709084312  7.1156425696527874  9.9634185515975719
  0.0225007654998814  8.5453435278093970 -0.0000345668916637
  1.3751956942143406  9.8927125497040098  1.4729853392587886
 -0.0097693722591987  8.5201776227473811  2.8577713318336624
  1.4304257956086985  9.9514294769853855  4.2615707567933745
  0.0006961461009290  8.5233412143526301  5.6960790752999966
  1.4305376267482741  9.9512492964554351  7.1305518882530503
 -0.0097275864132438  8.5201758335576638  8.5343723300833556
  1.3750629621447334  9.8927134375344181  9.9193372851484938
  4.3170476742855159  1.5318387867162435  1.4688783864998693
  2.8481641512548355  0.0185401738546951  2.8478437640357059
  4.2819491436030734  1.4194947934474078  4.2657021816854943
  2.8480471919048247  0.0122849602048169  5.6960929406055198
  4.2819292808891660  1.4196122949072776  7.1263111217898452
  2.8479323994141654  0.0185400119252742  8.5443474023618489
  4.3169255687282977  1.5318385070625158  9.9231892439348801
  4.2244617968563691  4.1999207358295640  1.3765134200641045
  2.8478794807200249  2.8307654748942142  2.8839297823733276
  4.2728929538187579  4.2672463638737730  4.2727909150131511
  2.8480464730045751  2.8416148116095292  5.6960947585618280
  4.2729383838722335  4.2672800315835921  7.1192970127815727
  2.8482125707054382  2.8307645204907379  8.5082569401383523
  4.2245676990123391  4.1999183025385056 10.0157777245224899
  2.8480484485146556  5.7205388731360038  0.0000033597965183
  4.2769079713385993  7.1156413275486399  1.4287685042908269
  2.8480391798495099  5.6708681726862276  2.8336852786988311
  4.2708566693419341  7.1091328868483332  4.2692480629218634
  2.8480458293780355  5.6815862091329263  5.6960928527968804
  4.2708427613239257  7.1092333080478927  7.1229268093461489
  2.8480536930815008  5.6708688046801736  8.5585006585721839
  4.2768185196002051  7.1156428071074576  9.9633272103193260
  2.8480488591366546  8.5081605745213089  0.0000004575719715
  4.3210301277385135  9.8927147164079283  1.4728492370818946
  2.8480135309243342  8.5453442735471778  2.8255464841047520
  4.2655557024885793  9.9512512478019417  4.2616351748463162
  2.8480471103412195  8.5259972462749349  5.6960946518686351
  4.2656693443996341  9.9514278723539231  7.1306173311269054
  2.8480806288029772  8.5453450929447747  8.5666413900147766
  4.3208968401673715  9.8927155203763881  9.9192066797705518
  5.6958844680553167  0.0185398533918636 -0.0001166223669544
  7.1139253370895688  1.4196112183099023  1.4338858638307619
  5.6734937944837869  0.0002542533084982  2.8254780439363962
  7.1211209245198255  1.4191768371313727  4.2731503373280768
  5.6964357417471714 -0.0024160288771880  5.6960534302728174
  7.1211974648493612  1.4191781963376102  7.1191157150813327
  5.6735257275564654  0.0002544469849073  8.5667428058649762
  7.1137496497297708  1.4194969416065044  9.9582826283076677
  5.7319737810252382  2.8307695056388837  0.0001642856763715
  7.1209386827944119  4.2672812016891468  1.4248906779632047
  5.7191556260495000  2.8713959870359620  2.8709965017261108
  7.1314951687892192  4.2811231753487569  4.2834015750993917
  5.6997081678525268  2.8525640468319016  5.6959855334736318
  7.1314463785825879  4.2811212488994208  7.1087423834296244
  5.7190459718990949  2.8713976558360872  8.5210810891435198
  7.1208361396223010  4.2672443389053809  9.9673419415700781
  5.6817300957540677  5.6708657589382954  0.0000063370012631
  7.1173093692200791  7.1092315065830922  1.4227957589522846
  5.6867950454993617  5.6701085109307643  2.8386534788714388
  7.1162307365589514  7.0986297653319905  4.2681213948468217
  5.6898277660006773  5.6869188906725334  5.6960501701413291
  7.1161662254158751  7.0986318786495106  7.1240066026436448
  5.6867015924084816  5.6701086133842571  8.5534418947662783
  7.1172936679020227  7.1091334305252643  9.9693770485815580
  5.6735918216712706  8.5453431107940858  0.0000316963148333
  7.1096190913504316  9.9514292085817360  1.4176240662132220
  5.7058198250635774  8.5201766566054928  2.8578168570657101
  7.1155144401154509  9.9509167747188361  4.2674520350633109
  5.6953985304092933  8.5233416317579778  5.6961130530176396
  7.1154990049131515  9.9509156099884439  7.1247224817227703
  5.7058650789224892  8.5201752915781128  8.5344144853902755
  7.1096826988264512  9.9512503785980222  9.9746772197387976
  8.5441416646245347  0.0122835683695652  0.0000016221974677
  9.9745338858109456  1.4194942398015875  1.4339048896276141
  8.5441819502895182 -0.0024163600459055  2.8483892175616625
  9.9670841013970310  1.4191757762748869  4.2730721249365011
  8.5441413369397150 -0.0034527548600397  5.6960919613532326
  9.9671635668424852  1.4191768127953341  7.1190383583043664
  8.5441007757734813 -0.0024162113921858  8.5437997273869168
  9.9743607454892000  1.4196111946377208  9.9583039166955665
  8.5441407871326280  2.8416165437132324  0.0000002894022287
  9.9674440859625086  4.2672460681991051  1.4248449921573758
  8.5442514269844079  2.8525633658452043  2.8516607891871675
  9.9568316243437938  4.2811237173411021  4.2834463968788175
  8.5441402793378796  2.8439284851412090  5.6960931857461743
  9.9567901659295259  4.2811220624913755  7.1087885917514617
  8.5440296366152246  2.8525632598812511  8.5405280956928955
  9.9673458584391881  4.2672791674264525  9.9672977281813839
  8.5441407767973221  5.6815856074503994  0.0000025062223799
  9.9709878507622882  7.1091329236938154  1.4228099601301005
  8.5441854426220178  5.6869193100622422  2.8417819502141368
  9.9721130464311916  7.0986303832957667  4.2681821097760730
  8.5441406812581739  5.6999497938792567  5.6960893256845093
  9.9720547218963578  7.0986325682710634  7.1240692889109436
  8.5440969394242217  5.6869195886137138  8.5504080167546803
  9.9709754072316255  7.1092332948567654  9.9693920515317593
  8.5441410545518206  8.5259966125934827  0.0000006070096777
  9.9786001368188550  9.9512512801782265  1.4175098152253036
  8.5441243190507592  8.5233426924790550  2.8473520295764549
  9.9727815852382182  9.9509173372811617  4.2674656540600822
  8.5441410292431925  8.5238017704517652  5.6960934616303351
  9.9727694985034443  9.9509157936593180  7.1247373026547347
  8.5441586902295636  8.5233425626559107  8.5448368454228678
  9.9786660221105503  9.9514292852585200  9.9745657290132197
  2.8480530369649344  0.0223944672354959 -0.0000009764287917
