Fe Cu
 1.0000000000000000
    11.3860353350156522    0.0000000000000000    0.0000000000000000
     0.0000000000000000   11.3853040629953135    0.0000000000000000
     0.0000000000000000    0.0000000000000000   11.3860353351315826
 Fe  Cu 
 126   2
Cartesian
  0.0199293868630892  0.0143412731345513  0.0032997467957290
  1.4333257869158564  1.4280535296396597  1.4131503826694218
 -0.0108605056828868  0.0171524427990116  2.8571482222497635
  1.4225865560200839  1.4182783409456357  4.2677855158516627
 -0.0031157287895848 -0.0070647991312872  5.6947355035879941
  1.4193281362063612  1.4229966825278200  7.1231519301191319
 -0.0190447834243175 -0.0113308219969556  8.5149840419676437
  1.4238405760304316  1.3902266391648210  9.9498659996417409
 -0.0129148008975629  2.8792625069300475  0.0005861242516661
 -0.0007337008660705  2.8667740515882372  2.8468878390120649
  1.4235344297550954  4.2733406912793290  4.2658165883888879
  0.0026058322817051  2.8441485391117127  5.6817371343095191
  1.4218832071428309  4.2773847742053324  7.1117746008251954
 -0.0106046631734329  2.8564038856458587  8.5413783099923268
  1.4265540832715173  4.2551480265778752  9.9827103508773032
  0.0094224367899913  5.6768549303760123  0.0114318567672967
  1.4266693576531302  7.1150300551471446  1.4197220005524700
  0.0142881979371531  5.6799463077474206  2.8321802238891607
  1.4222795428974886  7.1193266280750489  4.2842045960375525
 -0.0007503631642799  5.6940216334856153  5.6811292908089008
  1.4226120796949162  7.1090501539313422  7.1115764965261512
  0.0043429731120603  5.6939577926580975  8.5571495211656181
  1.4200595408433387  7.1371208455827073  9.9535498058505283
 -0.0092311822597006  8.5176721047117141 -0.0031946911665769
  1.4310844268387546  9.9743392935738786  1.4154727063476471
 -0.0077197802711768  8.5162565502827974  2.8545227613503052
  1.4241658558343993  9.9634291693529846  4.2554950891667600
  0.0049464501308130  8.5487326126890757  5.6985685934920243
  1.4221732671198921  9.9600581016936722  7.1265802216994310
 -0.0085055017873508  8.5377080886080190  8.5253782976067622
  1.4346866084634837  9.9779383257355061  9.9722035803439280
  4.2830891674220650  1.3902972111170400  1.4224710606687938
  2.8431203043244349  0.0145028403531770  2.8266131104464911
  4.2802226216170647  1.4133335236003812  4.2679736978634057
  2.8478580240428211 -0.0079904046823224  5.6974802870536756
  4.2672829956930061  1.4251047643083670  7.1275393841409711
  2.8460335455114523 -0.0039218237478355  8.5433335579733782
  4.2701421620386997  1.4027150777301198  9.9620472970292742
  2.8364046259348137  2.8414353254744120  0.0100714586736006
  4.2498674625764608  4.2549861148373216  1.4198659448212694
  2.8457256681843086  2.8791919620657329  2.8598348341253730
  4.2888505118881053  4.2807355560731022  4.2943126458701908
  2.8505424706529077  2.8466925427137433  5.6862808580028332
  4.2728826450169963  4.2766350433934495  7.1145188003919468
  2.8471497237029921  2.8511350345635345  8.5414943927630453
  4.2804025610069125  4.2523363510877186  9.9519205832970599
  2.8387271506902962  5.6804537319487673  0.0078297625534069
  4.2788100551880150  7.1371410739782117  1.4265799412745339
  2.8351653321137356  5.6769156370073235  2.8371080478094526
  4.2782751248759769  7.1169869221239797  4.2839058533743541
  2.8473106481172610  5.6948892612750521  5.6826734034493480
  4.2648313165617511  7.1061631878371889  7.1106219494557017
  2.8458200059562802  5.6912883691949032  8.5537588981610160
  4.2777771910747751  7.1385363862912721  9.9550610479644934
  2.8429765074478772  8.5397630914627154  0.0034148722726536
  4.2603624544283232  9.9778772126306681  1.4119109155794993
  2.8498342934288812  8.5176519663455181  2.8555555509101493
  4.2656104144107019  9.9610725123278954  4.2521754187641765
  2.8471528109675139  8.5456448725851377  5.6978015532194499
  4.2702792198777750  9.9605623898492297  7.1282148964237209
  2.8475228463873319  8.5355555625975565  8.5251305587683781
  4.2554343753490169  9.9748467676455999  9.9770690478836936
  5.6890706356952858 -0.0038514486021757  0.0002799476439574
  7.1095351726692986  1.4227964742342563  1.4272884606503049
  5.7175672231269470 -0.0112463763817371  2.8655963346088513
  7.1260792056730269  1.4300574972088338  4.2731320689554737
  5.6937273086545170 -0.0011219712379190  5.6913010844050742
  7.1246401489150832  1.4214716809465975  7.1078488303349276
  5.7081198066457075 -0.0032729607543566  8.5244725652809894
  7.1049916696508557  1.4253401687731591  9.9653865627159579
  5.6910396753160803  2.8512107940612919 -0.0006680611811971
  7.1207344396671512  4.2774794049960541  1.4246036650130827
  5.6912278902393743  2.8561556128763690  2.8569681318193583
  7.1145555794139028  4.2706111473126578  4.2704729354467927
  5.6963864012760252  2.8394315748322336  5.7028248490024076
  7.1131248543565375  4.2702573483982009  7.1194121458370363
  5.7088966784307917  2.8503287226841176  8.5237229312366214
  7.1179899631058978  4.2765538636400402  9.9596653704374045
  5.6787491390428473  5.6913637121474858  0.0009114930764838
  7.1210557799145455  7.1091484067546569  1.4238987486394696
  5.6754302946962953  5.6937205464959062  2.8423560215711592
  7.1135063190964294  7.1127654393590571  4.2626631857280080
  5.7021963120145740  5.6973567661264202  5.7009028367572707
  7.1141780925907385  7.1222325907569104  7.1183873338917989
  5.6937688367354520  5.6967235042213282  8.5387126888082818
  7.1218231783513284  7.1060605882572583  9.9677270353570915
  5.7074589619778440  8.5354664804876670 -0.0009745395135343
  7.1059282073375298  9.9599038406998819  1.4240561906803288
  5.7071602382870834  8.5378063742027379  2.8550206600739689
  7.1241572491867942  9.9574363835086430  4.2789422091126896
  5.6859175175944916  8.5420275010112743  5.6902520936523429
  7.1250350350123295  9.9567334931702955  7.1075749065200196
  5.6980377868671734  8.5320853560827210  8.5345051921490747
  7.1043840127554629  9.9607714416984656  9.9620305600902306
  8.5350287369801290 -0.0078959959948976 -0.0013712703254812
  9.9647488116521323  1.4183542527965696  1.4238954429670874
  8.5377731915413637 -0.0071462766390276  2.8496281582969787
  9.9469773079651063  1.4191604080719891  4.2856422508053988
  8.5426666210347761 -0.0007682247102374  5.6898704818343724
  9.9593676584509794  1.4300617024420492  7.1065863179056254
  8.5412809283921582 -0.0010921409072011  8.5387928010190244
  9.9646326867781223  1.4130851932807500  9.9521763023384455
  8.5464065289172133  2.8464924851364537 -0.0039262444873876
  9.9665879931856907  4.2734106079127372  1.4227788752646706
  8.5507940507361031  2.8443842606806671  2.8440287502060264
  9.9477271211189890  4.2727621281802728  4.2848653810956758
  8.5311030498823666  2.8480170831370599  5.7013853276936937
  9.9620471016051972  4.2705812836953356  7.1180265037960222
  8.5298408751703594  2.8394272534038807  8.5361133966670444
  9.9382384460694286  4.2808198692144801  9.9437363529898537
  8.5498347029728503  5.6947347618378794 -0.0010810768023699
  9.9483849920252787  7.1192377423162352  1.4242682682814121
  8.5514691546207793  5.6942307158619663  2.8470250046585592
  9.9577598010523189  7.1227078279034091  4.2747832581864378
  8.5308292110977497  5.6980594427067830  5.7017809455934900
  9.9699053511827245  7.1127820971802933  7.1190445627822792
  8.5316087429516081  5.6973643256707067  8.5304282653094745
  9.9486325582741610  7.1170848881536353  9.9542752314895910
  8.5348309498876844  8.5457430063701239 -0.0006421173266328
  9.9770132051529252  9.9635046413448780  1.4225654847397577
  8.5338761024569170  8.5486296822689205  2.8415765735173784
  9.9619674647159773  9.9580699483383519  4.2705144072843817
  8.5416417001776388  8.5325603043266636  5.6909234866531051
  9.9536828134441961  9.9574288338342818  7.1083545008990958
  8.5422990307057400  8.5420110158085940  8.5466507825779789
  9.9804039186754867  9.9608350993709038  9.9671235975896870
  2.8475051663872848  0.0147512728622984 -0.0009184455858994
  1.4223359974439020  4.2547375495169657  1.4242509427434595
