Fe Ta
 1.0000000000000000
    11.3924512540311493    0.0000000000000000    0.0000000000000000
     0.0000000000000000   11.3705802456825591    0.0000000000000000
     0.0000000000000000    0.0000000000000000   11.3924512773019995
 Fe  Ta 
 126   1
Cartesian
  0.0039704736482209  0.0199455168774818  0.0001446204094635
  1.3775257608021598  1.5303691008828371  1.4707763018854465
  0.0248371073324877  0.0006741554758974  2.8232283108257188
  1.4138894212966509  1.4193077923213446  4.2658196237280501
  0.0006606796348019 -0.0025871796440802  5.6962573889843684
  1.4138920187472011  1.4192178847537669  7.1267930612615800
  0.0248847264305827  0.0006743303375005  8.5691755552210189
  1.3773366187011959  1.5303690112620050  9.9218641556449665
 -0.0320669761297020  2.8269220633045093 -0.0001840300416579
  1.4712813689824404  4.1985206335652245  1.3767698031503026
 -0.0242030777094304  2.8717495342342372  2.8724081108652553
  1.4241697994941827  4.2654710695075337  4.2725290088333105
 -0.0035819693126798  2.8518105817084960  5.6963303785502264
  1.4242199855210491  4.2654234791156638  7.1200009630805861
 -0.0242951875442950  2.8717494464140159  8.5201353944846989
  1.4713432769448962  4.1985205289192153 10.0156196133868995
  0.0155985416688847  5.6684863696023466  0.0000066143669854
  1.4205142101967334  7.1111660963237027  1.4276958465454095
  0.0092171338049154  5.6680205711704215  2.8390065824413311
  1.4261642218876223  7.1062483753405283  4.2694035364944547
  0.0069768095407773  5.6846648502746762  5.6962628764846013
  1.4261305182043664  7.1061362176354672  7.1230624196290044
  0.0091059473099398  5.6680205655557820  8.5535557375042810
  1.4204170534566194  7.1111660066677675  9.9648526793925747
  0.0248003094246884  8.5446010436131736 -0.0000171488243633
  1.3756658121599883  9.8915805054158028  1.4726155607723295
 -0.0096117796969802  8.5164041521753262  2.8576747965609157
  1.4304243673368739  9.9480293721051183  4.2620938467060761
  0.0007630153745263  8.5195586016832596  5.6962003111445956
  1.4304962068029021  9.9478579749933260  7.1302730380650861
 -0.0095620419324717  8.5164042656332430  8.5347267526404735
  1.3754972901512543  9.8915806528099317  9.9200039948971437
  4.3188893389590053  1.5303691189988984  1.4705871185785169
  2.8482574859603358  0.0199455161352199  2.8441422577994042
  4.2823336450306266  1.4192180310408071  4.2656581368865076
  2.8481128429682179  0.0129074465885617  5.6962255747517752
  4.2823362333353350  1.4193079979531202  7.1266316013099296
  2.8479682770873938  0.0199457553531294  8.5483088078504981
  4.3186999400041639  1.5303689989875962  9.9216748672519088
  4.2248822220240498  4.1985206368956387  1.3768318454851303
  2.8479288780158787  2.8269222739319271  2.8801794673942878
  4.2720057945952714  4.2654233934223180  4.2724502479590676
  2.8481127602102618  2.8387895236776792  5.6962256281528472
  4.2720558329772498  4.2654709715868879  7.1199221751004904
  2.8482967488751747  2.8269223312179026  8.5122717285207212
  4.2249442983873688  4.1985206446490437 10.0156812347455837
  2.8481128232951614  5.7162656133323422 -0.0000000826225434
  4.2758086851266004  7.1111661807369462  1.4275987068347238
  2.8481193229422561  5.6684862550051136  2.8325141114558465
  4.2700952665010679  7.1061360800585121  4.2693887304004354
  2.8481127668806967  5.6787799607881313  5.6962256487752949
  4.2700614619839179  7.1062484975818707  7.1230478733817328
  2.8481062123790468  5.6684862659708894  8.5599370988305665
  4.2757115278551856  7.1111661094223280  9.9647553669356554
  2.8481128388397274  8.5128944630291059  0.0000000073964326
  4.3207284199820783  9.8915804008590165  1.4724474237848060
  2.8480955684344513  8.5446009295138801  2.8233122499885890
  4.2657293604745510  9.9478579035974697  4.2621782395450358
  2.8481127692679071  8.5236633102902069  5.6962257019818896
  4.2658011191939247  9.9480293608124075  7.1303573991011922
  2.8481299036374388  8.5446007949798677  8.5691388343802934
  4.3205601584708759  9.8915805733862534  9.9198354952779724
  5.6922552188656095  0.0199456039592595 -0.0001446631432108
  7.1139325231324415  1.4193079275020519  1.4342234938420357
  5.6713409599790996  0.0006742318044832  2.8232757182990942
  7.1214600570683837  1.4179089461297771  4.2734324183606081
  5.6955649899236205 -0.0025872173363867  5.6961939866478852
  7.1215452458378108  1.4179089031481025  7.1191039655751744
  5.6713885476369787  0.0006741907032994  8.5692230017779458
  7.1137708418300889  1.4192180601812869  9.9582306281679891
  5.7282926271995978  2.8269221023688025  0.0001839800899428
  7.1206420025541437  4.2654711756581047  1.4239429889968278
  5.7205209677811872  2.8717494837228834  2.8723158684528207
  7.1324686532178090  4.2805471007893932  4.2843133517143963
  5.6998077095707975  2.8518105293304683  5.6961208925879232
  7.1324261135329134  4.2805472048409809  7.1080953009865722
  5.7204287347653748  2.8717495108726974  8.5200431409512927
  7.1205632254580742  4.2654234108770144  9.9685582541961875
  5.6806270509967227  5.6684864245341959 -0.0000066023501871
  7.1175163858041586  7.1062483271494568  1.4219485269847247
  5.6871194579163253  5.6680205969940936  2.8388955831838190
  7.1165713490854179  7.0951842840931034  4.2684014338086476
  5.6892486793963251  5.6846649474844009  5.6961882733960216
  7.1165142467589986  7.0951843641143579  7.1239928378131072
  5.6870084858701597  5.6680205946632718  8.5534446825873047
  7.1175015365545642  7.1061360144628729  9.9704689550554058
  5.6714252886924941  8.5446009478012392  0.0000170272552097
  7.1102065494705924  9.9480293836838012  1.4176884191289714
  5.7057878261479722  8.5164041835562418  2.8577245199646315
  7.1152121047752663  9.9477292536969824  4.2671073435981466
  5.6954627001530236  8.5195585259750288  5.6962509650858681
  7.1152200514239867  9.9477294104342047  7.1253521073968136
  5.7058373729506764  8.5164042829206448  8.5347762994720284
  7.1102908195347814  9.9478577455981760  9.9748348528498489
  8.5443385466738846  0.0129075736459769  0.0000000479976258
  9.9749059892608951  1.4192180623376824  1.4342206006255969
  8.5443700461122116 -0.0025873643874125  2.8474522135723932
  9.9671318150007018  1.4179089217764016  4.2733471970923826
  8.5443384468169103 -0.0037816421566763  5.6962256674410998
  9.9672168251236855  1.4179088496112366  7.1190187517106764
  8.5443069312279825 -0.0025872358510014  8.5449989355209741
  9.9747444134962695  1.4193079899698315  9.9582278608110180
  8.5443384256427528  2.8387894477039337  0.0000000413157982
  9.9681138511994583  4.2654234102087587  1.4238928934527479
  8.5444432907946801  2.8518105428766467  2.8516946532748788
  9.9562507780403919  4.2805471785096163  4.2843558060157383
  8.5443383487521452  2.8426853909451926  5.6962256976887469
  9.9562082687721354  4.2805471665798471  7.1081378814009808
  8.5442336528563700  2.8518106384368198  8.5407566484046562
  9.9680349035380935  4.2654711241956598  9.9685082750946830
  8.5443384944266416  5.6787801520850394  0.0000000241637840
  9.9711753682430313  7.1061361602963009  1.4219823205756359
  8.5443757280787320  5.6846650667773329  2.8411359514490249
  9.9721627018887986  7.0951842773770899  4.2684583843612627
  8.5443385700688381  5.6982715006458884  5.6962255945251750
  9.9721057724197486  7.0951842590891756  7.1240498385928515
  8.5443011865703618  5.6846648857225661  8.5513153328938305
  9.9711606764208831  7.1062484266178094  9.9705026741385954
  8.5443384542417977  8.5236633486358642 -0.0000000018143103
  9.9783860159458939  9.9478577792009855  1.4176164964193523
  8.5443132331226082  8.5195584963058852  2.8473499565997038
  9.9734566476152988  9.9477295261163601  4.2670993946424520
  8.5443384209907371  8.5205855137550355  5.6962255292930939
  9.9734648576872544  9.9477293308595929  7.1253438676953582
  8.5443636710833655  8.5195584454971129  8.5451013947853287
  9.9784703671220694  9.9480291743044411  9.9747628580134471
  2.8481128785137355  0.0308551015029792  0.0000000922658800
