Fe Os
 1.0000000000000000
    11.4043662482907120    0.0000000000000000    0.0000000000000000
     0.0000000000000000   11.3927396202065712    0.0000000000000000
     0.0000000000000000    0.0000000000000000   11.4043662626584048
 Fe  Os 
 126   1
Cartesian
  0.0514885348055242 -0.0000701932021801 -0.0377909199860573
  1.3658532704541966  1.3521221220259958  1.4846096154282595
  1.3810308573972185  1.3570548368040876  4.2181172041957833
 -0.0097472121988605 -0.0000424886277102  5.7436964854669110
  1.4316227761952520  1.4182373788887965  7.1320639148286791
 -0.0101206107471315  0.0000942949545783  8.5436226347612756
  1.4098171201966623  1.4311844667930322  9.9564180915490574
  0.0002740094463741  2.8337665757740806  0.0169556149618163
  1.4389771800335460  4.2687547264107204  1.4119763249914998
 -0.0097451183521129  2.8949501532671711  2.8607796812491921
  1.4210873599938387  4.2787944346450733  4.2828235005477024
  0.0004420437649334  2.8352913293802882  5.6900331683436898
  1.4171889948524974  4.2765787634611474  7.1239283478322291
 -0.0071239026080520  2.8513652218822552  8.5450755381950962
  1.4320189205769660  4.2637116160124204  9.9890516887608758
 -0.0007667804673900  5.6963708341892580  0.0084739877923912
  1.4391149870672306  7.1239849071870935  1.4121141899254188
  0.0000685979802441  5.6963698883715947  2.8510229952010655
  1.4211398578118892  7.1137478601752369  4.2825694218194528
  0.0032227058866779  5.6964071700964576  5.6953563779515930
  1.4171628847482609  7.1162739917059259  7.1237799263051462
  0.0002425384774774  5.6964208300836097  8.5559729020261788
  1.4319084271896070  7.1290371182625236  9.9891978629310501
  0.0002162821151138  8.5590719569243117  0.0168676825813891
  1.3664819273667654 10.0406175414425096  1.4852383074324738
 -0.0096885211993122  8.4977894144188131  2.8608371261905479
  1.3808694613487824 10.0359188513889528  4.2181418186139110
  0.0003794910713949  8.5575498616870398  5.6899036857418057
  1.4317263907706499  9.9741976931687439  7.1321935910375087
 -0.0072089754792518  8.5414090535328864  8.5451583251804273
  1.4099031555037476  9.9615823212690113  9.9563776906005454
  4.2990799609041073  1.4311571525637241  1.4411883386998536
  2.8888823076214707  0.0000699382038830  2.7996029790106221
  4.2717149610343963  1.4198359647832191  4.2724231025015422
  2.8365371659128638 -0.0001150061787143  5.6920717167086679
  4.2717610593885018  1.4180661913587649  7.1262224625771555
  2.8534128584279164 -0.0000222146102055  8.6151323930917449
  4.2945934292547134  1.4353047148778857  9.9608461411272220
  2.8303819749433439  2.7453063772224979  0.0205996096704894
  4.2662601906320985  4.2637022667604603  1.4191831487773323
  2.8342235740314461  2.8336675773004232  2.8508756875773211
  4.2810810477204946  4.2732586494944069  4.2773224410628243
  2.8304594394651450  2.8345150195585833  5.6867612453944254
  4.2753132665415015  4.2683785044753995  7.1184495833345744
  2.8442281406826639  2.8438171155754404  8.5515446412706133
  4.2595591321113053  4.2574499703332380  9.9960126696721847
  2.8484856684465396  5.6963698998515779  0.0026061135277249
  4.2664058685455615  7.1290276748683032  1.4190726438294796
  2.8426178498823398  5.6963687969561159  2.8518584261633189
  4.2811548258938616  7.1195529874261085  4.2774639794929552
  2.8489675052359535  5.6964177380764331  5.6985767310506192
  4.2754110074577767  7.1242697681528337  7.1184745272666117
  2.8475057292688666  5.6963608232905987  8.5546792755804741
  4.2594451479601743  7.1352895253328548  9.9958986292966667
  2.8304921907999687  8.6474332717177251  0.0207094148998003
  4.2990391691253418  9.9615553095380136  1.4412741673419986
  2.8341359942413682  8.5589729732934412  2.8508176534403118
  4.2715596432031155  9.9726616525970151  4.2724959282948056
  2.8303533767130280  8.5582512950111980  5.6868607451504403
  4.2719264854122185  9.9748738553056810  7.1263242809784257
  2.8442992343805682  8.5488389762676782  8.5515585667374232
  4.2946114528552268  9.9574353325540930  9.9608645292387497
  5.6403256317630825  0.0000224009888241 -0.0023214030664454
  7.1232640751842062  1.4185417064748254  1.4193654781448710
  5.7118354508446973 -0.0000941455623471  2.8612120512592809
  7.1302238042773061  1.4379037753540884  4.2853925750252388
  5.7062773091790113 -0.0000069280667775  5.6933826152005347
  7.1332220273095155  1.4336271801608234  7.1223581179763578
  5.7087508710857806 -0.0000000144759385  8.5467068087697076
  7.1291337372888908  1.4178658896608498  9.9835312410461192
  5.7038991562860923  2.8439007148676243  0.0067916999923895
  7.1316778520557760  4.2764656738630551  1.4339288013293052
  5.7102990777680800  2.8513306018305533  2.8583004313638569
  7.1292629779111589  4.2758871745417606  4.2771200949445438
  5.6997198203732431  2.8477468305352689  5.6975762759061768
  7.1364951965051127  4.2689293948587146  7.1189659580849520
  5.7108466817084418  2.8564538455281268  8.5445569138058097
  7.1369831521521165  4.2684699487188498  9.9800467417821839
  5.7007786503232554  5.6963788690396058  0.0035858441965156
  7.1315294361896937  7.1161611615014557  1.4339026455193948
  5.6994854094056908  5.6963189888523580  2.8508490479662338
  7.1292143004132313  7.1167428161095119  4.2771501683005901
  5.6965517454137160  5.6963155264493803  5.6988665339392623
  7.1364917201245026  7.1238101882002356  7.1189628273692858
  5.7001638575443270  5.6963698625122294  8.5552938278555200
  7.1370082446143774  7.1243609677825281  9.9801446054526970
  5.7039132335572234  8.5489225890522729  0.0068633974616215
  7.1233937554189950  9.9745021272185745  1.4194685705285401
  5.7103823807170082  8.5413744334675403  2.8582153018014504
  7.1302812890909557  9.9547899830552886  4.2852038008621269
  5.6997547408483502  8.5449468918326676  5.6975425872313226
  7.1330993994401295  9.9591125194535906  7.1222356430915275
  5.7109011932453848  8.5362855494217698  8.5446110398093591
  7.1292355682946855  9.9746732478565452  9.9836967765767799
  8.5633860439951643  0.0001149805110147  0.0145543441217275
 10.0373160663989704  1.3568205819030557  1.4702220422566519
  8.5117613040218227  0.0000424746671315  2.8608385587291592
 10.0231308357685389  1.3836136422192635  4.2324518712597019
  8.5669267070168349  0.0000000192961568  5.6885314199205066
  9.9702536533020805  1.4379495493026790  7.1251764821939592
  8.5620752149004407  0.0000068221672065  8.5491807222540164
  9.9829619064299315  1.4200781243486831  9.9838980693018939
  8.5685970058575514  2.8344878880183777  0.0207381665849675
  9.9728885343172635  4.2789921560957840  1.4299516811361201
  8.5655538220929781  2.8351898200216308  2.8507121226011969
  9.9748241892253624  4.2784299460211344  4.2806082830980321
  8.5714835073160742  2.8337390300311447  5.6839933925393940
  9.9783075114827557  4.2759966999149279  7.1262431397500237
  8.5579153864269006  2.8477926146796966  8.5557030987506479
  9.9779937964432133  4.2731868212059121  9.9743030908715351
  8.5568810136799467  5.6963222285757151  0.0021239961924568
  9.9726340629830190  7.1139450787054681  1.4300041385140827
  8.5601015302328829  5.6963324588009945  2.8478686085681257
  9.9748496906875044  7.1143096974201763  4.2806336536155669
  8.5554903246912399  5.6963696081307926  5.6999676436936566
  9.9783377074900894  7.1168524002127116  7.1261949246007044
  8.5565909841859344  5.6964242265906906  8.5589059809866672
  9.9781349619738844  7.1194808719837424  9.9743765163315139
  8.5686965580001715  8.5582244958753879  0.0206320837644570
 10.0373407703485995 10.0356851310848363  1.4700605291573645
  8.5654244058761844  8.5574481740798163  2.8506497817048273
 10.0230058917824802 10.0091262465757840  4.2323270233330383
  8.5714644072281203  8.5590007357876772  5.6839741834558062
  9.9700650290204962  9.9548356696027351  7.1252341083106634
  8.5578819547514975  8.5449929124573210  8.5557382605057040
  9.9830343646041406  9.9729038017333629  9.9837426937911147
  2.8530598880917286 -0.0000004979187897 -0.0019679727694859
