Fe V 
 1.0000000000000000
    11.3852225184937215    0.0000000000000000    0.0000000000000000
     0.0000000000000000   11.3852225130414428    0.0000000000000000
     0.0000000000000000    0.0000000000000000   11.3852225169444630
 Fe  V  
 126   2
Cartesian
  0.0056391893440450 -0.0122740355079674 -0.0124297099114065
 -0.0084019919926330 -0.0160166363726897  2.8548577265804687
  1.4264857933804864  1.4200580030731058  4.2472859755647185
  0.0028308012730557  0.0035939529103578  5.6879542015336648
  1.4259006687018296  1.4202245362074237  7.1268885004128144
  0.0037565152735699  0.0031236778276075  8.5471737552348124
  1.4107229832646619  1.4354268008423841  9.9677088169658532
 -0.0085521857055160  2.8547077643272405 -0.0160166784929595
  1.4262476586643584  4.2472861425586537  1.4198194647368754
 -0.0252597271544220  2.8715655947797036  2.8715654191139182
  1.4241046705715550  4.2725472060560516  4.2725593068290362
  0.0017180681891800  2.8446901708681716  5.6891673906762703
  1.4231216216438631  4.2720413196494809  7.1133985844367569
 -0.0031000971645627  2.8492851133564208  8.5371315123013982
  1.4263909041983562  4.2611178295296641  9.9658575799744860
  0.0029721562854291  5.6880475396070285  0.0034643303349859
  1.4260812548301678  7.1268885151504087  1.4204049285293141
  0.0016154681492690  5.6891673965363001  2.8445873659243417
  1.4230959333392916  7.1134482826942271  4.2721355125467460
  0.0013783431279699  5.6949042657370255  5.6949058829401062
  1.4215448501702994  7.1122638330932162  7.1123657557614317
  0.0001649620117871  5.6939679978070474  8.5372874052125454
  1.4266171593001349  7.1203278304160200  9.9650417844572612
  0.0037878162945742  8.5472574945733122  0.0032382875607069
  1.4108788196584261  9.9677089650531716  1.4355824152439653
 -0.0029794290249419  8.5371313831411175  2.8494059196443611
  1.4262762493737120  9.9658263499257522  4.2612016572280798
  0.0001799298302326  8.5372936796131995  5.6940997884452864
  1.4267469284580387  9.9649003867063559  7.1204213377020160
 -0.0030165926847410  8.5320934733045153  8.5321153494399997
  1.4071361579279216  9.9536675634035152  9.9535175314977273
  4.2638191875940397  1.4355826672676677  1.4354269330024425
  2.8585795880748659 -0.0124298241255707  2.8406664463665874
  4.2656703729223846  1.4199146086763323  4.2611178692460410
  2.8433773800218169  0.0027479798875315  5.6814867460434604
  4.2664865267865499  1.4196883174471771  7.1203277428669765
  2.8432110051159993  0.0033331607117469  8.5610892810887762
  4.2780104807385007  1.4391694293840895  9.9536676789284559
  2.8587354348432354  2.8406663983070564 -0.0122741840173503
  4.2657017761842599  4.2612016758920532  1.4200291937981393
  2.8623221993191135  2.8548577380253670  2.8547075689652472
  4.2724750420664090  4.2762598387231492  4.2762817764927847
  2.8428413524721274  2.8433336795899744  5.6880478425445018
  4.2692933228593928  4.2710878820885769  7.1144072936074316
  2.8430671893819728  2.8425177278452467  8.5472575084498210
  4.2725587226499631  4.2712438835189870  9.9590901944085140
  2.8435578341198005  5.6814867457688036  0.0029284450538781
  4.2666277880558656  7.1204211418573387  1.4195588832808734
  2.8427117018691783  5.6879541090268289  2.8434747003196361
  4.2692785389307844  7.1142754668713923  4.2710816674267162
  2.8479135007112100  5.6960092384539234  5.6961115734780305
  4.2680799360441446  7.1134693477322841  7.1134711308216554
  2.8463368404033891  5.6949766745268642  8.5363339419000202
  4.2677401169432851  7.1192078476815102  9.9636851030963385
  2.8429723233720794  8.5610890847089838  0.0030947395552710
  4.2778606169094369  9.9535175474249833  1.4391694953043166
  2.8431821692462873  8.5471736211144727  2.8425490190793368
  4.2724379974395115  9.9589694919462008  4.2712438285730476
  2.8463625858751738  8.5362399148618415  5.6949271001363897
  4.2678428964295883  9.9637881326188218  7.1192078788800979
  2.8453537066770167  8.5358160646192349  8.5358280932557928
  4.2947184035549517  9.9368100560398496  9.9368099373214420
  5.6704388796630889  0.0030948030345489  0.0033330206871062
  7.1046398194632578  1.4204048640346769  1.4202246465854191
  5.6842706655601596  0.0032382790120055  2.8425177276887399
  7.1181295965230156  1.4231840474338391  4.2720413727751998
  5.6951942326920912 -0.0000313884878780  5.6949764665016653
  7.1191620693962223  1.4247606096022321  7.1122637815350691
  5.6957001279513921  0.0009521103271517  8.5358159224344128
  7.1111067575866524  1.4195587710272299  9.9649003502196258
  5.6843546514659407  2.8425489352010276  0.0031235711895467
  7.1180798593964987  4.2721355579921338  1.4232097863622610
  5.6943965551002726  2.8494058471077754  2.8492852890352514
  7.1159154598419425  4.2692462388402959  4.2692057922811397
  5.6942409739658517  2.8461406843278083  5.6939680575053311
  7.1151527726533015  4.2653262552393993  7.1163635789492190
  5.6994127906292880  2.8493221848675736  8.5320935024674114
  7.1172527683725839  4.2710815941631051  9.9622498496700818
  5.6952883794172999  5.6949270790436994 -0.0000568052666201
  7.1192644870238473  7.1123657701403555  1.4247606709551310
  5.6942344184836360  5.6940998290606339  2.8461256754765190
  7.1151647105739197  7.1163752756014302  4.2653261909993585
  5.6884789391994497  5.6919999014642144  5.6920119025379234
  7.1160803646014994  7.1154478708199917  7.1154478242055283
  5.6923989918957494  5.6927622669840234  8.5391693786926783
  7.1180588348882052  7.1134711906307091  9.9634483071125821
  5.6957120579015417  8.5358279737369411  0.0009520882134706
  7.1112005948797252  9.9650418038953763  1.4196885263213306
  5.6994345807093962  8.5321155242085993  2.8493224343086498
  7.1171208210964361  9.9622346575790974  4.2710881300773442
  5.6923587366561037  8.5391290489448277  5.6927623832849648
  7.1180571780909139  9.9634482371414972  7.1134694894693489
  5.6996140669237629  8.5319138097723144  8.5319139583808159
  7.1123200229492927  9.9636851855282362  9.9637878123468511
  8.5500412940730790  0.0029284853862052  0.0027479910479767
  9.9842420142536277  1.4198195961554358  1.4200581431144230
  8.5434805230320201  0.0034644330566821  2.8433336840037287
  9.9589688364525664  1.4222008686817962  4.2725474961154610
  8.5354164635034042 -0.0016079886858435  5.6960093739174695
  9.9593926719239594  1.4232097882845989  7.1134481109077354
  8.5366010312526281 -0.0000568060488424  8.5362397441197668
  9.9703264767065836  1.4200293531536448  9.9658263387274904
  8.5435740534865925  2.8434748139727541  0.0035937770925617
  9.9589808774293971  4.2725592450052874  1.4222007236011924
  8.5423609923751744  2.8445873918164066  2.8446899063905886
  9.9550668110315303  4.2764614789540376  4.2764613508534106
  8.5366223830562546  2.8449272582978531  5.6949041436514927
  9.9622818614637580  4.2692061030094246  7.1156129084234809
  8.5374282943580013  2.8461255880603678  8.5372937116315040
  9.9552684298146161  4.2762818361922097  9.9590530196704918
  8.5355187465614097  5.6961114984551733 -0.0016078034088379
  9.9594868010392723  7.1133986320066898  1.4231841959727567
  8.5366240207550526  5.6949057498382487  2.8449272140648914
  9.9623219917723524  7.1156128765600366  4.2692463122759490
  8.5386005306724950  5.6929275076868242  5.6929276446021637
  9.9662019563426636  7.1163633970317219  7.1163753314428009
  8.5395281597798398  5.6920120008062280  8.5430491853482362
  9.9604400875339163  7.1144074282552241  9.9622347150557449
  8.5365515724916818  8.5363339305930186 -0.0000312807160629
  9.9704102853677306  9.9658576890309405  1.4199143349882091
  8.5375601464691808  8.5372874608155325  2.8461404003980291
  9.9552462320316408  9.9590531908892288  4.2762598599713808
  8.5395162348057312  8.5430492478445270  5.6920001238761895
  9.9604463902465845  9.9622497657464848  7.1142754405300863
  8.5387657985647341  8.5391692296021890  8.5391291443468003
  9.9602842888888503  9.9590902735755495  9.9589694503513417
  2.8882568361989915 -0.0419514088673253 -0.0419511921293145
  1.3812016838044137  1.4651040905548594  1.4651042284013838
