Fe Pt
 1.0000000000000000
    11.4028232999770811    0.0000000000000000    0.0000000000000000
     0.0000000000000000   11.4025152970062855    0.0000000000000000
     0.0000000000000000    0.0000000000000000   11.4028375394391244
 Fe  Pt 
 126   1
Cartesian
  0.0065559679468139 -0.0082210426213970  0.0000603066273650
  1.4061852535913153  1.4223237898628527  1.4445036973671626
 -0.0108678545590067 -0.0027774915807871  2.8615855727955846
  1.4227972774070237  1.4416253675942319  4.2674178478724780
  0.0021526300178585  0.0015374566395128  5.7001372416523557
  1.4229414765866615  1.4348017372810002  7.1278766373453637
 -0.0119253330285829  0.0024720037955014  8.5436385058858253
  1.4057062100303201  1.4611811295584940  9.9778329776199950
  0.0422230808676936  2.9040921062687133  0.0512471960753378
  0.0382636407636514  2.9238479323937803  2.8125205828345199
  1.4223160133673460  4.2885589763259571  4.3235221163528728
 -0.0050258363197057  2.8532883769718880  5.7011619774039541
  1.4201514511512014  4.2864635019532900  7.1157433651173010
 -0.0225436446309008  2.8714904456623174  8.5309022113158015
  1.4213045934644022  4.2791993280183576  9.9370708291487393
  0.0532216923053496  5.6561815319466682  0.0502510641272474
  1.4235921614048170  7.1830937940791664  1.4274840221053180
  0.0461807838726415  5.6551374958341123  2.8045897776828959
  1.4195969362125314  7.1051145035320840  4.2746153225151184
 -0.0002785299119514  5.7026824151291047  5.7031203184544319
  1.4199121221987085  7.1085046430589864  7.1154127678564105
 -0.0073327738421544  5.7025067906412898  8.5459055690139802
  1.4200954535034285  7.1218405946984271  9.9874512131782680
 -0.0152040293233051  8.5506358212318734  0.0004825151833032
  1.3974192354629202  9.9547432951434107  1.4532379796696104
 -0.0296212227634378  8.5311021450269529  2.8802746681719440
  1.4177807872231636  9.9709895783980773  4.2672097792379562
 -0.0071912685765331  8.5443502741897888  5.7008958988962597
  1.4176100821976185  9.9730810926845823  7.1275717542165973
 -0.0287521184196053  8.5252420948836090  8.5231158603492236
  1.3915870501307723  9.9473475466098726  9.9491598159082884
  4.2757907077512805  1.4611681109276062  1.4449216444738153
  2.8506882208863344 -0.0081161715548309  2.8439219183788143
  4.2644650322949573  1.4459288477009125  4.2641166305990845
  2.8486337486133961 -0.0020945978406325  5.6987587261599666
  4.2735131245239746  1.4314434466791510  7.1301479982868763
  2.8469936614244147 -0.0053628437755305  8.5707002247008983
  4.2848928635553563  1.4619927735113407  9.9685381615131359
  2.7987977314164763  2.8942419214318265  0.0519002504171123
  4.3162793076700634  4.2792579204859038  1.4296527194069644
  2.7991946761821427  2.9041515276701504  2.8084686193541741
  4.2665261733833422  4.2864836066074172  4.2733630299508940
  2.8521324302853439  2.8479132428936631  5.7020451499127018
  4.2711099604347913  4.2857959625940270  7.1190320200159567
  2.8507466077101946  2.8562595720057393  8.5437419703498296
  4.2675244189753538  4.2788985362526892  9.9862457964700884
  2.7991712480105209  5.6543804521106722  0.0515498501757601
  4.2662778165391346  7.1219277554513551  1.4303174388882647
  2.8004989204110164  5.6562523613768665  2.7976730400720071
  4.2647103974375860  7.1006074143356273  4.2695776148388402
  2.8530978206107984  5.7031131874595573  5.7026608048985654
  4.2767913779060978  7.1118886924926557  7.1171587559807987
  2.8496855256191727  5.7046059549078292  8.5515835380158567
  4.2616716904096936  7.1136560287547921  9.9917090269745898
  2.8490099106191327  8.5843932617222052  0.0017270657568278
  4.3043669429570883  9.9474693938181851  1.4591438339338874
  2.8502195481641146  8.5506791290053332  2.8660505121087638
  4.2807937478080911  9.9726338799321521  4.2717334374529141
  2.8493942372454164  8.5531913361603387  5.7008332353624906
  4.2799194916329970  9.9732395357604471  7.1258720716283062
  2.8488822865549670  8.5426857458305747  8.5393307330794652
  4.3063882782299832  9.9490589914624294  9.9471601602207844
  5.6828371315694675 -0.0054056007084613  0.0036088015166040
  7.1256864430662228  1.4350764430694827  1.4274566313809089
  5.7099046301727405  0.0025378626066535  2.8625890369476763
  7.1372181186654959  1.4371885133297220  4.2817368982866890
  5.6953301696792833  0.0078862088126302  5.6956458580811011
  7.1388482894593031  1.4359911478443124  7.1148084468008772
  5.7111297468043487  0.0073478280609042  8.5424682362059929
  7.1233754082945442  1.4312140489319070  9.9796838923118614
  5.7098164174640402  2.8561629379169879  0.0001038761499583
  7.1378914888832918  4.2863264902452167  1.4306105543517684
  5.7225194206644954  2.8715230092054584  2.8734160750962481
  7.1332479195372507  4.2831739315712731  4.2751596013728745
  5.7039926073174856  2.8579655633132970  5.7025564510021285
  7.1359300759991493  4.2860772780886878  7.1176329857353950
  5.7241637991765533  2.8756253106606970  8.5294207781082108
  7.1344158321606139  4.2858570566146632  9.9824023936092168
  5.7019891848473829  5.7044251519780058  0.0009168327117682
  7.1379640563166413  7.1083470998506657  1.4307874491291066
  5.7076072139269964  5.7026460535785599  2.8580088536606780
  7.1381708429012294  7.1092561478301128  4.2845364719150627
  5.6967011354735604  5.6983355229061043  5.6993574632633610
  7.1404514689613920  7.1092978565643081  7.1130905998023461
  5.7071284684960979  5.7002824528860279  8.5464086056690043
  7.1365226091479146  7.1119602295036417  9.9767779497924032
  5.7142291576869084  8.5425860457594052  0.0018958044456718
  7.1259765992375916  9.9733441818215578  1.4332917946199852
  5.7304136105036854  8.5253212425027609  2.8794008776928148
  7.1385649934698447  9.9738514425573701  4.2855734502895997
  5.7018715130347530  8.5378510704168722  5.6951619937148266
  7.1403628767737759  9.9714331233708631  7.1130869403488894
  5.7245473339536455  8.5175825590173186  8.5290297295453730
  7.1277104301668253  9.9729584153914832  9.9738882666785251
  8.5547525196723395 -0.0020130457250484  0.0020561935125321
  9.9860665314574302  1.4414790795769239  1.4280474973173287
  8.5533616892019158  0.0015114113154694  2.8485379542555913
  9.9829012461403366  1.4505764296632255  4.2705123940508845
  8.5595321220800962  0.0101827506295876  5.6939825107171300
  9.9718673242565181  1.4371800580064809  7.1162447221044776
  8.5579386089375920  0.0078500786694815  8.5582060159046591
  9.9894759028408568  1.4461143496888691  9.9892872691210535
  8.5515187501194134  2.8479924345367817 -0.0016323812499373
  9.9301887663113000  4.2885193188558173  1.4284008564276278
  8.5522730914003873  2.8532240301919920  2.8556260006151160
  9.9850416896315419  4.2831935185976988  4.2684884609263651
  8.5543010826067789  2.8529228276689822  5.6991541443723621
  9.9783766279265667  4.2831827433670142  7.1202458048995076
  8.5510333496593969  2.8579793902344925  8.5494680555153817
  9.9801709064886914  4.2863677892419050  9.9869862353310204
  8.5509255501115220  5.7030954025591489 -0.0023122059456831
  9.9788855176192097  7.1051293093165730  1.4310491767464721
  8.5503964848974050  5.7025576572213996  2.8510334390255681
  9.9830580009186516  7.0980894308247500  4.2704232108042239
  8.5562117291785249  5.6930777278802447  5.6973549853006640
  9.9689894815166777  7.1092675403287107  7.1153716519393120
  8.5542006966820434  5.6983113759375987  8.5568914815935386
  9.9841458831272387  7.1004523677550297  9.9888775302591348
  8.5527569373527239  8.5531822207122712  0.0013530690865836
  9.9863064975392053  9.9707203580607029  1.4327292891633656
  8.5525306780178774  8.5442634403731041  2.8578494200638449
  9.9700671602906876  9.9740025745519123  4.2835151629328267
  8.5604263303510688  8.5455537411709770  5.6930748733491887
  9.9678399799619211  9.9738062711136308  7.1150334304631739
  8.5584103256578921  8.5378248608263956  8.5516834550578888
  9.9817804720864594  9.9727489112732002  9.9725855133904826
  2.8534822285441219 -0.0276418841282411 -0.0027277424475585
