Fe Os
 1.0000000000000000
    11.4112936455752934    0.0000000000000000    0.0000000000000000
     0.0000000000000000   11.4112936382673258    0.0000000000000000
     0.0000000000000000    0.0000000000000000   11.4112936472007309
 Fe  Os 
 127   1
Cartesian
  0.0742957965063738 -0.0000000157995518  0.0000000023470916
  1.4140337098066704  1.4387896414678529  1.4387896515133700
 -0.0022332096603735 -0.0000000184409192  2.8550565986787562
  1.4342932629041021  1.4187141051280248  4.2752273499209803
 -0.0034208646366240  0.0000000206219036  5.7056468261889490
  1.4341093828019897  1.4185301675080244  7.1360662719681267
 -0.0022331576753279 -0.0000000120712105  8.5562370772846101
  1.4140337918114341  1.4387896022297253  9.9725039954382417
 -0.0022331569625407  2.8550565944282678  0.0000000303420704
  1.4341093413524355  4.2752273565603547  1.4185302037675214
 -0.0068327228151397  2.8596561082123495  2.8596561486412719
  1.4185032540621103  4.2826958481092818  4.2827692290763446
  0.0000813854225938  2.8527420525702669  5.7056468019073572
  1.4185032535243116  4.2827692825458055  7.1285978433909882
 -0.0068327575207973  2.8596560853003292  8.5516375584610369
  1.4342932410084139  4.2752273454001228  9.9925796084623357
 -0.0034207988067189  5.7056468681585653 -0.0000000274665882
  1.4342932455125921  7.1360663201006540  1.4187140140220635
  0.0000813862922258  5.7056468274452694  2.8527419465190005
  1.4185032177247761  7.1285243831512695  4.2826957481613315
  0.0014378370198568  5.7056467925016570  5.7056467614148554
  1.4185033104173821  7.1285978925473881  7.1285243860592367
  0.0000814171913065  5.7056468629669510  8.5585516211109667
  1.4341093930462732  7.1360663055521378  9.9927634873173936
 -0.0022332121403261  8.5562370798554372 -0.0000000511175050
  1.4140337414571080  9.9725040191342895  1.4387897142754476
 -0.0068328266039332  8.5516375033333496  2.8596560971980685
  1.4341093509569796  9.9927634681282118  4.2752273097306999
  0.0000814113949725  8.5585516101967407  5.7056468171830295
  1.4342931982700113  9.9925795919093208  7.1360662257187997
 -0.0068327257510446  8.5516375052975491  8.5516375573724233
  1.4140338437863871  9.9725040440813650  9.9725039505196857
  4.2916131199865530  1.4387896453880418  1.4387896627573611
  2.8528234669061319  0.0000000790217898  2.7785276707803570
  4.2715375030950105  1.4185301803772905  4.2752273560150815
  2.8528234557900429 -0.0000000216511321  5.7056468461208087
  4.2713535698022307  1.4187140947829566  7.1360662964041710
  2.8528234289041032 -0.0000000093286576  8.6327660039580429
  4.2916130932883680  1.4387896777210498  9.9725039238333810
  2.8528234073873926  2.7785276213711834 -0.0000000132192121
  4.2713535562425644  4.2752273516193569  1.4187141045598248
  2.8528233514754819  2.8550566126927328  2.8550565933158998
  4.2871435490316241  4.2827693060407146  4.2826957892737765
  2.8528234233347947  2.8562442817628586  5.7056468009775445
  4.2871435525499839  4.2826958915361848  7.1285243288279867
  2.8528234232762957  2.8550566565602282  8.5562370234087730
  4.2715374796724239  4.2752273583490590  9.9927634425572016
  2.8528233914048289  5.7056468749427092  0.0000000360316094
  4.2715374933971324  7.1360663502705419  1.4185301903718022
  2.8528233814547717  5.7056468414623778  2.8562443006584886
  4.2871435568841179  7.1285977853947253  4.2827692680551674
  2.8528234045109713  5.7056468217106238  5.7056468393071933
  4.2871436155525569  7.1285243956887259  7.1285978441933366
  2.8528234067756224  5.7056468506604912  8.5550494457417816
  4.2713535893196788  7.1360662855351791  9.9925795922426648
  2.8528234219769826  8.6327660915560500 -0.0000000074964403
  4.2916130885056631  9.9725039953148737  1.4387897157851091
  2.8528234050654340  8.5562370772423559  2.8550565730022712
  4.2713536236411072  9.9925794852705252  4.2752274071062111
  2.8528234301362954  8.5550493747520999  5.7056468211172175
  4.2715375171746421  9.9927634876982339  7.1360662795415708
  2.8528234309125970  8.5562370486565111  8.5562370106768633
  4.2916130219195594  9.9725040080117715  9.9725039354201428
  5.6313509681483467 -0.0000000069982614 -0.0000000660103455
  7.1280507515306315  1.4187140269720580  1.4185301395726757
  5.7078800436676191 -0.0000000051828977  2.8550566205016650
  7.1355192529283737  1.4343201265470966  4.2827692758637141
  5.7090676602752133  0.0000000408886940  5.7056468712297059
  7.1355927019712029  1.4343201050648655  7.1285978488202844
  5.7078799805416551 -0.0000000194669743  8.5562370737802276
  7.1280508081996778  1.4185301805293682  9.9925795946909179
  5.7078800434437458  2.8550565851939864 -0.0000000056482451
  7.1355927235274486  4.2826958210002308  1.4343201054110137
  5.7124794445500351  2.8596561501911473  2.8596561242947707
  7.1332285292633397  4.2804051072245608  4.2804050962387077
  5.7055654555861279  2.8527420230758955  5.7056468614564588
  7.1332285553834627  4.2804051939119834  7.1308885178098746
  5.7124795906645964  2.8596561528770712  8.5516374809419382
  7.1355192339895677  4.2827692697161694  9.9769735486048834
  5.7090676077528721  5.7056467859932178  0.0000000210386974
  7.1355192558964369  7.1285243283788686  1.4343201416874296
  5.7055655011566930  5.7056468492977395  2.8527420131122780
  7.1332286472929018  7.1308885372338979  4.2804051237087624
  5.7042089825326725  5.7056468220176111  5.7056467731069933
  7.1332285551675012  7.1308884861990336  7.1308885090150680
  5.7055654453255826  5.7056467913660276  8.5585516361793026
  7.1355927179941609  7.1285978689218821  9.9769735319961885
  5.7078799475901247  8.5562370164557411 -0.0000000055509655
  7.1280507433154794  9.9927634617861685  1.4187140802673304
  5.7124795111445037  8.5516375266306408  2.8596561428012368
  7.1355926788294832  9.9769735103589863  4.2826958388481700
  5.7055654989232814  8.5585516070746266  5.7056468807287279
  7.1355192660505402  9.9769735192977986  7.1285243938802560
  5.7124794789895423  8.5516375044226649  8.5516375314759721
  7.1280507617522328  9.9925795632872418  9.9927635168272086
  8.5584701947193356 -0.0000000310942012 -0.0000000347363905
  9.9888897094350195  1.4185301851417673  1.4187140582533944
  8.5584702011899374  0.0000000531119000  2.8562442028254251
  9.9813477441810878  1.4343200966690979  4.2826959178634141
  8.5584702289421077 -0.0000000194957177  5.7056468444187116
  9.9814212789506058  1.4343201302796094  7.1285243731389096
  8.5584702065160734 -0.0000000231212506  8.5550493890813293
  9.9888896855300100  1.4187140480077320  9.9927635315539920
  8.5584702375453077  2.8562442274120214  0.0000000267358474
  9.9814212191586869  4.2827692729174087  1.4343201368442746
  8.5584702315470729  2.8527419518597092  2.8527420058326896
  9.9837118642061409  4.2804051454090564  4.2804051100665355
  8.5584702215150230  2.8513855748843095  5.7056467958168646
  9.9837119096279050  4.2804050904428710  7.1308885309884884
  8.5584702401566020  2.8527420176550562  8.5585516327131668
  9.9813478066002457  4.2826957970155677  9.9769735284533922
  8.5584702804523971  5.7056468632655974 -0.0000000366768091
  9.9813478233602400  7.1285977719810569  1.4343201209520695
  8.5584703000194917  5.7056468179476090  2.8513855628210658
  9.9837119380715542  7.1308884351044259  4.2804051481478886
  8.5584702174179128  5.7056468132194453  5.7056468179228084
  9.9837119360646920  7.1308884621919777  7.1308884574955353
  8.5584702850950443  5.7056468175359667  8.5599081031718391
  9.9814212386658916  7.1285244032620536  9.9769735560492894
  8.5584702354272721  8.5550494670197246  0.0000000948352033
  9.9888896648882639  9.9925796346203235  1.4185301920556568
  8.5584702420307242  8.5585516388375620  2.8527419969353005
  9.9814212325273903  9.9769735568300550  4.2827692864338598
  8.5584702150267500  8.5599081061087894  5.7056468096317756
  9.9813477445908028  9.9769735008041369  7.1285978637536376
  8.5584702666004322  8.5585516112625886  8.5585516444727308
  9.9888897309817963  9.9927635216303816  9.9925795689731771
  2.8528233744813436 -0.0000000532335686 -0.0000000637506432
