Fe Mn
 1.0000000000000000
    11.3623697118488494    0.0000000000000000    0.0000000000000000
     0.0000000000000000   11.3612486976354852    0.0000000000000000
     0.0000000000000000    0.0000000000000000   11.3623697139091355
 Fe  Mn 
 126   1
Cartesian
  0.0172953525883799  0.0002506139734560 -0.0401613232731114
  1.3907253306889862  1.3415310724272806  1.4500041354755202
  1.3753687915923063  1.3610677912541467  4.1927098716576543
 -0.0008890235080808 -0.0000098354737476  5.7221783191025510
  1.4258568198685095  1.4179767676220147  7.1156930907826146
  0.0088842809389339 -0.0000063760942637  8.5327489463929851
  1.4396213165843397  1.4006751274999134  9.9609167729683783
  0.0131502211921456  2.8144916296132010  0.0135030683997491
  1.4281372297969406  4.2473044004236060  1.4125028960953334
  0.0075347414500267  2.8740991388356361  2.8331883315426265
  1.4224143140752825  4.2638180950047868  4.2652636112740945
  0.0041434921343526  2.8219016046715466  5.6699075828270740
  1.4195712018055924  4.2631047643378404  7.0980496291777992
  0.0055010418749495  2.8277282381527220  8.5261099065756767
  1.4225906042238485  4.2463002230419162  9.9465462243528187
  0.0017497119598411  5.6805928523437181  0.0102259042566735
  1.4280896546276018  7.1139442112802822  1.4124553155906516
  0.0059419144970855  5.6806242581128936  2.8346505722199233
  1.4224414789581203  7.0975968155475240  4.2651754674111224
  0.0021729156016243  5.6806668948246779  5.6721378421830684
  1.4195518927631747  7.0981171205485190  7.0981139051471418
  0.0049832410136214  5.6806421279334902  8.5277999130673940
  1.4225661785924875  7.1149858438843392  9.9465685894235598
  0.0130303440755233  8.5465403023687561  0.0134286095501319
  1.3905883145355218 10.0197177553948542  1.4498671013387285
  0.0074040736938162  8.4871494565492132  2.8330577983498548
  1.3752450758970687 10.0000589502960455  4.1929716280653277
  0.0040723571170971  8.5392805974709738  5.6699705621600804
  1.4257948827568800  9.9429703771003624  7.1158119047712241
  0.0053851198895109  8.5335288368039617  8.5261677684476211
  1.4395243412617089  9.9605379597486952  9.9609080696227679
  4.2420543114186549  1.4007106936560343  1.4010683086392566
  2.8807536715167892 -0.0002505729052462  2.8232972392714930
  4.2593081246938755  1.4184162426881151  4.2508051951277324
  2.8280475316203977 -0.0001225421021358  5.6706102678551122
  4.2564199467366937  1.4155502922147474  7.1129066816964475
  2.8329618190875623 -0.0001202822031801  8.5321378286087040
  4.2412950900199178  1.4000319163661779  9.9615503658394360
  2.8228374463946531  2.8061590246413726  0.0176713106314205
  4.2563935098950578  4.2462628361798824  1.4180264085836600
  2.8271637909056349  2.8147084657050452  2.8275622531532858
  4.2588141520335503  4.2606772849101580  4.2618059653797662
  2.8211714017911476  2.8216167115719344  5.6634928661369273
  4.2523473615147704  4.2559043376999526  7.0910480843325674
  2.8358529317813068  2.8270851413337046  8.5304128625740425
  4.2471190718319960  4.2390464589516155  9.9558844511552014
  2.8354738100219339  5.6806243620943162  0.0051187327178993
  4.2564158670324757  7.1149485421038463  1.4180016868139891
  2.8303665503330917  5.6806557238918325  2.8388428112670812
  4.2588625526852883  7.1006166990263448  4.2617074367034631
  2.8357292282304374  5.6806917371279715  5.6757496900779216
  4.2523865801884373  7.1054367911791134  7.0910327540954015
  2.8379840459983625  5.6806327376182226  8.5241936597415382
  4.2470780112988580  7.1222021336139658  9.9558430041107862
  2.8229212688646053  8.5550896268656000  0.0177548540990700
  4.2420454093158213  9.9605736315342721  1.4009709603350298
  2.8270895289395606  8.5467570605336984  2.8274418827603278
  4.2594216577960218  9.9426967030922970  4.2509207461896592
  2.8211621682997676  8.5395714675830217  5.6635538379173633
  4.2565436812927464  9.9456783035174574  7.1129770710563331
  2.8358772656241817  8.5341292668858042  8.5304758448993834
  4.2414115983635190  9.9612165835343536  9.9616670342431721
  5.6708243276564705  0.0001204970059388  0.0076305251105225
  7.0871500688352915  1.4182782181379567  1.4147976502864259
  5.6702134837607447  0.0000063957137877  2.8317079875187381
  7.1001632256061793  1.4227595278034302  4.2670159668768139
  5.6806992513145458 -0.0000141032706107  5.6742517661206255
  7.1038818306082101  1.4204269544468537  7.0990748770029066
  5.6731080519452632  0.0000000317411832  8.5298539724666025
  7.0899847554715327  1.4155702443903129  9.9464187761197085
  5.6724862159649243  2.8271196178895912  0.0047151912407046
  7.1048480820335893  4.2631316602240448  1.4210405639969836
  5.6767943966458860  2.8277199344717148  2.8352072158635626
  7.0974381170701761  4.2561004138576202  4.2557735938519565
  5.6751893943189051  2.8315499441980956  5.6768051074590478
  7.1042878012057757  4.2487437078265868  7.0986182332391659
  5.6739096667909870  2.8330282474186683  8.5289722242030219
  7.1119294023741126  4.2558118969421042  9.9505756266284351
  5.6787683462435083  5.6806159769752362  0.0026083910063467
  7.1049123920904584  7.0981440619338088  1.4210212941919047
  5.6751624662709492  5.6806064995390511  2.8356091224054460
  7.0975193702451049  7.1051105166017479  4.2556972200748291
  5.6779987336769233  5.6806705962857187  5.6787166763509385
  7.1043438997712656  7.1125049642979139  7.0986741802279472
  5.6748832055868483  5.6806245094316727  8.5280788693747507
  7.1119141184705450  7.1053443006094410  9.9506148583583194
  5.6725493169110450  8.5341636498681268  0.0047393172607631
  7.0872692300986113  9.9432718404877267  1.4147356576534689
  5.6768523683411845  8.5335205616089116  2.8350914868301853
  7.1001158442054590  9.9384303091367023  4.2670027364562300
  5.6752965820501151  8.5296215889729297  5.6768139733415026
  7.1038872996809816  9.9408216124217166  7.0990804676410688
  5.6739899342572571  8.5282204378716617  8.5290526282736305
  7.0900553707866694  9.9456981800130855  9.9465423358165186
  8.5323517143483691  0.0001225714003673  0.0125447912608979
 10.0099904993341884  1.3611895683238875  1.4653473470476754
  8.4807836644606720  0.0000097895911382  2.8414814736562648
  9.9928219618303302  1.3658365021876402  4.2102083679559312
  8.5330125609665437  0.0000000227850746  5.6699496600811035
  9.9359593307504941  1.4228183615866272  7.1028462525935456
  8.5287104128738207  0.0000142386837729  8.5222629441984701
  9.9520413890236874  1.4185519740542056  9.9435404978811608
  8.5394084632319700  2.8216771154167630  0.0194303103354510
  9.9377867485517495  4.2636517344793390  1.4181510146962077
  8.5329914992655205  2.8219680196985339  2.8365200218010469
  9.9457168598316397  4.2565034710822918  4.2572236986659773
  8.5401586529129947  2.8201688505968687  5.6627964540521978
  9.9472649248526235  4.2561381478497147  7.1054429175991958
  8.5261484490363166  2.8316270899569425  8.5276655195609088
  9.9412547614180244  4.2606318985267624  9.9440994303142922
  8.5272123693461310  5.6805571067282736  0.0048632988920152
  9.9376983996425707  7.0974306981584983  1.4181781349391915
  8.5308241598031529  5.6805818220665421  2.8384197108511029
  9.9457383061043050  7.1047454808993340  4.2572453567645354
  8.5263680606819516  5.6806244349596016  5.6765939701832648
  9.9471885685975252  7.1051485111575898  7.1055239907887993
  8.5242455916319297  5.6805781025020314  8.5249633391275754
  9.9411561774199235  7.1005713415317153  9.9441478666067571
  8.5394693088182212  8.5396320537831389  0.0194211255631953
 10.0102521467841026 10.0001807071024960  1.4652235702858118
  8.5330546081918452  8.5393468953545284  2.8364489919969440
  9.9927538381870349  9.9954119879257668  4.2101402314668803
  8.5401655470405693  8.5410799556032551  5.6628034015917246
  9.9359463439137201  9.9384892322513867  7.1027988765968013
  8.5261568462721637  8.5296988117806638  8.5277728044902208
  9.9521568132184104  9.9428324662110636  9.9436537567343066
  2.8357320427995045 -0.0000000790911059  0.0048603023444504
