Fe Ru
 1.0000000000000000
    11.4003818893822757    0.0000000000000000    0.0000000000000000
     0.0000000000000000   11.3873622950232036    0.0000000000000000
     0.0000000000000000    0.0000000000000000   11.4003818950911668
 Fe  Ru 
 126   1
Cartesian
  0.0406283827928040 -0.0000672120462417 -0.0331587145343902
  1.3656793740991098  1.3548919017365280  1.4837214230469777
  1.3794706024942984  1.3627258844592167  4.2216911590838118
 -0.0061577568265936 -0.0000472205684160  5.7408597435149318
  1.4281195207432096  1.4207358282713693  7.1303399972945316
 -0.0075116766308762  0.0000777190997406  8.5428443177785560
  1.4103893745864216  1.4312231352697300  9.9539424721511676
  0.0008375887022092  2.8328661567223730  0.0149272859342511
  1.4343595284987483  4.2660977805942482  1.4156208352977073
 -0.0099069300667380  2.8932437024791575  2.8599028266107949
  1.4210631994781282  4.2774250413457446  4.2821409312613907
 -0.0011617799046001  2.8349332083127190  5.6888226259157451
  1.4177073821895609  4.2752742254875242  7.1200853312825636
 -0.0097899863720737  2.8519582987278453  8.5396858042289505
  1.4270004526120641  4.2629746360092318  9.9809493979190247
  0.0011767869772804  5.6936913620876082  0.0092002024211762
  1.4344748523870656  7.1212645325166015  1.4157361174405678
 -0.0007720036609544  5.6936813494221461  2.8508674184227103
  1.4211045149704482  7.1097746030593534  4.2819929247516439
  0.0038380901659237  5.6936973754005837  5.6926639989956405
  1.4176795801232900  7.1121032209000683  7.1199961071271263
 -0.0015882165026863  5.6937239066281427  8.5509687004204764
  1.4268543722956157  7.1244040740591830  9.9811047093840077
  0.0007570154363354  8.5546345953294356  0.0148751906347186
  1.3663740813187333 10.0324704235740008  1.4844167889093927
 -0.0098071266629442  8.4941184938045229  2.8600023737609019
  1.3793521044350838 10.0247781431086533  4.2217395425911057
 -0.0012374689736255  8.5525227507078423  5.6887175389951485
  1.4282670710950092  9.9662888293904857  7.1304658702986137
 -0.0098540796106427  8.5354351866677654  8.5397464969907837
  1.4105024967143829  9.9561076156977837  9.9539161659268309
  4.2965611939402777  1.4312550237884787  1.4395929966924887
  2.8832536979015124  0.0000671716184213  2.8094670973390334
  4.2732003292526315  1.4224158640249862  4.2701559150306565
  2.8371489570997954 -0.0001209273036449  5.6912534354438931
  4.2730919962071976  1.4207573833518357  7.1248293850954152
  2.8522877340510324 -0.0000168504885087  8.6086550072749883
  4.2905634482764805  1.4312362463590544  9.9599479817166578
  2.8333002972556471  2.7636091352778704  0.0166802638355494
  4.2693729173020127  4.2629581177603990  1.4232410949143974
  2.8352199890706182  2.8327275366366917  2.8493385493582406
  4.2788213162140520  4.2732309388170195  4.2775550524276893
  2.8307044674642050  2.8311804854644333  5.6852195193531205
  4.2729091278594984  4.2677909664008506  7.1145946621264384
  2.8434862518155044  2.8412493484205670  8.5499131387500586
  4.2635166198707539  4.2575414212166356  9.9870941972718370
  2.8475589796283298  5.6936811149609134  0.0025365937373980
  4.2695280311403918  7.1243878470283626  1.4230947470577744
  2.8408951249482755  5.6936710790707554  2.8489188521168405
  4.2789073332447476  7.1141345816652297  4.2776136085534118
  2.8473053532544568  5.6937116871714215  5.6960197781669537
  4.2730079507750292  7.1195339435528817  7.1145373683706330
  2.8462978284826277  5.6936728586452254  8.5538476906519829
  4.2633833534336363  7.1298212153939815  9.9869605017029617
  2.8334150078108249  8.6237530577109354  0.0167950199767197
  4.2965352187330135  9.9561389478876166  1.4397060791869212
  2.8351681279452725  8.5544961582850156  2.8492579261378603
  4.2730341507463772  9.9647312681770703  4.2702303310888823
  2.8306133921653100  8.5561352986009673  5.6852970383566968
  4.2732737707253223  9.9668096326235887  7.1249137197599612
  2.8435478977815887  8.5460175287988189  8.5498929125056105
  4.2905293986901940  9.9561261807948291  9.9599140443275189
  5.6418222250940655  0.0000169684147415 -0.0021921237605951
  7.1200113341298179  1.4210733850225503  1.4218281934815564
  5.7076331631648287 -0.0000775016211803  2.8576071238563494
  7.1284702319464817  1.4349841119369646  4.2843536313968587
  5.7011680371683537 -0.0000196332211200  5.6911798942183234
  7.1315386906741178  1.4309948708155014  7.1189896415403320
  5.7038398679270035 -0.0000000787388120  8.5466378010561570
  7.1255635006041587  1.4205525343535246  9.9772036202236283
  5.7005846571690668  2.8413448881055010  0.0065475994398173
  7.1304815272259443  4.2752588908534861  1.4324159309487789
  5.7107307298160226  2.8519272907451092  2.8599494913745089
  7.1280885659747222  4.2741221688259339  4.2764605676455867
  5.6987794625983712  2.8460686970260647  5.6950744379978575
  7.1352834568087076  4.2661413138269095  7.1152092421018569
  5.7101318639247189  2.8565790296528770  8.5403135114812816
  7.1359399019638632  4.2678283719560524  9.9774693702752337
  5.6966295536937528  5.6936893940996818  0.0037975603618606
  7.1303921137766935  7.1120880218339115  1.4323882405307984
  5.6995085031320443  5.6936386097607548  2.8516836476314329
  7.1280476675361388  7.1131383595881248  4.2764807645709562
  5.6949807473369738  5.6936211976611810  5.6969037349854856
  7.1352678455688645  7.1212211956980260  7.1151935600634078
  5.7003488348643794  5.6936811202877990  8.5501283960506136
  7.1358823114968972  7.1195715760534890  9.9775683067757441
  5.7005640053745790  8.5461128982579684  0.0066090520089020
  7.1201373829127945  9.9666262663096230  1.4219760276473847
  5.7107913652251501  8.5354038562779930  2.8598853499954457
  7.1285087219577354  9.9523499768919450  4.2842094987549055
  5.6988104199290568  8.5412641554506727  5.6950416455268336
  7.1314877173038758  9.9563675314562357  7.1189386262540708
  5.7101638106929080  8.5307832013721594  8.5403456360406764
  7.1256478466196036  9.9666050863205875  9.9773852461407699
  8.5592238135388587  0.0001212208814152  0.0129463291030193
 10.0287376858736437  1.3625841847805598  1.4707436202399811
  8.5096176339398717  0.0000473060195994  2.8562531918222778
 10.0204358992652089  1.3805476723710237  4.2301930911163934
  8.5641967477219616  0.0000000415175657  5.6862808251523962
  9.9662681958592056  1.4350122197640776  7.1219687952768584
  8.5592975553199047  0.0000198152874145  8.5493093661085187
  9.9802470420002827  1.4226310486116316  9.9774431815467342
  8.5651801399954035  2.8312268113088130  0.0194823450611665
  9.9684842699192018  4.2775878296787617  1.4289910304823150
  8.5617599602985965  2.8348396818818284  2.8513326713721066
  9.9714966035045673  4.2761581918504366  4.2789352406726140
  8.5688349569401083  2.8303542390723333  5.6816634100801906
  9.9739965752962121  4.2742239803890998  7.1224295407685831
  8.5554358728754192  2.8460980083437013  8.5516669344698055
  9.9728634859396070  4.2732281402866636  9.9715699460977927
  8.5544577343797918  5.6936507296640597  0.0027902000312402
  9.9683364134480872  7.1099372640925553  1.4290323822074424
  8.5578133770233453  5.6936648731731720  2.8462570983008355
  9.9715424152920189  7.1112039759771735  4.2789807808403220
  8.5535066980541998  5.6936812671258767  5.6969705201210852
  9.9740170141739366  7.1132400449278252  7.1223890028259760
  8.5535737525052191  5.6937410915408204  8.5554966843321747
  9.9729222335127954  7.1141313051751132  9.9716560129365419
  8.5652580416576356  8.5561819147304892  0.0193910165289133
 10.0287859965576107 10.0246362516510672  1.4706250243955521
  8.5616547392631777  8.5524290488288823  2.8512573202766660
 10.0202842712696238 10.0068148948282438  4.2300414010529428
  8.5688140482661748  8.5570083288260381  5.6816422746843811
  9.9661238328041168  9.9523783362955811  7.1220071123806719
  8.5554029739261921  8.5412938958540430  8.5516980774565301
  9.9803213249171154  9.9649465661743299  9.9772769909552981
  2.8509683890855237 -0.0000000685445944 -0.0008736170649148
