Fe Re
 1.0000000000000000
    11.3989867376579586    0.0000000000000000    0.0000000000000000
     0.0000000000000000   11.3989867341529525    0.0000000000000000
     0.0000000000000000    0.0000000000000000   11.3989867379109331
 Fe  Re 
 127   1
Cartesian
  0.0412850191680629 -0.0000000086845626 -0.0000000772620535
  1.4052953587061527  1.4444514164580966  1.4444514435146258
  0.0079032029906743 -0.0000000313583382  2.8418434053383539
  1.4310205366570328  1.4188504952136394  4.2707145545533933
 -0.0016984615589317  0.0000000389062335  5.6994933584924521
  1.4308962885318264  1.4187260794062448  7.1282721086753753
  0.0079032399881179 -0.0000000281772486  8.5571433379921924
  1.4052951848963531  1.4444513921004638  9.9545353836033961
  0.0079032885301572  2.8418434733406555  0.0000000325374925
  1.4308962075511513  4.2707145627925289  1.4187261347836135
  0.0000437577118230  2.8497029763531936  2.8497030405661010
  1.4190699431095182  4.2745872351029188  4.2746562058247406
  0.0008611036795855  2.8488855504378638  5.6994933680685937
  1.4190698777249848  4.2746562734785396  7.1243994450023669
  0.0000436624244422  2.8497029314734186  8.5492837300168567
  1.4310205185855951  4.2707146180251021  9.9801362876159772
 -0.0016985371782658  5.6994933727216379  0.0000000090396237
  1.4310205464830950  7.1282721537956792  1.4188504631721335
  0.0008611198743211  5.6994934105312804  2.8488855113000802
  1.4190699152385091  7.1243305016191965  4.2745872628440615
  0.0018378492411470  5.6994933829073098  5.6994933013244999
  1.4190699635077872  7.1243994169466802  7.1243304492821702
  0.0008611351921834  5.6994934107829565  8.5501012315462290
  1.4308961912288487  7.1282721553296193  9.9802605148926293
  0.0079032151783537  8.5571433181125638 -0.0000000852569074
  1.4052952667867924  9.9545353346913377  1.4444514773208943
  0.0000436664799695  8.5492836838482926  2.8497030032273751
  1.4308962037417765  9.9802606113788546  4.2707145992521811
  0.0008611038111952  8.5501012564623800  5.6994933360285795
  1.4310204526886074  9.9801363288136749  7.1282721116219490
  0.0000436931040496  8.5492837813427052  8.5492837621124416
  1.4052953687348797  9.9545354065742977  9.9545354041758092
  4.2941980686403793  1.4444513711208966  1.4444512870517694
  2.8497466453527793  0.0000000150521145  2.8084615558567290
  4.2685970709767931  1.4187262322422936  4.2707144941080282
  2.8497466710318822  0.0000000774553942  5.6994933092237048
  4.2684729121337224  1.4188504195789824  7.1282721684099561
  2.8497466312049640 -0.0000000523171526  8.5905250744728701
  4.2941980973044629  1.4444513913566879  9.9545353568659429
  2.8497465771862824  2.8084616694116780 -0.0000000505366321
  4.2684728117749362  4.2707146244958460  1.4188504268414326
  2.8497467606388023  2.8418434153073315  2.8418434304373807
  4.2804234460759680  4.2746562582399195  4.2745872882339313
  2.8497466752230078  2.8514452625210942  5.6994933895097191
  4.2804234944330561  4.2745872761628183  7.1243305975557742
  2.8497466753981939  2.8418433786091639  8.5571433770939684
  4.2685971586584319  4.2707147084957873  9.9802605416342036
  2.8497466290522939  5.6994934569698543  0.0000000137132710
  4.2685971575918495  7.1282721770427386  1.4187261080245779
  2.8497466653967973  5.6994933398453220  2.8514451695018277
  4.2804235049541459  7.1243994070261465  4.2746562111108890
  2.8497466442586314  5.6994932921498060  5.6994933165944639
  4.2804235083321069  7.1243304950530817  7.1243994483401609
  2.8497466547174386  5.6994934161617232  8.5475415733037110
  4.2684728442090698  7.1282722552607263  9.9801362306013459
  2.8497466654862293  8.5905251415760251 -0.0000000093058715
  4.2941981359169095  9.9545352678261096  1.4444513725639094
  2.8497466979228783  8.5571433063137281  2.8418434594943682
  4.2684727427785285  9.9801363521235960  4.2707145631339438
  2.8497466492440684  8.5475416194863847  5.6994934780169633
  4.2685971139232413  9.9802606127211355  7.1282721574691452
  2.8497466168205325  8.5571432958401363  8.5571433377077550
  4.2941981479200209  9.9545353179429856  9.9545353022071001
  5.6582084143391738 -0.0000000742636757 -0.0000000144321863
  7.1204612798969187  1.4188504266304611  1.4187261746404924
  5.6915901135058595 -0.0000000337523711  2.8418433707675939
  7.1243340264807467  1.4306768019788572  4.2746563181865804
  5.7011918621271684  0.0000000426598162  5.6994933373731351
  7.1244029098645782  1.4306767533268221  7.1243993950024276
  5.6915900909092629 -0.0000000258284309  8.5571432997903987
  7.1204612327283341  1.4187261232265493  9.9801362700824221
  5.6915901756785701  2.8418434292914019 -0.0000000470305295
  7.1244028936746568  4.2745872801124225  1.4306768283399820
  5.6994495784521737  2.8497028869715284  2.8497029855852398
  7.1239887282937184  4.2742421814986873  4.2742421050816040
  5.6986322372422649  2.8488855641990423  5.6994934435805975
  7.1239887540359010  4.2742421122065517  7.1247447183443882
  5.6994496504564314  2.8497030267659080  8.5492837917757782
  7.1243340514738964  4.2746562471366056  9.9683099242307343
  5.7011918575188876  5.6994933916772617 -0.0000000089279931
  7.1243339733734672  7.1243304492880224  1.4306767234433253
  5.6986322978892296  5.6994933482207513  2.8488856238929197
  7.1239888764473696  7.1247446719721692  4.2742420254216480
  5.6976554860024606  5.6994933255490334  5.6994933189395836
  7.1239888081595133  7.1247446238351957  7.1247445800130480
  5.6986322550127078  5.6994933492862954  8.5501011289278530
  7.1244029618299010  7.1243994687054686  9.9683099358506428
  5.6915900382469315  8.5571432458879144 -0.0000000405722917
  7.1204612882655871  9.9802605198881480  1.4188504759835010
  5.6994496588163504  8.5492837147966600  2.8497030125004574
  7.1244029272406850  9.9683099354905558  4.2745873292064385
  5.6986323596028461  8.5501010825935335  5.6994933255084348
  7.1243340252528542  9.9683099684708676  7.1243305167170394
  5.6994497379685312  8.5492837003984050  8.5492837683154868
  7.1204612909838074  9.9801362472105790  9.9802605159518549
  8.5492399917296886 -0.0000000965662616 -0.0000000255217864
  9.9780188636485896  1.4187261578959032  1.4188503687811012
  8.5492401249925134  0.0000000598964430  2.8514451629352329
  9.9740771497205323  1.4306767579256923  4.2745873007081885
  8.5492400696408399 -0.0000000212364663  5.6994933753360408
  9.9741461056340555  1.4306768531358940  7.1243304805493617
  8.5492401077448292 -0.0000000133404556  8.5475415250654603
  9.9780188337174209  1.4188503728766235  9.9802605479849760
  8.5492400906949086  2.8514452313329959  0.0000000085239244
  9.9741461123423090  4.2746562116028999  1.4306769045882675
  8.5492399752235286  2.8488855378232061  2.8488855297978017
  9.9744913357048404  4.2742420732892059  4.2742420928541884
  8.5492400930818597  2.8479088718546079  5.6994932806564931
  9.9744913194920137  4.2742420465976272  7.1247446677783604
  8.5492400799880937  2.8488855729775762  8.5501011175497315
  9.9740771305342832  4.2745873094783899  9.9683099810670122
  8.5492400169735312  5.6994934243800541 -0.0000000087192842
  9.9740772587560897  7.1243994182814250  1.4306768290906606
  8.5492400510232702  5.6994933890793655  2.8479088317799870
  9.9744914325303782  7.1247446618762842  4.2742421564052018
  8.5492400507000443  5.6994932935365412  5.6994933363191551
  9.9744912868823192  7.1247446820015705  7.1247446352340393
  8.5492400367788886  5.6994933309170293  8.5510779515292779
  9.9741461035894954  7.1243304942167178  9.9683099697612860
  8.5492401015847559  8.5475416123932160  0.0000000485709331
  9.9780188557771048  9.9801362465456229  1.4187262305330055
  8.5492400127191086  8.5501012102951464  2.8488856161492171
  9.9741461235307227  9.9683100550858388  4.2746561901155973
  8.5492400309707808  8.5510778868657944  5.6994933964705377
  9.9740772184933135  9.9683099468917700  7.1243994004825026
  8.5492400609902024  8.5501012217089993  8.5501011403773663
  9.9780188858681260  9.9802605895322074  9.9801362355696348
  2.8497466781039607 -0.0000000034007502  0.0000000408414599
