Fe Ag
 1.0000000000000000
    11.4103586798044017    0.0000000000000000    0.0000000000000000
     0.0000000000000000   11.3939499163089977    0.0000000000000000
     0.0000000000000000    0.0000000000000000   11.4103586822117080
 Fe  Ag 
 126   1
Cartesian
 -0.0094060076112749  0.0197615408584491  0.0001354504129870
  1.4063871066139646  1.4905806470454925  1.4460085565421508
 -0.0283464871887012  0.0077163899135818  2.8808670198432011
  1.4072976197149942  1.4318325464720283  4.2819083331290262
 -0.0116400723144771 -0.0001122097877601  5.7051680979046830
  1.4073118442579982  1.4318420312932554  7.1283372686740005
 -0.0282770165476418  0.0077165408832299  8.5294225693568499
  1.4065812799494022  1.4905808532173006  9.9641562955380465
 -0.0697994108304296  2.8719218114124416 -0.0001198161484021
  1.4673018325136342  4.2182169469905082  1.3851911452286361
 -0.0233676329719560  2.8806167742036157  2.8760803263013539
  1.4168215312838275  4.2865839272844557  4.2905013597069424
 -0.0041895156894973  2.8620258191732439  5.7051542740422541
  1.4168113532252444  4.2865334730187588  7.1200063811082170
 -0.0234905046815630  2.8806164272973827  8.5344014017406593
  1.4673984949243986  4.2182168597239196 10.0250708954820347
  0.0075806288194722  5.6827771668064155  0.0000153839740622
  1.4130574803296885  7.1268184836448176  1.4395927548369889
  0.0082807269287836  5.6808543764937687  2.8443308584221811
  1.4218900616142409  7.1075515788297787  4.2895655634550858
  0.0081669202778412  5.6945029812910990  5.7051778780384819
  1.4218963198989369  7.1074576416593773  7.1206981462596497
  0.0082587563369205  5.6808542450337791  8.5660496252985556
  1.4129970024308867  7.1268185406421427  9.9708264595959317
 -0.0160003691595210  8.5243924885618689 -0.0000171332139812
  1.3878733084714374  9.9464485996220482  1.4648501042170625
 -0.0262218398731535  8.5203128281318818  2.8788024111480293
  1.4172200645727626  9.9589458111336651  4.2789452061130246
 -0.0042809375176676  8.5330849281878258  5.7051270729500514
  1.4171760302397347  9.9589289005048904  7.1313692073215771
 -0.0262130249608718  8.5203125184086872  8.5315474573550940
  1.3877392187561097  9.9464481577351940  9.9456421692215713
  4.2985982222748529  1.4905808329067340  1.4462023189308626
  2.8527251445132618  0.0197615646939384  2.8619957377585847
  4.2978674348728765  1.4318420353643768  4.2820215935751893
  2.8525898051193703  0.0079550533459287  5.7051793573729066
  4.2978816103986643  1.4318325983458069  7.1284502405508761
  2.8524542585468864  0.0197614444723093  8.5483630331692950
  4.2987923477641345  1.4905809434363657  9.9643502495850012
  4.2377806123767812  4.2182170127224641  1.3852879222224510
  2.8524696101944520  2.8719217069710625  2.9223888475185928
  4.2883678466853761  4.2865334196557239  4.2903519440426301
  2.8525899719008256  2.8582665873662920  5.7051794062907337
  4.2883580964839787  4.2865837688098809  7.1198575311430767
  2.8527095592892908  2.8719215527665760  8.4879701207377174
  4.2378773131281759  4.2182168870564203 10.0251678306302665
  2.8525898658219209  5.7397519239457973  0.0000000039287118
  4.2921825780791210  7.1268184546932591  1.4395322163113506
  2.8526049667343059  5.6827770025988960  2.8450091796725427
  4.2832832292062450  7.1074572603373616  4.2896604879154427
  2.8525896653455356  5.6885217267365080  5.7051795392881637
  4.2832890375496566  7.1075517451806807  7.1207931321249411
  2.8525744820483006  5.6827771495436252  8.5653493593520675
  4.2921219582294334  7.1268183822738322  9.9707657749431586
  2.8525896431406190  8.5465886178496753 -0.0000000118867822
  4.3174398693608929  9.9464482528616021  1.4647163470144797
  2.8525726669004645  8.5243922354010504  2.8685900697804274
  4.2880030667870592  9.9589291108290876  4.2789895748119733
  2.8525895342708547  8.5349995488214496  5.7051792615176122
  4.2879594325519115  9.9589456083440293  7.1314132330551319
  2.8526066484309744  8.5243924024275124  8.5417685588368961
  4.3173063007350336  9.9464481058621210  9.9455084421896451
  5.7145852329961748  0.0197615878180794 -0.0001357012426721
  7.1344983276033345  1.4318327012859884  1.4452920085381262
  5.7334565835732283  0.0077163416543167  2.8809358251449324
  7.1481394548054462  1.4356677921799497  4.2955922649266594
  5.7168192836990501 -0.0001122385777320  5.7051908171531878
  7.1481817952258115  1.4356678206196773  7.1148089754153405
  5.7335258233941291  0.0077163944069412  8.5294917420216247
  7.1346110772666389  1.4318422259596404  9.9650809778657532
  5.7749782961562568  2.8719214866064666  0.0001202146181473
  7.1430910913829457  4.2865838234551168  1.4357683369238639
  5.7286697790047576  2.8806167239209319  2.8759574310369160
  7.1465609930030514  4.2929539623961048  4.2939243531234226
  5.7093690083500803  2.8620256387857830  5.7052045177794994
  7.1465143324292564  4.2929538265932523  7.1163877526492580
  5.7285468164264755  2.8806164162574124  8.5342784008544683
  7.1429416734786200  4.2865334694294699  9.9745803955039598
  5.6975988524110663  5.6827774364648240 -0.0000154807777448
  7.1421552073584715  7.1075514707795922  1.4306996766372677
  5.6969208466715866  5.6808543094562527  2.8443089016458836
  7.1364073020229766  7.0983896549880487  4.2838323677262808
  5.6970123928867888  5.6945033002904024  5.7051810527555924
  7.1364219630761490  7.0983893113015641  7.1265411489313388
  5.6968985579528191  5.6808543387805708  8.5660277191454437
  7.1422500042177823  7.1074573962583791  9.9796652713514451
  5.7211795772591625  8.5243923065618699  0.0000170492873299
  7.1315349706040978  9.9589456909654022  1.4353692903875503
  5.7313922196257865  8.5203123646921703  2.8788114032674441
  7.1452433124056594  9.9597330114894618  4.2926899498901516
  5.7094605102245692  8.5330849869581034  5.7052316290265219
  7.1452800922997319  9.9597331421465380  7.1177053245309629
  5.7314009731190989  8.5203123756874426  8.5315559458594077
  7.1315791500218637  9.9589291193634271  9.9749453955288416
  8.5577687490386705  0.0079550167180171  0.0000000808217749
  9.9809269647764864  1.4318423108898162  1.4452776464109791
  8.5577577114580770 -0.0001123142785010  2.8642293657513873
  9.9673560245899537  1.4356678603415769  4.2955497741989852
  8.5577688860188328  0.0023949671915612  5.7051794032550189
  9.9673983173461362  1.4356676013536180  7.1147668091506500
  8.5577802803164538 -0.0001123092991257  8.5461292886767914
  9.9810398329424270  1.4318330908595209  9.9650668176870170
  8.5577690729897533  2.8582664629426628  0.0000000313662149
  9.9725959716058448  4.2865336190596404  1.4357782972158510
  8.5577440968389027  2.8620257367451241  2.8567793283989884
  9.9690239310060367  4.2929541068305914  4.2939712526004330
  8.5577689765030218  2.8551153505171185  5.7051791549711055
  9.9689771193864392  4.2929537276239920  7.1164342395067965
  8.5577941360273897  2.8620257330155128  8.5535796324952269
  9.9724469090478376  4.2865840806966995  9.9745905234083541
  8.5577691074652744  5.6885214536961906 -0.0000001486321307
  9.9732879148446116  7.1074574059746567  1.4306934439421561
  8.5577672227796544  5.6945033117229569  2.8444225165503245
  9.9791159389723791  7.0983895463749072  4.2838174107849740
  8.5577688919005066  5.6989302541100093  5.7051793766454360
  9.9791306841709044  7.0983893891159155  7.1265263798408549
  8.5577704475792107  5.6945030426827676  8.5659364443098749
  9.9733824383742249  7.1075514845483339  9.9796593135748708
  8.5577688495715414  8.5349997868811478 -0.0000000941713197
  9.9839589270144842  9.9589291878504174  1.4354131442698996
  8.5577165657640126  8.5330849437062035  2.8568709208114673
  9.9702581091609339  9.9597330844850482  4.2926537761149284
  8.5577688544897867  8.5330062497711960  5.7051790539676848
  9.9702948446538322  9.9597330970798552  7.1176686634449950
  8.5578216817982344  8.5330850097618001  8.5534880281763517
  9.9840029727153166  9.9589454959832153  9.9749891982099665
  2.8525896379506528 -0.0079200489899683  0.0000004598771411
