Fe Ir
 1.0000000000000000
    11.4036234566157706    0.0000000000000000    0.0000000000000000
     0.0000000000000000   11.4036234575400197    0.0000000000000000
     0.0000000000000000    0.0000000000000000   11.4036234582160372
 Fe  Ir 
 126   2
Cartesian
 -0.0287104799951244 -0.0270601078457291 -0.0270756613137981
 -0.0155517143197628 -0.0227728515290996  2.8666065137562011
  1.4275004957148592  1.4237529336619421  4.1746430728431605
  0.0091179537211265  0.0003025423001557  5.6962294935480511
  1.4284620283670821  1.4219381032550549  7.1335956961471290
 -0.0145345144732732  0.0049360778411117  8.5594150242487910
  1.3983773669902404  1.4525130542151758  9.9494601298595686
 -0.0157006062320797  2.8664576234100876 -0.0227728409591057
  1.4271530109507129  4.1746431316127408  1.4234053137252753
 -0.0205458384160260  2.8714516860744026  2.8714516816843974
  1.4223701879713988  4.2807699883355568  4.2807597760098988
 -0.0022726504752741  2.8535644093413408  5.7024214440020531
  1.4203269953661435  4.2775529236491465  7.1217130349899014
 -0.0209191420703588  2.8720638863774015  8.5367841972163490
  1.4306335609578866  4.2700373357250037  9.9635440249455307
  0.0094620212680193  5.6963740606414381  0.0001153521371256
  1.4289677597203352  7.1335956502954181  1.4224438011419966
 -0.0026585561159851  5.7024214003530780  2.8531785353746688
  1.4201573372809426  7.1217236940310125  4.2773273049973231
 -0.0027532836458792  5.7052383578673975  5.7052118076134599
  1.4207898351436237  7.1199667477909712  7.1196785244785241
 -0.0085231766124780  5.7037311211027211  8.5412255250674392
  1.4255682074495561  7.1327023206170388  9.9876325047024004
 -0.0146264323814264  8.5590390166417087  0.0051806451098940
  1.3983928396882086  9.9494601060968595  1.4525284806720853
 -0.0211579524380693  8.5367841331857601  2.8718250180765517
  1.4303890251166627  9.9636359815934785  4.2696613939925765
 -0.0085900822725687  8.5412211589278151  5.7034796358989652
  1.4257555205624308  9.9872884979180991  7.1328469470178053
 -0.0200736664271725  8.5338562659744479  8.5337711017562707
  1.4026801083650506  9.9626187752221025  9.9624698592768191
  4.3050691868663753  1.4525285428527825  1.4525130882809305
  2.8779660100067321 -0.0270756305765191  2.8796163242006982
  4.2909853057104259  1.4202722728003421  4.2700372750680087
  2.8473910827065771  0.0030091267520097  5.6954807928500051
  4.2668967219545753  1.4253376323864768  7.1327023252091344
  2.8492057924963463  0.0020475060984695  8.6544332983860492
  4.2920594498531317  1.4482257681697219  9.9626187414424816
  2.8779814806085962  2.8796163424526378 -0.0270601565424829
  4.2908933773841440  4.2696613737517080  1.4205169022703272
  2.8736787412130482  2.8666065473488249  2.8664576849236809
  4.2964325019540048  4.2953052825199523  4.2952201033438753
  2.8507905526682600  2.8414438267148063  5.6963740688075530
  4.2848819700434957  4.2878508449078900  7.1253452928721748
  2.8457251862142958  2.8655323591221884  8.5590390690226545
  4.2972779913474870  4.2922922885473493  9.9570125193479839
  2.8478967960674466  5.6954807944314840  0.0035148037655363
  4.2672408551496570  7.1328468543049208  1.4251503847629612
  2.8506033337612098  5.6962295123062745  2.8417879641458770
  4.2849488823428139  7.1255967288259017  4.2878552297608810
  2.8555689986186699  5.7093978589006094  5.7091096374487122
  4.2791120569616341  7.1238645021927676  7.1238380006186262
  2.8560318290184470  5.7073633018550769  8.5515233993563271
  4.2786314652725723  7.1266548908270000  9.9755119428839851
  2.8488583266714400  8.6544333127369928  0.0017000504170972
  4.2919106045861026  9.9624698031586050  1.4482258159372707
  2.8459697977810028  8.5594149996046287  2.8654404345522182
  4.2975168212077071  9.9572513472349602  4.2922922834770363
  2.8562014203528276  8.5517491106245132  5.7073527464465519
  4.2790173597200276  9.9758977984425155  7.1266549756979449
  2.8539886126225080  8.5483166625641314  8.5483063267083494
  4.2969046490538947  9.9576246156846953  9.9576246307667589
  5.6000959910761203  0.0017000438395089  0.0020475849041303
  7.1209336555656630  1.4224438172600229  1.4219381302327267
  5.6954902268124927  0.0051806813292257  2.8655323890123428
  7.1328162568457234  1.4305788999498570  4.2775529027102124
  5.7030058669954125 -0.0051259760353620  5.7073633182699499
  7.1348507884566077  1.4301159936657639  7.1199667531420188
  5.7062229301546310 -0.0030827552432697  8.5483166597233993
  7.1216824269610264  1.4251503402834782  9.9872884999817177
  5.6951142737192715  2.8654404018972759  0.0049361132885070
  7.1328056428034134  4.2773272781187544  1.4307485262459672
  5.7177451940806829  2.8718250396026477  2.8720638818656945
  7.1387913093225039  4.2872701139530429  4.2873973439204223
  5.7133038213844438  2.8594290234023854  5.7037311026906581
  7.1339342224259648  4.2800432728129651  7.1206366419656195
  5.7207582279938283  2.8709795606190096  8.5338562924330521
  7.1289325998105744  4.2878552318942607  9.9695804683509071
  5.7027802405004202  5.7073526809074702 -0.0052956196849474
  7.1345625604395435  7.1196785035886423  1.4301160446079437
  5.7133080398014124  5.7034796659226163  2.8594959664609489
  7.1338927074019782  7.1205950972646193  4.2800432744996568
  5.7054962041225554  5.7084812636062532  5.7084397230386346
  7.1317140540969488  7.1228151940236906  7.1228151993968289
  5.7127230565075902  5.7133383232217048  8.5416790697013543
  7.1306648421591028  7.1238380202450822  9.9754173013664253
  5.7062126665361941  8.5483063609332000 -0.0030827687246044
  7.1218270107146360  9.9876325370951147  1.4253375916197593
  5.7206730367395346  8.5337710412692314  2.8709796456442511
  7.1291840424616026  9.9696473639166534  4.2878508668293600
  5.7128502462519331  8.5418062835185236  5.7133382929343819
  7.1306913108487988  9.9754172765715143  7.1238644750567168
  5.7257234077870294  8.5288059105933449  8.5288059163071512
  7.1278743739401955  9.9755119652871169  9.9758978561210476
  8.5590485035739459  0.0035147548849144  0.0030090383494915
 10.0798862352569500  1.4234053976577163  1.4237528621216349
  8.5581552645448440  0.0001153349015653  2.8414438359057161
  9.9737695616339952  1.4285356530512852  4.2807700462344611
  8.5454196869437506 -0.0046630959447294  5.7093978555235134
  9.9772020263061147  1.4307485484134947  7.1217237261399671
  8.5471766052957037 -0.0052956382182468  8.5517491542856341
  9.9848679668428737  1.4205168282837486  9.9636359840706383
  8.5582998151575449  2.8417879406218254  0.0003026050837672
  9.9737593449527804  4.2807598062508001  1.4285357305263100
  8.5521078597761200  2.8531785281659507  2.8535644714215884
  9.9542589438299203  4.3002704332418045  4.3002704012034565
  8.5493174541007342  2.8536590908883315  5.7052383311367310
  9.9672592258085224  4.2873972204484927  7.1157380969082693
  8.5510496775139142  2.8594959888875415  8.5412211171101955
  9.9592239802761497  4.2952201246443167  9.9580968273963197
  8.5451315245793307  5.7091096409146669 -0.0046631171854495
  9.9769764007389465  7.1217130159019195  1.4305789134652334
  8.5492910119475543  5.7052118511014012  2.8536591032005272
  9.9671321142588738  7.1157380866962425  4.2872701285327377
  8.5482681905226716  5.7062611624455659  5.7062611228468949
  9.9744861702613417  7.1206366738030518  7.1205951365441686
  8.5460480789364350  5.7084397169465859  8.5490331214080726
  9.9666784997326605  7.1253452932706969  9.9696473510173487
  8.5471659697756923  8.5515234232625907 -0.0051259655570221
  9.9844920204191219  9.9635440112013036  1.4202722545866009
  8.5507982317369855  8.5412255140192830  2.8594290316987236
  9.9593092118388231  9.9580968543211785  4.2953052390868249
  8.5460896014493084  8.5490331263213886  5.7084812741354725
  9.9666741224088895  9.9695804410688478  7.1255967223985524
  8.5411909878826524  8.5416790976261847  8.5418062959741849
  9.9622370519544319  9.9570124840106988  9.9572513278169428
  2.8770756913611568 -0.0261697893486860 -0.0261697501270225
  1.3992832447734671  1.4516226064098623  1.4516226546397213
