Fe Pd
 1.0000000000000000
    11.4027071086623213    0.0000000000000000    0.0000000000000000
     0.0000000000000000   11.4027071040691137    0.0000000000000000
     0.0000000000000000    0.0000000000000000   11.4027071058509666
 Fe  Pd 
 126   1
Cartesian
  0.0701592202140874  0.0419772404453652  0.0420452996764079
  0.0367814192036245  0.0302640067153682  2.8136390794567490
  1.4262268336223962  1.4245781832057656  4.3199485202293877
 -0.0049263120009507 -0.0052107629103469  5.6984454422389881
  1.4166351197251346  1.4338569301455217  7.1261282633054730
 -0.0147367709967168 -0.0025035860022821  8.5452468340689318
  1.3984043708763878  1.4523301986666897  9.8891228886704408
  0.0370376788063410  2.8138954128823679  0.0302639274826846
  1.4260987326547125  4.3199483967068018  1.4244499131958164
  0.0428305154255948  2.8078462061836151  2.8078461692938816
  1.4235330674794247  4.2691567516761051  4.2692360453075437
 -0.0083402835760005  2.8590532326012008  5.7001770021823521
  1.4210871822877797  4.2802892875542344  7.1162884907091515
 -0.0284765881053020  2.8792101705587969  8.5291481557158448
  1.4225092824444912  4.2666947885505593  9.9825869979967319
 -0.0048355996164635  5.6986321552026018 -0.0052053131299826
  1.4168198549929123  7.1261283458225755  1.4340416333784334
 -0.0083763899193837  5.7001770647129701  2.8590169679501152
  1.4210821211350624  7.1162018107039851  4.2801774552752843
  0.0038018318546952  5.7000726074980310  5.6999648678121355
  1.4177070887685093  7.1163239400043272  7.1162733317079816
 -0.0086427503366615  5.6991997777719181  8.5436371704037910
  1.4186248658691036  7.1301145972841518  9.9795135011769744
 -0.0149833428196651  8.5454040421604560 -0.0026879684705074
  1.3983466321198228  9.8891229327281707  1.4522724271588123
 -0.0285333406298381  8.5291481997307432  2.8791533815882500
  1.4224711574351363  9.9828523980995119  4.2665840436556879
 -0.0085917631978283  8.5436657918531385  5.6991687941870417
  1.4187824041299351  9.9792252261812564  7.1301464877137208
 -0.0176584731373034  8.5372357179144025  8.5371828113836816
  1.4112745625706680  9.9667497746268765  9.9669874847352276
  4.3642609292279841  1.4522724140700536  1.4523301574844585
  2.8086995243102781  0.0420453086781455  2.7805175396829327
  4.2707968365127087  1.4281675050440135  4.2666947994141093
  2.8537628687078787 -0.0031948826983977  5.6981511761202244
  4.2738704642269374  1.4320518453938706  7.1301146482872699
  2.8500097760793803  0.0004992833673636  8.5592634933372178
  4.2863963453705489  1.4394021618816566  9.9667497614084120
  2.8086314670424213  2.7805174847806442  0.0419772228984749
  4.2705314066382769  4.2665840331213918  1.4282055674632714
  2.8204128103326975  2.8136390119359493  2.8138953771273099
  4.2679125659491781  4.2758632606177693  4.2757633201909737
  2.8558821738858802  2.8555123749393481  5.6986321810012521
  4.2809428329696519  4.2861932537589320  7.1183210747919681
  2.8533647310154553  2.8656601081403923  8.5454039464493832
  4.2689084587945221  4.2673108336200052  9.9846442895190108
  2.8538715678477047  5.6981512277428843 -0.0030860372379200
  4.2741586581885462  7.1301465033150011  1.4318944046814504
  2.8558874603188595  5.6984454912987434  2.8556030418469533
  4.2809636083478875  7.1183291321210715  4.2862739673854877
  2.8494071111220975  5.7011038432742271  5.7012044324724398
  4.2760790943870175  7.1203051525538275  7.1203428153797743
  2.8502962705935362  5.7018900965705690  8.5503532002958309
  4.2748007144043836  7.1386962383331021  9.9784816338617599
  2.8501774355562226  8.5592635657796148  0.0006670026037787
  4.2866341266173800  9.9669875370196905  1.4394021692532426
  2.8531804046632265  8.5452468251665206  2.8654135916523988
  4.2687396237182043  9.9844754178538189  4.2673109055993583
  2.8502765646634560  8.5502782484153617  5.7018212125514882
  4.2749023314274632  9.9785830613153728  7.1386962888248267
  2.8462065675160031  8.5503313291180483  8.5503582636442257
  4.2600487044125117  9.9933351697017851  9.9933351269258122
  5.6941203162453240  0.0006670624223384  0.0004992943020837
  7.1272555892246094  1.4340416190792287  1.4338569055444956
  5.7079798556412991 -0.0026879925809626  2.8656601153876946
  7.1370953791641849  1.4295896121092238  4.2802893309750045
  5.7030306722041448  0.0003805431166102  5.7018900923184397
  7.1371105429989408  1.4329697661122280  7.1163240096862781
  5.7030256154209225  0.0044701524087324  8.5503313824464122
  7.1232373740953738  1.4318944563879230  9.9792252585079702
  5.7081370546009795  2.8654135672396088 -0.0025036197354278
  7.1371820374382100  4.2801774989306987  1.4295945894082493
  5.7242357993126269  2.8791533652767556  2.8792101570967907
  7.1378540445528396  4.2859340078662047  4.2859892042994918
  5.7097467265168822  2.8593196156984035  5.6991997528971865
  7.1366533300449637  4.2829230512663212  7.1167453446085478
  5.7162009968318088  2.8683352189226028  8.5372357719163237
  7.1350547619981723  4.2862740574454969  9.9724203282988171
  5.7031055180381216  5.7018212456772268  0.0004002407416237
  7.1370599052911645  7.1162733420981201  1.4329697166749789
  5.7097180451539122  5.6991687086392337  2.8592685707780516
  7.1366386356498701  7.1167305403449923  4.2829230041979107
  5.6929015148232258  5.6977812634333809  5.6977846735795570
  7.1351178304439919  7.1182660078158353  7.1182659943701827
  5.7023631875564309  5.7012118151357276  8.5510023107343098
  7.1330787336726367  7.1203427867207703  9.9773048207009225
  5.7030525415783426  8.5503582690386093  0.0044701526167389
  7.1232692477382793  9.9795134755804185  1.4320518847198314
  5.7161481407282375  8.5371829109543409  2.8683352360978525
  7.1350628683762913  9.9724411014894248  4.2861932937714622
  5.7023816033026442  8.5510206180340962  5.7012118052123588
  7.1330410511338131  9.9773047348071398  7.1203051924143814
  5.7075510087427270  8.5458328283542553  8.5458328906170866
  7.1146876289136154  9.9784815677644367  9.9785831011680770
  8.5552326961365548 -0.0030860100481075 -0.0031948735348561
  9.9334353906619803  1.4244499024452324  1.4245781422546540
  8.5547517100915922 -0.0052053615958844  2.8555123752467004
  9.9841478226713285  1.4271437357578827  4.2691567445579022
  8.5521794523663868  0.0012696210697454  5.7011038705274188
  9.9732064687447437  1.4295945968511701  7.1162017734210012
  8.5515626330676238  0.0004002789282124  8.5502782555853205
  9.9867998841226466  1.4282056652314294  9.9828523779952185
  8.5549384027213176  2.8556030539380828 -0.0052107749931387
  9.9842271071723552  4.2692360418891102  1.4271437276822625
  8.5532067301344963  2.8590170451573429  2.8590531494239610
  9.9922469098618407  4.2611369845415110  4.2611369605282503
  8.5534190578211877  2.8468750260524391  5.7000725974480719
  9.9674499346561145  4.2859892345590316  7.1155298703395875
  8.5542151956434704  2.8592685726810965  8.5436658272176462
  9.9775206192103809  4.2757633941826665  9.9854712946672759
  8.5522800474250111  5.7012045003395908  0.0012696314680471
  9.9730945847418653  7.1162885504231150  1.4295896279114755
  8.5533112679389909  5.6999648374197767  2.8468749019710011
  9.9673946850350159  7.1155298478118807  4.2859339099578957
  8.5598762979443830  5.6935075242674165  5.6935075021797088
  9.9704608910227996  7.1167452258036752  7.1167306320709720
  8.5556025839156291  5.6977846358071060  8.5604824282988776
  9.9671905861295418  7.1183210256183580  9.9724411051317023
  8.5514937558291351  8.5503532320359596  0.0003805335548408
  9.9866891536437787  9.9825870783462403  1.4281675156996467
  8.5541840821456017  8.5436371652228207  2.8593195885227236
  9.9776204869687106  9.9854712334340814  4.2758632963487146
  8.5555992507098875  8.5604822922222308  5.6977812657127505
  9.9671099198299480  9.9724202881005901  7.1183291703242748
  8.5521720315087109  8.5510022388450047  8.5510206671496434
  9.9860729608129990  9.9846442000121733  9.9844753314441448
  2.8023436949901446  0.0483330311403216  0.0483330091739983
