Fe Os
 1.0000000000000000
    11.4281617776226874    0.0000000000000000    0.0000000000000000
     0.0000000000000000   11.4434838307284394    0.0000000000000000
     0.0000000000000000    0.0000000000000000   11.4281617799720561
 Fe  Os 
 126   2
Cartesian
  0.1019749585458581  0.0091307235868533  0.0212401329804294
  1.4100862293791308  1.5535834726834787  1.4474092005797787
  0.0171490374705357  0.0006116588909323  2.8402218868688469
  1.4329575835309789  1.4326588269153131  4.2798960311873389
 -0.0094352114856790 -0.0005993543315266  5.7113398507720738
  1.4285056049218012  1.4265364086795422  7.1433802797481016
 -0.0065930711458570 -0.0046892521972759  8.5604942632686374
  1.4117066413286847  1.4200394346056100  9.9850991067591330
 -0.0145423506055766  2.8712670762220198 -0.0168134841619142
 -0.0078024899088810  2.8908488754432917  2.8651534690143241
  1.4268045531197369  4.2936752080016536  4.2554958596173273
  0.0019932474934937  2.8683322767830872  5.7173078782576168
  1.4284138528930712  4.2877598259528060  7.1457479273853934
 -0.0000316172995350  2.8785932840463908  8.5738525357723816
  1.4497604764149885  4.2821756052250670 10.1016160992561410
 -0.0133537966325737  5.7381124161379260  0.0025960063199530
  1.4315733268163895  7.1399576932202180  1.4257684390547785
  0.0109247870736055  5.7128400292378965  2.8462020600246607
  1.4197365419420258  7.1489333746105306  4.2911293992105826
  0.0125038980550903  5.7113986546319699  5.7098167344398396
  1.4180574833636621  7.1533701642899379  7.1446974958383871
  0.0106364621855850  5.7044872315263042  8.5812770529231788
  1.4306561914759277  7.1596526829902922  9.9988458639321962
 -0.0007961741230766  8.5751372223223257  0.0021357352656146
  1.4207095861791161  9.9715769743285030  1.4362403984829095
 -0.0066349043003839  8.5689370088778691  2.8637006942307259
  1.4342437471190956 10.0190654928145282  4.2835527177200694
 -0.0106544342271493  8.5829478957534491  5.7134818927179092
  1.4340505335291458 10.0153766276108858  7.1430398815579430
 -0.0139773868704418  8.5847063061874440  8.5658101248140213
  1.4311165545111715  9.9966780571642921  9.9862882651514688
  4.3005450457612007  1.4194184555900671  1.4439672924068401
  2.8361498576122162  0.0093994706346996  2.7542470660691980
  4.2855606134340265  1.4125014178053859  4.2824098220212150
  2.8572586587543420  0.0035728571106608  5.7111326787801415
  4.2833763525921649  1.4231372963622479  7.1393218171237525
  2.8584985492585901 -0.0022744115425070  8.6017239798067280
  4.2936740428041995  1.4004577233004656  9.9918387589610749
  2.8759294154414188  2.7377231725052598 -0.0184341442570325
  4.1827674016151519  4.2819067828471091  1.4076295845877109
  2.8724874224564720  2.8718881941924330  2.8720248830759099
  4.2919044317891633  4.2959580717116514  4.2959967434383515
  2.8567292808691267  2.8644986144140936  5.7134942720740156
  4.2948647081532068  4.2918039474594885  7.1453469705537280
  2.8529330090030767  2.8587059000147623  8.5770787781429547
  4.2687420045123439  4.2906948876967661 10.0167901120817433
  2.8647609240690080  5.7632140855318639 -0.0078110034176826
  4.2864904064105733  7.1596487353389398  1.4263519368541038
  2.8543600254644281  5.7379935155680242  2.8705055167364892
  4.2994399944210935  7.1501927018539764  4.2909902059937375
  2.8518089600741132  5.7192902706800570  5.7138110494648213
  4.2963240882399942  7.1518799814883831  7.1432875110865073
  2.8513524747368537  5.7160513357615592  8.5731519481175251
  4.2922207357983480  7.1658533529098332  9.9930065741032745
  2.8542888096338310  8.5948325605579807  0.0030529556094450
  4.2990254864043731  9.9967966929001975  1.4258398241153363
  2.8548724373885239  8.5751416183707239  2.8579700706330624
  4.2747720964246936 10.0300985276920223  4.2754648865758611
  2.8676224689415188  8.5815454069583303  5.7120768644875985
  4.2732833275293824 10.0236562808858309  7.1469783236327267
  2.8658343053227582  8.5859272194333105  8.5656511301174003
  4.2747218882679920 10.0219500483019974 10.0105662029782323
  5.6840161256821728 -0.0023684713992879 -0.0017158748276227
  7.1420145852768346  1.4268079290606872  1.4282091266343102
  5.7245171037150051 -0.0046515484259449  2.8633840373295776
  7.1419310068417721  1.4384316401614037  4.2848034527005847
  5.7181394251459352 -0.0009866422428524  5.7125293564435022
  7.1442556375512387  1.4416758157001099  7.1408765023640424
  5.7189263885646646 -0.0046216408267818  8.5663345437702603
  7.1458281944013624  1.4229742619104739 10.0016348001619839
  5.7084162143100583  2.8586473905349168  0.0044375581493931
  7.1396529397424260  4.2877333884529643  1.4287386327810070
  5.7109301396233967  2.8788048744176682  2.8570403943112428
  7.1410496719838443  4.2922932498623627  4.2896191052235668
  5.7133236853229210  2.8528749337861128  5.7134106184916318
  7.1404110338544244  4.2833316913642028  7.1446642733087922
  5.7116903062020610  2.8559391391403635  8.5734858755598289
  7.1398601278416338  4.2919056681621743  9.9902062640886093
  5.7120728931458276  5.7157247693440336  0.0057234492429995
  7.1405971115952793  7.1532450202051994  1.4391022019504891
  5.7039851178435201  5.7046917653697822  2.8462519286516943
  7.1403234721980153  7.1480591186894822  4.2839548421033466
  5.7158646369042119  5.7280835824815135  5.7209899642077975
  7.1400766499524018  7.1564888097801527  7.1450992431697706
  5.7165030917135526  5.7256960170335569  8.5688011920447984
  7.1420020384800367  7.1518426088965779  9.9889873247746213
  5.7196496129790093  8.5858566790519504 -0.0087838568701382
  7.1423317018534132 10.0154999422673132  1.4232887114067820
  5.7195102226293946  8.5845978031127803  2.8709197035425631
  7.1495101586823893 10.0067066199930288  4.2873443157655382
  5.7124749348646775  8.5867308288398139  5.7118032012342796
  7.1500808908428333 10.0071278775928025  7.1349748507125632
  5.7170665020296765  8.5923467045668751  8.5682636022937917
  7.1383368238906648 10.0233914704319940 10.0121454726032102
  8.5742681941889902  0.0035467329906645 -0.0001063296549845
 10.0055989875075664  1.4326004008796658  1.4244128284601620
  8.5738670743427186 -0.0004975861013642  2.8663445029225834
 10.0020058961382166  1.4353671753322579  4.2831703133381955
  8.5731848251357956  0.0079749242271169  5.7118910010152595
 10.0002726988634958  1.4384437446047684  7.1431572569448747
  8.5724877801124233 -0.0010782158279556  8.5668833096503505
 10.0023729587344423  1.4127133701665879  9.9996101679441569
  8.5719005861493773  2.8647697266052110 -0.0000148186294198
 10.0302441918148642  4.2935808927035035  1.4299781950713701
  8.5678418825500255  2.8681691791437984  2.8548561907039320
  9.9948548186965720  4.2959279002377633  4.2904062179803333
  8.5693969100559428  2.8496305777245197  5.7157355330186013
  9.9954038538917942  4.2923844998913845  7.1439674920532914
  8.5716775829558607  2.8528625908629741  8.5717525752670856
  9.9890144752707286  4.2959956004038578  9.9930484371134405
  8.5715603382599870  5.7194135449098926  0.0055302307913167
  9.9941714712775376  7.1488631207382056  1.4373138723670134
  8.5754985192402557  5.7111338934919722  2.8447632485739622
  9.9967838088963656  7.1424434033993967  4.2885464305188554
  8.5634954115373745  5.7276625564834891  5.7215605176106337
 10.0012797524482178  7.1480359759707781  7.1448983312545868
  8.5642161823371801  5.7281291580985991  8.5691305670924738
  9.9943302700219991  7.1500841494528995  9.9856642386498642
  8.5732177487934624  8.5814197994616901 -0.0104626563220293
 10.0016720166813897 10.0187386777836789  1.4228322221425096
  8.5718079412872594  8.5829104572467187  2.8678037382977815
  9.9973216221181822 10.0090941283127819  4.2879828223521317
  8.5736195064067662  8.5783012658178990  5.7115563558363966
  9.9976507996591391 10.0066608651025586  7.1356957895762658
  8.5734185296450374  8.5867543315332799  8.5727595647886314
 10.0097972753315254 10.0303030437791776 10.0102777758175883
  2.8244979699346926  0.0183692335429969  0.0321218528836826
  1.4606416597104404  4.2729357768862108  1.3959784334854630
