Fe Co
 1.0000000000000000
    11.3599435909899196    0.0000000000000000    0.0000000000000000
     0.0000000000000000   11.3599435935408746    0.0000000000000000
     0.0000000000000000    0.0000000000000000   11.3599435913650950
 Fe  Co 
 126   1
Cartesian
  0.0486241628748564  0.0137241342676799  0.0137914985379025
  1.3579569174824684  1.4820290106614504  1.4820289295304152
  0.0039424477424010 -0.0543932123605473  2.8359351092843870
  1.3627363954133087  1.4770879535226098  4.1883787603604024
  0.0009944306361289  0.0133809979993866  5.6670211685679330
  1.4229678215645318  1.4169034314883111  7.1115187311994461
  0.0034628203110572  0.0125776862752635  8.5232003019445983
  1.4291816128465036  1.4108950125814832  9.9435995509897026
  0.0040506959728262  2.8360435740896590 -0.0543932489530683
  1.3628979393684930  4.1883788090967276  1.4772495061118749
  1.3594161257524311  4.2007524335881632  4.2005906247799842
  0.0037794278749353  2.8362925093025360  5.7279032947344781
  1.4204020141032005  4.2633946195572392  7.1008013614146028
 -0.0059595772375014  2.8459776374199675  8.5132211637274242
  1.4238737450543437  4.2520563170363168  9.9383789253958064
  0.0010791760316499  5.6669605587391452  0.0134788946560117
  1.4230824832265876  7.1115186640788153  1.4170180805064829
  0.0036933540874710  5.7279032358353126  2.8362064802902238
  1.4202568257040091  7.1008566544572709  4.2635163869820820
 -0.0004505296206239  5.6660047574957284  5.6660189865837731
  1.4169454242737998  7.0961041948862178  7.0961799888801176
  0.0037634069799683  5.6673905583713342  8.5237619490306500
  1.4222407132756887  7.1055108434637413  9.9450430645335981
  0.0035106523456400  8.5231401111967813  0.0125897973318045
  1.4290908992258162  9.9435995514997639  1.4108041518438146
 -0.0059917759503626  8.5132211191004945  2.8459454315523178
  1.4239614979795843  9.9384642336684550  4.2518394909993997
  0.0037619269999199  8.5237878908499454  5.6673766800873917
  1.4222294369525623  9.9450180540323707  7.1055387288419327
 -0.0024272713352020  8.5161054589033096  8.5161158634362515
  1.4299890740897203  9.9536877605957379  9.9535937556935217
  4.2563299321409902  1.4108042558307266  1.4108950602947146
  2.8262616874504327  0.0137914458787251  2.7913617100237098
  4.2615505379728713  1.4161121863448940  4.2520562523511485
  2.8166958385908183  0.0232051853366254  5.6544352993655149
  4.2548864708460359  1.4177452059379154  7.1055108352449574
  2.8351720943185241  0.0048003744176238  8.5603814830054414
  4.2463357765158403  1.4099969027732029  9.9536877677141788
  2.8261944594454853  2.7913617864788862  0.0137241508631896
  4.2614652582193671  4.2518395031400438  1.4160243841481144
  2.8943790868089456  2.8359352014205310  2.8360434726428694
  4.2643411246923595  4.2638487705880470  4.2637917064089921
  2.8265069488839543  2.8389066785742485  5.6669605691717262
  4.2599884525114780  4.2606844889781321  7.0967668030027626
  2.8273961396445033  2.8364752610970467  8.5231401558762947
  4.2564279168773433  4.2512948511158983  9.9434328836191774
  2.8167806883650979  5.6544353100711220  0.0232900529038869
  4.2549114279577722  7.1055386712669755  1.4177564729231635
  2.8266049169725300  5.6670211295429782  2.8389915330732665
  4.2599863321759202  7.0967805034286107  4.2606593906005745
  2.8191825722813926  5.6586858759491818  5.6586622957696200
  4.2524907670748791  7.0897735501299621  7.0897010226724717
  2.8346702843695790  5.6751941468227223  8.5209736571156522
  4.2478732390992784  7.0972193753347712  9.9520817536639381
  2.8351855014099034  8.5603813689081445  0.0048137989075314
  4.2462416379984811  9.9535937158644696  1.4099967750769953
  2.8274081581851882  8.5232003327138681  2.8365230912349273
  4.2564965604450951  9.9435015249035725  4.2512947613891425
  2.8346112588864631  8.5210040799070903  5.6751713817946019
  4.2478477428392596  9.9520562680495068  7.0972194407725420
  2.8371027471452521  8.5225825921758300  8.5225815806726679
  4.2389710140902475  9.9609584082736671  9.9609584768026540
  5.6395480455141387  0.0048138690729716  0.0048004021731731
  7.0884107244945893  1.4170180974493023  1.4169034228895061
  5.6767893193903074  0.0125898372126174  2.8364752302562821
  7.0991280391743317  1.4195838349351366  4.2633946474730271
  5.6789557722961632  0.0053156341565589  5.6751940571874124
  7.1037495597409661  1.4230404216727155  7.0961041644749567
  5.6773479365540256  0.0028831834168707  8.5225825945749598
  7.0943908129898867  1.4177564464723384  9.9450180111868374
  5.6767292068472637  2.8365231835094082  0.0125777017940101
  7.0990728678921879  4.2635163788323061  1.4197291322495444
  5.6867082738006927  2.8459454281768135  2.8459775992445819
  7.0974158004254022  4.2616617498068194  4.2617862294180409
  5.6761675171843109  2.8362224236050695  5.6673905169088785
  7.1004880698940624  4.2573291704830467  7.0994637982990927
  5.6838135719857377  2.8424131498854734  8.5161055137776405
  7.1031490337182523  4.2606594073844022  9.9399430974452265
  5.6789254474970514  5.6751713091970037  0.0053746682762248
  7.1038253261570024  7.0961799599853963  1.4230404597892352
  5.6761415466554297  5.6673766447608136  2.8362239371982421
  7.1004656889909850  7.0994414766094032  4.2573291867856007
  5.6803616208082373  5.6749117640048459  5.6749031869110214
  7.1073707644937612  7.0925588006601865  7.0925587154012559
  5.6763342222914561  5.6783141045947207  8.5235556820741536
  7.1101559901118732  7.0897010442221395  9.9474387764628140
  5.6773469601355639  8.5225815987344298  0.0028831433224642
  7.0944186578152877  9.9450431382163380  1.4177452382719573
  5.6838239948398126  8.5161159527083825  2.8424131886400721
  7.1031627652989826  9.9399411557224138  4.2606844941961288
  5.6763738293193375  8.5235953230652353  5.6783140428126764
  7.1102284627844643  9.9474388247656336  7.0897734729269724
  5.6815991512720077  8.5183303628541100  8.5183303519570703
  7.1027101379796473  9.9520817923181788  9.9520562307016061
  8.5454941813907261  0.0232900062860768  0.0232052155140784
 10.0115507891657458  1.4772495033686430  1.4770878509258940
  8.5329689821004475  0.0134789480935674  2.8389066060417449
  9.9993389083832884  1.4805698827152625  4.2007524262919160
  8.5412672504928491  0.0208034276464730  5.6586857676779276
  9.9364131376331191  1.4197291356495096  7.1008566313010881
  8.5247581806268258  0.0053746159811622  8.5210040425331073
  9.9480900813522268  1.4160243096106200  9.9384641989402098
  8.5329083338517684  2.8389914771430611  0.0133809431468103
  9.9991769762605536  4.2005906449500312  1.4805698175700335
  8.4720262443979184  2.8362064363220649  2.8362924855397513
 10.0014894956109419  4.1984400321804891  4.1984400262493411
  8.5339105313186625  2.8404364218783336  5.6660047126220130
  9.9382676789871507  4.2617862252585832  7.1025136208273194
  8.5325528646122297  2.8362238966575739  8.5237878421747251
  9.9360806699994004  4.2637917145995345  9.9355883234190951
  8.5412436595166454  5.6586623020252986  0.0208033808750468
  9.9365347937446096  7.1008013368823395  1.4195838641781624
  8.5339248056023536  5.6660189561663108  2.8404364626367156
  9.9381432631084738  7.1025136677933425  4.2616617834320145
  8.5409334295164268  5.6589960742236576  5.6589960359000848
  9.9426002109799647  7.0994637766380144  7.0994414193695210
  8.5250177247755765  5.6749032640029737  8.5195678972958611
  9.9392449456390821  7.0967667956899545  9.9399410624497673
  8.5247354061534093  8.5209737022660228  0.0053156246676554
  9.9478731971165431  9.9383789477019366  1.4161121798489225
  8.5325389258267279  8.5237619901262320  2.8362224766486359
  9.9361378311304698  9.9355883407003525  4.2638487023199980
  8.5250262496084197  8.5195679163567615  5.6749117621015692
  9.9392701396084622  9.9399431669643779  7.0967804956382219
  8.5216153956358447  8.5235557178188035  8.5235952775043362
  9.9486347462148519  9.9434328939181462  9.9435015825392483
  2.8086042499980608  0.0313813460908889  0.0313815377582754
