Fe Au
 1.0000000000000000
    11.4482362974945104    0.0000000000000000    0.0000000000000000
     0.0000000000000000   11.4482363055927898    0.0000000000000000
     0.0000000000000000    0.0000000000000000   11.4482363014194259
 Fe  Au 
 126   2
Cartesian
 -0.0009000333978852 -0.0220395144152793 -0.0218146037163387
  1.4310295159255340  1.4310294531966636  1.4310295181489681
 -0.0220395252618379 -0.0009000687122361  2.8838738035235627
  1.4658239887992919  1.3963049924401871  4.3265517012666290
 -0.0126356357233415 -0.0171989937145871  5.7414038858756600
  1.4308364877071553  1.4308363691341106  7.1551476917838137
 -0.0171989720628377 -0.0126357612777798  8.5688915248395752
  1.3963051084746836  1.4658239071317696  9.9837437286978385
 -0.0218146854758312  2.8840986898934569 -0.0009002564017266
  1.4657540730154026  4.3265517097878279  1.3962350279115194
  1.4736315550902923  4.3520314414549510  4.3517321264816333
 -0.0113723692419793  2.8735921670938689  5.7103000731899263
  1.4351031529787897  4.3112401043342512  7.1463403473366878
 -0.0290453997098229  2.8910427701026937  8.5582756042551029
  1.4310295373887933  4.3174332230908314  9.9928621851779020
 -0.0126374126202578  5.7413423370672305 -0.0171666852260793
  1.4312225770151958  7.1551477264689920  1.4312225989835785
 -0.0115331164673212  5.7102999877397211  2.8734314271835379
  1.4348695075748306  7.1462191313199401  4.3113790101731047
  0.0023977112964236  5.7379282249723778  5.7380513577246095
  1.4310295081267388  7.1551866256330472  7.1551087467693293
 -0.0137081651253588  5.7316346631151784  8.5745953241609740
  1.4269558992556435  7.1639552355113514  9.9990553625769678
 -0.0171666591189943  8.5689530311441171 -0.0126374492685627
  1.3962349520429926  9.9837436739901086  1.4657539655775085
 -0.0289837005807272  8.5582756392186727  2.8911042675621990
  1.4310295205507566  9.9930250101940246  4.3172704384590510
 -0.0136653689953474  8.5745514966858547  5.7316395429187921
  1.4271895467195701  9.9989163145771016  7.1640762193968612
 -0.0321391962184522  8.5573007876080798  8.5573362271836242
  1.3884275314396268  9.9585632026323889  9.9582641864732082
  4.3265517048886508  1.4657539662053414  1.4658238923673901
  2.8840986887610240 -0.0218146303049475  2.8629592344887818
  4.3174331270926691  1.4310295507672317  4.3174332442735368
  2.8910428890979754 -0.0290452611698447  5.7520197886805260
  4.3112400394939669  1.4351032059369291  7.1639550617574805
  2.8735920415466292 -0.0113723631893514  8.5999953967690601
  4.3520312588054368  1.4736314803024870  9.9585633035062724
  2.8838737728733279  2.8629591491444994 -0.0220396234497329
  4.3172703550870599  4.3172704113133964  1.4310293846277342
  2.8629591265450540  2.8838738778704318  2.8840986390549399
  4.3072110199517981  4.3172473297378708  4.3169857851363567
  2.8792258809126743  2.8746964400953234  5.7413424264254402
  4.3121434582156342  4.3121434317909264  7.1551477713102010
  2.8746965390338892  2.8792257771400522  8.5689529382756149
  4.3172472691542927  4.3072110330417743  9.9933094412467760
  2.8911045667246031  5.7520197484819855 -0.0289837363581432
  4.3113789652223211  7.1640763152966986  1.4348695163470737
  2.8792580706813395  5.7414039721269701  2.8746947548811854
  4.3121872177816938  7.1551476357195627  4.3121871971713661
  2.8941982915474296  5.7529591336940200  5.7529944116522147
  4.3147874238243302  7.1578542706994979  7.1579325314888091
  2.8757672774872534  5.7357001471704336  8.5786608479737385
  4.3160135529834669  7.1680013807277456  9.9941710566005870
  2.8734315368382095  8.5999954172523410 -0.0115330729760556
  4.3517320711926901  9.9582643078924331  1.4736314452128294
  2.8746946935161990  8.5688914432416627  2.8792581046183856
  4.3169858190706210  9.9930481689273059  4.3072109874009632
  2.8757243933854930  8.5786558626915870  5.7357438171032218
  4.3161242741893782  9.9942819491154733  7.1680012668388589
  2.8596613791584491  8.5722441637118578  8.5723670906504186
  4.3547349424492330  9.9555604404647173  9.9555603810419289
  5.7103000417735519 -0.0115330808223920 -0.0113723704391301
  7.1551476240918293  1.4312227171658789  1.4308364688606232
  5.7413423527275125 -0.0126374157951865  2.8792258538393716
  7.1639552640488322  1.4269559209147882  4.3112400521469301
  5.7316345123512598 -0.0137082743351721  5.7357001528557090
  7.1551866329172205  1.4310295034737426  7.1551865487799189
  5.7379282136879830  0.0023976459156101  8.5722440080136764
  7.1462190602780913  1.4348695225931309  9.9989164530535444
  5.7414039695545895  2.8792579267388723 -0.0126357671853149
  7.1640762394952962  4.3113790914388037  1.4271895962372119
  5.7520197834103985  2.8911044451771954  2.8910428452169157
  7.1680014043508891  4.3160135889084774  4.3161242875388615
  5.7357000887573939  2.8757671850060675  5.7316346048353406
  7.1578541413851555  4.3147873429541912  7.1523630279798445
  5.7529593396421959  2.8941985301630937  8.5573009135718650
  7.1551476447951723  4.3121871491107635  9.9981082466575018
  5.7316395347612712  5.7357438706890020 -0.0136653937908998
  7.1551087196446392  7.1551086906388290  1.4310295660265679
  5.7357438426106917  5.7316393563488850  2.8757244487820715
  7.1579325234364415  7.1524411653092663  4.3147874065488532
  5.7230650653755246  5.7364968228204498  5.7364745675578144
  7.1551475690016879  7.1551477589575354  7.1551477171903501
  5.7364967752237526  5.7230651136731865  8.5738206989505521
  7.1524411210212131  7.1579326572472741  9.9955079383399905
  5.7380514916062326  8.5723670855957828  0.0023976191828278
  7.1463401869575938  9.9990552541839168  1.4351031871473106
  5.7529944620983438  8.5573362259393164  2.8941983864316172
  7.1551476410625918  9.9981518089548391  4.3121434824148732
  5.7364746205186039  8.5737985817719746  5.7230650718166123
  7.1523629250561314  9.9955079720509126  7.1578542355017625
  5.7562361040773089  8.5540592759873135  8.5540593601899229
  7.1422939173335624  9.9941710280822971  9.9942818571486711
  8.5582755851769274 -0.0289836120291831 -0.0290452575483930
  9.9837436516881972  1.3962350930228555  1.3963050725656971
  8.5689530014702839 -0.0171668166173524  2.8746964970046154
  9.9585633687710065  1.3884275973505458  4.3520313038628222
  8.5573008112000757 -0.0321392063531567  5.7529590959036163
  9.9989163521647519  1.4271896393392653  7.1462189874483926
  8.5745514912906380 -0.0136653260487904  8.5786558926553820
  9.9930249189139762  1.4310294815840334  9.9930249548347589
  8.5688915023610921  2.8746948600551194 -0.0171989041621829
  9.9582641609887883  4.3517320305436833  1.3884276075685018
  8.5999952347979534  2.8734314492313793  2.8735922366055759
  9.9555603492208444  4.3547348564804071  4.3547349205745229
  8.5722441100480768  2.8596613069195786  5.7379282586909808
  9.9942819648325472  4.3161243661187507  7.1422938983209443
  8.5786558378031561  2.8757243681192484  8.5745514447290017
  9.9930480569065807  4.3169857670598555 10.0030841866018658
  8.5573361650757818  5.7529944328414260 -0.0321392082725497
  9.9990554264337916  7.1463401439904501  1.4269559549496122
  8.5723670951006454  5.7380513067672592  2.8596614702569898
  9.9941709981750453  7.1422940185520361  4.3160135976930825
  8.5540593558452755  5.7562359844932658  5.7562360420323611
  9.9955079401324376  7.1523629730863476  7.1524410795431281
  8.5737985548707663  5.7364744860424333  8.5872302894948191
  9.9981518806887966  7.1551475940812921  9.9981518920009425
  8.5745953367511802  8.5786608671238049 -0.0137082341779279
  9.9928621130329685  9.9928621119360841  1.4310294112625277
  8.5786608166178802  8.5745952361367230  2.8757673261355197
  9.9933094267429095 10.0030844577898232  4.3172472583450956
  8.5738207042798180  8.5872305039747374  5.7364966864574871
  9.9981081638411737  9.9981080305645875  7.1551476796169018
  8.5872303675374440  8.5738206919609485  8.5737986425231369
 10.0030843624474901  9.9933094833855218  9.9930481269980120
  2.9097728228369792 -0.0477137150719138 -0.0477136915614078
 -0.0477138354853045  2.9097729327917672  2.9097729128188514
