Fe Ru
 1.0000000000000000
    11.4240890329398272    0.0000000000000000    0.0000000000000000
     0.0000000000000000   11.4240890310134766    0.0000000000000000
     0.0000000000000000    0.0000000000000000   11.4240890394666170
 Fe  Ru 
 126   2
Cartesian
  0.0201231625360976 -0.0248255990873538 -0.0253453418442587
 -0.0050289714610765 -0.0060947105231421  2.8618513890516781
  1.4334992829571749  1.4232814034978629  4.1697116162847987
  0.0024651400209963  0.0053880313237465  5.7125570811814237
  1.4373204852429939  1.4185557153495838  7.1490035808531900
  0.0004333037663703  0.0044817076001763  8.5749319123298040
  1.4026658494366793  1.4528367226754877 10.0162009702041281
 -0.0058290579199759  2.8610512158486774 -0.0060946549230486
  1.4327408135363178  4.1697116224502713  1.4225229783049107
 -0.0229990142574812  2.8790213114941952  2.8790212680502543
  1.4156904734796196  4.2885045452549040  4.2884176308976940
  0.0004266928324565  2.8558860998453999  5.7189296580404863
  1.4200428702597849  4.2915971195053011  7.1351005366127724
 -0.0053565484720344  2.8613307470920559  8.5598663115317137
  1.4326951693290810  4.2770822895238725  9.9967371367698039
  0.0025572675215604  5.7127103604400693  0.0050070883112048
  1.4374664971216995  7.1490035660291200  1.4187017418888037
  0.0001360938877870  5.7189296721459852  2.8555956348464782
  1.4199188663934774  7.1349289926320107  4.2916278968019315
 -0.0039342447847750  5.7176409092169278  5.7177229516021253
  1.4229697261054657  7.1369329674738751  7.1369270944343572
 -0.0082667616156520  5.7172347161573676  8.5614364179680589
  1.4330182487670762  7.1393897797523467  9.9986351292465070
  0.0006592939165178  8.5750178098972629  0.0046840189496104
  1.4031855595781071 10.0162009874207829  1.4533564473898841
 -0.0053084313566367  8.5598663677941946  2.8613788280124450
  1.4324928530200609  9.9965111050250641  4.2771682541223761
 -0.0082181305811221  8.5614804626989454  5.7172640028083324
  1.4333991136284847  9.9985430458044338  7.1395430073375206
 -0.0129106203648085  8.5585903493752582  8.5585531698395769
  1.4219165474436524  9.9910489445354891  9.9902487858359823
  4.2639103111429639  1.4533565088839879  1.4528366768298906
  2.8808479568277932 -0.0253453773669037  2.8358990739931222
  4.2833740778713629  1.4233271135391716  4.2770823367295492
  2.8465668654787248  0.0093093755764766  5.7030966050285183
  4.2814760988483211  1.4230040252867611  7.1393897280486751
  2.8512925825318591  0.0054881326709412  8.6823884658101420
  4.2898624718272851  1.4341058045659638  9.9910489939032576
  2.8813675920478770  2.8358991666916507 -0.0248255090519246
  4.2836000981310560  4.2771681914582267  1.4235294952024800
  2.8621168774081651  2.8618513628628501  2.8610511259395714
  4.2969439578533093  4.2935469699988467  4.2935098483482053
  2.8510151467294285  2.8534650016884622  5.7127103888866895
  4.2923000885970479  4.2906637121270199  7.1348654277126453
  2.8513381898919117  2.8553630370366068  8.5750177948740003
  4.2893899039901893  4.2922338143671359  9.9907694311780233
  2.8467128738472125  5.7030965845592574  0.0094553847855317
  4.2815681575888656  7.1395430069987400  1.4226231804739911
  2.8506342082139442  5.7125570986701337  2.8535570693663801
  4.2922515015912293  7.1348361406313314  4.2906197114455313
  2.8610636603306894  5.7151730299680832  5.7151672111875520
  4.2879676021351854  7.1343771324601297  7.1344591834083655
  2.8639905037649060  5.7169995868871339  8.5605029797948315
  4.2836067267499622  7.1331704964856781  9.9962139829040950
  2.8505341143491481  8.6823884278921870  0.0047296752999774
  4.2890623968548960  9.9902487255917443  1.4341057225786187
  2.8515406179366871  8.5749319285529193  2.8555889869935087
  4.2893418470432341  9.9907213405484239  4.2922338169422956
  2.8641145487344990  8.5604722412003920  5.7171712333321407
  4.2838973039322417  9.9965045270273141  7.1331704425888214
  2.8683429102960063  8.5636824923859702  8.5635956158983983
  4.3070323598744560  9.9730788748312609  9.9730789180294970
  5.5977227830405365  0.0047297417599526  0.0054881464043216
  7.1311077071119096  1.4187017384987524  1.4185557463021905
  5.7050934554321850  0.0046840186993003  2.8553629224604271
  7.1450107361422868  1.4359793154153782  4.2915971498741134
  5.7196082801860255 -0.0079682015543649  5.7169996103928673
  7.1431841986011095  1.4330524769573598  7.1369329435261841
  5.7165156169490015 -0.0123205842279340  8.5636825295260355
  7.1405682599048825  1.4226231187625413  9.9985430852756014
  5.7051793898299090  2.8555889719407306  0.0044816883135975
  7.1451823602922548  4.2916278902513039  1.4361034090720226
  5.7202449724656921  2.8613788268689495  2.8613306636611302
  7.1453245970415464  4.2887964057378554  4.2887241190566936
  5.7186749073274212  2.8642889408345691  5.7172347048909060
  7.1409041860228033  4.2824721420695022  7.1392425930429750
  5.7215581033982650  2.8689328866915398  8.5585903981971523
  7.1452751446848568  4.2906197205703425  9.9878598291958980
  5.7196390455344632  5.7171712222412676 -0.0080923227299807
  7.1431783249730181  7.1369270601599153  1.4330524885590918
  5.7186308395789709  5.7172639873018740  2.8642403118340085
  7.1408687392838157  7.1392070912509169  4.2824720652608272
  5.7104832612258418  5.7128929874412568  5.7128575459056954
  7.1433056039577192  7.1368056283983048  7.1368056992217923
  5.7168074792327319  5.7173134293242533  8.5633760277882764
  7.1457340922375643  7.1344591497666174  9.9921437273315004
  5.7164287960014217  8.5635956766309747 -0.0123206784860504
  7.1407215460564082  9.9986352041028752  1.4230040014686178
  5.7215208813547811  8.5585531514347242  2.8689328146794577
  7.1452458727143178  9.9878112420187577  4.2906637472374980
  5.7167352892341396  8.5633037742364557  5.7173134800292074
  7.1456520698343198  9.9921436780418684  7.1343771751195906
  5.7307817269777503  8.5493295156589504  8.5493295419194677
  7.1469407988234819  9.9962140085265645  9.9965045406143851
  8.5770146795739493  0.0094554389219824  0.0093093807786753
 10.1103996931379534  1.4225229648665287  1.4232813836254752
  8.5674008649566069  0.0050071156532680  2.8534649482280838
  9.9916936535876353  1.4403317679062939  4.2885044978906413
  8.5649441447762324 -0.0050413233740018  5.7151730948100141
  9.9884834252119674  1.4361033928948161  7.1349290005860411
  8.5629400621751230 -0.0080922216161927  8.5604722568676497
 10.0029430996044635  1.4235294160374321  9.9965111886459237
  8.5675541890773861  2.8535570732397768  0.0053879597942394
  9.9916067980275702  4.2884176741828108  1.4403317511379301
  8.5611816250780919  2.8555956348846872  2.8558861176175276
  9.9773406811994398  4.3027706509878048  4.3027705805218108
  8.5623882933378592  2.8599564864392861  5.7176409083105826
  9.9913149012111315  4.2887241735945301  7.1347866879271207
  8.5628473085397676  2.8642403053289467  8.5614803883633517
  9.9865644138169110  4.2935098154846676  9.9831673259809861
  8.5649382932042855  5.7151672334455519 -0.0050414443523487
  9.9885141454186535  7.1351005603317805  1.4359793685438433
  8.5624703621623475  5.7177230288527872  2.8599564806341924
  9.9913870909409201  7.1347866840120515  4.2887963778674356
  8.5648167907973942  5.7152945126035135  5.7152945239649116
  9.9976391761097645  7.1392426346908167  7.1392070986341984
  8.5672183014001604  5.7128575174377660  8.5696280492183519
  9.9894475237842411  7.1348654266361846  9.9878111849603695
  8.5631116944473931  8.5605030320739370 -0.0079682640437859
 10.0030289683579063  9.9967371926691726  1.4233270923473726
  8.5628765495743320  8.5614363748454032  2.8642889473716946
  9.9866014710519337  9.9831673090914599  4.2935469773719959
  8.5672537793117112  8.5696280757244665  5.7128930331969823
  9.9894915916414568  9.9878598616210681  7.1348361365671007
  8.5627978213562184  8.5633759954140647  8.5633037781203321
  9.9878774603835190  9.9907693864075355  9.9907213589298074
  2.8924770543307621 -0.0364548408956719 -0.0364547427986811
  1.3915563094733909  1.4644659531005486  1.4644658931672561
