Fe Tc
 1.0000000000000000
    11.4067607685327062    0.0000000000000000    0.0000000000000000
     0.0000000000000000   11.4067607703704077    0.0000000000000000
     0.0000000000000000    0.0000000000000000   11.4067607694162110
 Fe  Tc 
 126   2
Cartesian
  0.0221209790369206 -0.0305938933067985 -0.0313102216827142
 -0.0178399082072937 -0.0426972824326295  2.8701799433847754
  1.4270593119550827  1.4251160679798691  4.1759885083372428
  0.0139007406191019  0.0125688299408624  5.6977706236415830
  1.4393134486399850  1.4122495222969491  7.1432006735993756
  0.0211121633238805  0.0090012653362256  8.5745957050224586
  1.3945350100989966  1.4564390341853466 10.0030366052622970
 -0.0184896044629015  2.8695301491284644 -0.0426972599519053
  1.4265741257752311  4.1759884884046548  1.4246308010460134
 -0.0549439708381198  2.9066342421687068  2.9066341944674279
  1.4222377472265975  4.2618256588400483  4.2618791083398877
  0.0081944399816630  2.8437186949881963  5.7055458330605431
  1.4233156766407737  4.2779239359060037  7.1302120479674462
  0.0032454856487752  2.8483435520929978  8.5544856883160794
  1.4348465097024190  4.2579315228802361 10.0023320521265138
  0.0139280278010043  5.6980748094325930  0.0124014477898781
  1.4394406957866053  7.1432007078810367  1.4123767063095416
  0.0079715235694616  5.7055458398010570  2.8434957178084641
  1.4231098478283106  7.1299704915039817  4.2780393280089841
  0.0038262912945695  5.7053788231446116  5.7054761507672751
  1.4220970103273762  7.1259976235020366  7.1260839652572630
 -0.0000541219052936  5.7007603675628671  8.5547982187995917
  1.4382466011417721  7.1345310416548093  9.9948437084148232
  0.0214163894178960  8.5746743617682224  0.0090013906106038
  1.3952512317637691 10.0030366929971493  1.4571551797599149
  0.0033467359504711  8.5544857390082587  2.8484447025129667
  1.4348463123754307 10.0020278057644827  4.2580101433027329
  0.0000850711859837  8.5548291171248998  5.7008512180353765
  1.4384139106449250  9.9948163899557532  7.1348352912431956
 -0.0063849583441343  8.5521422304624775  8.5521177580106471
  1.3831478556057160  9.9630756922556429  9.9624260078122244
  4.2554142645325896  1.4571551702001622  1.4564389960609645
  2.8822840793053826 -0.0313100413514153  2.8295692147288554
  4.2561189089542575  1.4168437001489118  4.2579315170771164
  2.8380946025957714  0.0134683290538965  5.6894051704665891
  4.2636072896281512  1.4134436311556735  7.1345310218746860
  2.8509611455414103  0.0012142460649103  8.6566174200391721
  4.2960249654376357  1.4685422967847763  9.9630757305465458
  2.8830002489707791  2.8295691688855040 -0.0305938591147807
  4.2564231618618500  4.2580101490600937  1.4168438604646805
  2.8943873840083012  2.8701798459187087  2.8695300829025330
  4.2839201825877842  4.2804881029523507  4.2804636576477373
  2.8392887264313011  2.8377621854825694  5.6980748509504400
  4.2775894585348668  4.2778077175605933  7.1318455465193491
  2.8426888708961098  2.8302737656837702  8.5746743733336679
  4.2742897865271852  4.2781201377264200  9.9842623937193711
  2.8382218850474654  5.6894051518768141  0.0135956096001972
  4.2636346121073005  7.1348352561667783  1.4132762776022296
  2.8391213910504858  5.6977706370691479  2.8377894379542523
  4.2774501400122773  7.1317545777877296  4.2777767446643926
  2.8554382819541475  5.7065218560433610  5.7066082439114618
  4.2737090253415309  7.1271297885719118  7.1272270600124710
  2.8542196184658262  5.7023937167549326  8.5546819780564292
  4.2693408257801488  7.1270599724369887  9.9888872364771863
  2.8504759867298035  8.6566173909966810  0.0007290220736547
  4.2953751968902028  9.9624259945331257  1.4685423167687801
  2.8426889161618822  8.5745956829340813  2.8305780836028744
  4.2741886584956772  9.9841611651537860  4.2781200877060472
  2.8544254018488480  8.5545665530200221  5.7026353411429707
  4.2695637531076907  9.9891101518344545  7.1270600246970641
  2.8552975502656590  8.5707267106210754  8.5707801968331463
  4.3324793579687100  9.9259716407276990  9.9259716685435553
  5.6018335156415899  0.0007290063257916  0.0012142583393869
  7.1152502523310108  1.4123767390179838  1.4122494668502570
  5.6837765853664903  0.0090014069704813  2.8302737640504256
  7.1282388863299584  1.4283745260643854  4.2779238531098747
  5.7037689914675855 -0.0025294229725534  5.7023937550107160
  7.1323669668187124  1.4295931320120729  7.1259976174944120
  5.6876707203726538 -0.0036073739125057  8.5707267641040286
  7.1236156823842620  1.4132762782692179  9.9948163965556773
  5.6838552549265344  2.8305781125933480  0.0090012915378495
  7.1284804240410446  4.2780392921735597  1.4285803999862983
  5.7039652017453966  2.8484447460792519  2.8483435218075392
  7.1293607059432027  4.2786215102109768  4.2785474974973958
  5.7036527833532649  2.8517442777267927  5.7007603067498396
  7.1301897508254406  4.2714747230910524  7.1283262803244289
  5.7063332393402941  2.8580751364978396  8.5521422128243021
  7.1266963332637490  4.2777767296738460  9.9810007986778135
  5.7038844500917305  5.7026352981650339 -0.0027352130765058
  7.1324533730236261  7.1260839821836450  1.4295931887530675
  5.7036218054197532  5.7008512483890295  2.8516050830002682
  7.1301246618951817  7.1282611901178283  4.2714747479841897
  5.6973197943238070  5.7043446041387629  5.7042795277341636
  7.1339289248581377  7.1245220366545388  7.1245220450444782
  5.7044666061369709  5.7035156284742579  8.5540583641369565
  7.1313212650297153  7.1272269850455379  9.9847419728868960
  5.6877242484302872  8.5707801827609522 -0.0036074026549603
  7.1239199709581156  9.9948437219662427  1.4134435890739483
  5.7063087913970074  8.5521177056312911  2.8580750402316997
  7.1266054823060498  9.9808616299884427  4.2778076874686759
  5.7043925890024099  8.5539843101637043  5.7035155343822508
  7.1312239216394282  9.9847420113406375  7.1271297568146386
  5.7205702937792209  8.5378807093727627  8.5378807190129677
  7.1313909672910656  9.9888872473740147  9.9891101253428172
  8.5690458801539755  0.0135956025333622  0.0134683316285202
 10.0824625514776418  1.4246308926489097  1.4251161151497544
  8.5603761666983118  0.0124015147727123  2.8377621283293180
  9.9965718766715206  1.4294524401869635  4.2618256674962289
  8.5518427382579834 -0.0037480228332841  5.7065218862963558
  9.9804116314016511  1.4285803095426000  7.1299705646167251
  8.5558156432858308 -0.0027352269082173  8.5545665595518638
 10.0004408595420582  1.4168438956934777 10.0020278221135577
  8.5606803737630699  2.8377894971025590  0.0125688358156927
  9.9966253270356269  4.2618791390850967  1.4294524491576175
  8.5529051539081138  2.8434956915867740  2.8437186517770456
  9.9637258337463130  4.2947251553358115  4.2947251919153908
  8.5529748773444503  2.8478638130468830  5.7053787924481023
  9.9798294137943575  4.2785475349117474  7.1290902651701531
  8.5575996886639771  2.8516051134249505  8.5548291264756386
  9.9779628526468311  4.2804636775156473  9.9745308134184487
  8.5519291094524998  5.7066082008497450 -0.0037480225148188
  9.9805270830498642  7.1302121098010955  1.4283745199472999
  8.5530721839531498  5.7054760704172871  2.8478639317893326
  9.9799033931909076  7.1290902663912767  4.2786215012431370
  8.5503671210432071  5.7080837873189409  5.7080838200058288
  9.9869761751315238  7.1283263077299628  7.1282612192256982
  8.5541062939054324  5.7042795112875266  8.5611311604837574
  9.9806432607455715  7.1318455064884061  9.9808616107162553
  8.5560571718801945  8.5546819368682296 -0.0025294914850159
 10.0005195248969301 10.0023321426097045  1.4168437189991143
  8.5576906807437449  8.5547982124178912  2.8517442268369191
  9.9779872912461638  9.9745308305933413  4.2804881773090537
  8.5541714197233141  8.5611310892185930  5.7043446806266340
  9.9806742626367022  9.9810007965588241  7.1317545889302050
  8.5549353755497766  8.5540583453918995  8.5539843420351467
  9.9803308105615134  9.9842623916964417  9.9841611743314420
  2.8909827859795967 -0.0392926117321901 -0.0392926618560962
  1.3865524187837810  1.4651376332798953  1.4651377109897237
