Fe W 
 1.0000000000000000
    11.4089541507727628    0.0000000000000000    0.0000000000000000
     0.0000000000000000   11.4025396380436561    0.0000000000000000
     0.0000000000000000    0.0000000000000000   11.4089541495142068
 Fe  W  
 126   2
Cartesian
 -0.0142121840307348  0.0019010942139369 -0.0033538136655250
  1.4007656602658280  1.4464868755603721  1.4519271887272145
 -0.0094285658586725 -0.0003695076807620  2.8618466156363311
  1.4220018005107955  1.4305447746925255  4.2752893391051439
  0.0058824323274679  0.0036922355851595  5.7023376324092814
  1.4204219578135961  1.4360717134854366  7.1289688168590457
 -0.0042700381696863  0.0020111946890215  8.5512858822809150
  1.3913590870526291  1.4458957912036428  9.9471742837069481
 -0.0356609812104526  2.8300561444286076 -0.0347603576916669
 -0.0465029667837244  2.8364192706233600  2.8985604393723952
  1.4261713998922232  4.2773906279545928  4.2872244817240128
 -0.0104072946590569  2.8496206441546903  5.7061112229340374
  1.4272061560870934  4.2748460420867778  7.1314863627819927
 -0.0179402769664469  2.8579492645832238  8.5459522551588556
  1.4227653152878124  4.2740511670137016  9.9686227011275914
 -0.0308751557855430  5.7380953415173019 -0.0334686082355139
  1.4218836554421568  7.1374626296388772  1.4304543793378210
 -0.0374491486459300  5.7348502637856775  2.8897231566487003
  1.4250716343306988  7.1338933070090720  4.2826158541548240
 -0.0024744254486002  5.7071955586118532  5.7038481367360356
  1.4248034016579283  7.1233714208562207  7.1317849902444630
 -0.0104192430972250  5.7073807588776431  8.5539198856239427
  1.4214533299363254  7.1319544514120512  9.9739378668366729
 -0.0088970138549246  8.5465376155243167 -0.0046660327815375
  1.3958207749882776  9.9471554447655226  1.4564313144126964
 -0.0181251495685831  8.5359623515214000  2.8703107383064359
  1.4192411095123094  9.9701768081063040  4.2743367663636151
 -0.0062342912411912  8.5453416621255158  5.7031588383115857
  1.4199057693170312  9.9707163662655720  7.1311055547026001
 -0.0157276427305022  8.5332931797503910  8.5431351271854687
  1.3926505955501252  9.9403966601028397  9.9519598049775091
  4.3142886472243713  1.4458158037338271  1.4603218946888807
  2.8557516355600301  0.0017442365418886  2.8663082648076021
  4.2964838011787059  1.4178434773515736  4.2889555800035053
  2.8511829545080718  0.0011177658605898  5.7035699250749481
  4.2885230459028554  1.4264981207582277  7.1288822706737651
  2.8521168281102973 -0.0014193827186038  8.5478874323155107
  4.3246794418705239  1.4395329046370133  9.9363321000673288
  2.8780467804407226  2.8294652966764691 -0.0253537448197393
  4.2924276039246037  4.2742080194264771  1.4296322776228911
  2.8864412431442070  2.8301366838068249  2.8881696066567755
  4.2824974033586773  4.2739479900097130  4.2837328762263622
  2.8577016252470644  2.8396671005862459  5.7061296843712785
  4.2724208693490358  4.2722735378970551  7.1327735347314514
  2.8565399042298889  2.8455177538988168  8.5598243725034511
  4.2879657495828374  4.2763219844248281  9.9734065364639832
  2.8825505580364839  5.7313363895097496 -0.0302986756032717
  4.2875902835826807  7.1321118958732219  1.4306616379841466
  2.8856771762677025  5.7382136609770580  2.8829990897027651
  4.2941235581155599  7.1451922487692556  4.2920173047221555
  2.8586095332127526  5.7075787094525632  5.7040258759879023
  4.2845789503874769  7.1332138039134776  7.1319624782696822
  2.8589849536875565  5.7085672176283770  8.5607855732604321
  4.2964300013861134  7.1425294505315380  9.9647099137101947
  2.8565735972777886  8.5410293117468701 -0.0042357707641569
  4.3091184457638674  9.9402781859569629  1.4595581522219283
  2.8567808235770733  8.5463804443964353  2.8614709769412583
  4.2886807123008426  9.9708066157584554  4.2811798482045047
  2.8535226342115649  8.5550739768561499  5.7032918005211339
  4.2809479134999400  9.9714617812069868  7.1312565347552681
  2.8532466517966322  8.5445759539128261  8.5526110817578562
  4.3158423454476118  9.9436416245290395  9.9453854459402145
  5.7133438926096263 -0.0014381180517213  0.0000521485018944
  7.1322489120386701  1.4362852015412919  1.4315822820297648
  5.7098519108808325  0.0020043337666509  2.8563782359929686
  7.1284483663150224  1.4207695390849950  4.2826290973031762
  5.7032946570004714 -0.0040057037340477  5.7080565273300019
  7.1301824255517383  1.4271456518915215  7.1309410458669262
  5.7126979173459818 -0.0063915088048142  8.5484915611297065
  7.1322305443671592  1.4263317025631639  9.9724275221336445
  5.7014084780655496  2.8454076987082524 -0.0041176103063197
  7.1296890370945638  4.2748345177748615  1.4250636023287726
  5.7150747926011443  2.8581087719835763  2.8703643223683004
  7.1341758850222545  4.2799579408308235  4.2771754395918471
  5.7087483207385983  2.8551828000676442  5.7023291818740551
  7.1353911093196780  4.2803270107951477  7.1257816884539560
  5.7164093863784187  2.8639318806922245  8.5447777361373234
  7.1284568122324901  4.2722600744759394  9.9887173661256341
  5.7004560373619375  5.7083151937364240 -0.0068783631471351
  7.1294109213364081  7.1234178724622925  1.4274035313606224
  5.7072988923107202  5.7076852900604331  2.8625615925511743
  7.1352608003719338  7.1253466914515666  4.2887383318269672
  5.6995847689820076  5.6993198115661707  5.7039841400625182
  7.1360790785863095  7.1182635591454124  7.1251459361523599
  5.7081367924553055  5.7014451776021406  8.5530472109273674
  7.1292783816382439  7.1331503659724227  9.9766007505907304
  5.7087351614948432  8.5445989748060907 -0.0010476228618878
  7.1301448513778665  9.9709131377839988  1.4324903823657802
  5.7181365933044876  8.5332997838443418  2.8680040913149183
  7.1301035241433421  9.9791720345287303  4.2734654247586006
  5.7148576989303361  8.5531455104341880  5.7091418465626518
  7.1297902469777314  9.9797277397031419  7.1313944690263558
  5.7247810517262767  8.5404235619472928  8.5364472028635756
  7.1299674458140068  9.9712963666264489  9.9803604347179888
  8.5576057057842032  0.0011063823666006  0.0010869087539153
  9.9859436688663550  1.4304346314244543  1.4304207279802268
  8.5588930393701084  0.0036788541615996  2.8463017081012745
  9.9708973141671375  1.4120207124998867  4.2902899779318489
  8.5519012485477237 -0.0043747128372801  5.7092717800700337
  9.9784809765168792  1.4208011074964506  7.1327245496820133
  8.5531296894854307 -0.0039778132908552  8.5578255814487552
  9.9720714457588482  1.4180031093844401  9.9648944665869816
  8.5550879141605147  2.8398805128534650 -0.0056973906448392
  9.9740066803051306  4.2773716709843717  1.4259973644049382
  8.5550017035455301  2.8494540563959325  2.8624035400559782
  9.9746108353962306  4.2823437512239426  4.2865786466942488
  8.5570602402253737  2.8488068141467582  5.7040633590223848
  9.9839447186283792  4.2799301643652710  7.1270105765531895
  8.5588438058354068  2.8551511990686596  8.5523617607364955
  9.9774049672959091  4.2739411615311678  9.9785648321960512
  8.5572247798409862  5.7077757367277737 -0.0062136510130378
  9.9787303646389667  7.1339161589044400  1.4271274068352890
  8.5573756617173853  5.7070301967785291  2.8548285430378852
  9.9625664952968691  7.1380687096065634  4.2986617163583025
  8.5575137193004203  5.6987641205946655  5.7036711676040266
  9.9724712815805407  7.1253348834789296  7.1259846502246056
  8.5572115182380806  5.6993299559187367  8.5615911837921601
  9.9692544289544127  7.1451989428903602  9.9671071348557838
  8.5579043197121134  8.5551204243484058 -0.0013157799779204
  9.9869046462504496  9.9699247440788437  1.4328655768028504
  8.5580817309054247  8.5452783174987932  2.8584597557334841
  9.9791666311364366  9.9770471459947778  4.2820176348333403
  8.5512652898002877  8.5602285603063937  5.7099597977036636
  9.9877104740122284  9.9791620255416991  7.1310919976473031
  8.5521038090250538  8.5531571674439082  8.5463521533447064
  9.9800392094768906  9.9711111259796841  9.9724156919967477
  2.8603104043394629 -0.0111903105262122 -0.0081867680991326
  1.4179325961254581  4.2871431307365881  1.4341913876264898
