Fe Cu
 1.0000000000000000
    11.3825180046440106    0.0000000000000000    0.0000000000000000
     0.0000000000000000   11.3825180054607920    0.0000000000000000
     0.0000000000000000    0.0000000000000000   11.3825180047625860
 Fe  Cu 
 126   2
Cartesian
  0.0038191866276600 -0.0036772899952190 -0.0037204419844754
  0.0059903318529636  0.0045648397395375  2.8394227260957701
  1.4281615144760924  1.4171424069694749  4.2280176485627825
  0.0004989149060455 -0.0004049722093724  5.6798795198157954
  1.4240023778327735  1.4217756770494065  7.1246233980430427
 -0.0138960181665066 -0.0020388209923300  8.5343487504149422
  1.4190943211092180  1.4264920420038141  9.9635224341652275
  0.0062067743101667  2.8396391921433319  0.0045648547458185
  1.4284870941694756  4.2280176463737353  1.4174679598856090
  0.0145841343508453  2.8310453557514434  2.8310453390701404
  1.4220897960926289  4.2808260034679924  4.2807980349871082
  0.0049273400870415  2.8405470219411342  5.6804045159307179
  1.4223796162554132  4.2743696975784378  7.1058541706401881
 -0.0138103080233856  2.8595523524287612  8.5333663931654300
  1.4205184603420340  4.2708033909299186  9.9459188308747404
  0.0004939641326436  5.6798587030580796 -0.0001830337605913
  1.4238538034242507  7.1246233713135112  1.4216271459785472
  0.0050825132669303  5.6804045147776634  2.8407021519516689
  1.4223272276140242  7.1058856875429264  4.2744914453040455
  0.0005643024393510  5.6943066070804882  5.6942781863549072
  1.4228968533685489  7.1084624551785049  7.1085773464038091
  0.0014700041129563  5.6977861107168932  8.5326705233120173
  1.4226317225797502  7.1254740383471331  9.9601971972180934
 -0.0137844414629703  8.5345293605789561 -0.0022963092787965
  1.4191374631124176  9.9635224106236944  1.4265351610477308
 -0.0139228454285619  8.5333663790860861  2.8594398339434886
  1.4207759599569039  9.9458072012961214  4.2709839742664526
  0.0014874388470991  8.5327273419436978  5.6978025097028731
  1.4224098068891526  9.9602021931883566  7.1254532429315081
 -0.0095130736690840  8.5212218790840311  8.5212673291314101
  1.4273795782420338  9.9656935775291107  9.9659100563808636
  4.2646250701362778  1.4265351736073544  1.4264920429183843
  2.8493067821957498 -0.0037204314231682  2.8418102927581468
  4.2822286551974003  1.4251110515751135  4.2708033941965819
  2.8445904612591311  0.0011876036899469  5.6807093891184417
  4.2679503358463151  1.4229977688313069  7.1254740564968566
  2.8399571373325330  0.0053467718009535  8.5773151251687167
  4.2622374512723695  1.4182498958968013  9.9656936134229408
  2.8493499354413570  2.8418102896530346 -0.0036772999908193
  4.2823402863828886  4.2709839871096520  1.4248535613757338
  2.8410646435459563  2.8394226930929691  2.8396391516011588
  4.2779572927122915  4.2840654010374699  4.2841108635587659
  2.8458125126608111  2.8451355917751950  5.6798587257297273
  4.2669742521408800  4.2726622731748289  7.1075466900510600
  2.8479257924797747  2.8594139204511935  8.5345293692288386
  4.2822545884316412  4.2719663680059705  9.9457804284589262
  2.8444418816900234  5.6807094108935292  0.0010390517606282
  4.2679453267980225  7.1254532396009749  1.4232197035706380
  2.8460344657241077  5.6798795219181413  2.8451305635979787
  4.2669567757497999  7.1075302877414250  4.2726054289883697
  2.8455473988179918  5.6967554521721153  5.6968702687127442
  4.2678799547194437  7.1110545844622601  7.1110261294782706
  2.8460646715349971  5.6994786033546143  8.5309630641249061
  4.2635169047123131  7.1249282363278761  9.9647857641990800
  2.8402827151048600  8.5773151144752973  0.0056723393108321
  4.2624539126415293  9.9659100177186204  1.4182499303646250
  2.8476683291185823  8.5343487671605978  2.8595255525337797
  4.2823670964336618  9.9458929581994582  4.2719663840658502
  2.8461170321983662  8.5308413000446066  5.6994470858047128
  4.2633617513951885  9.9646306084968739  7.1249282417484423
  2.8463544210630309  8.5245347218310563  8.5245067169444901
  4.2538600958071378  9.9742873823163123  9.9742873813785486
  5.6508323596273131  0.0056723576842749  0.0053467655644770
  7.1035241224798407  1.4216271297284531  1.4217757094245989
  5.6936181541433033 -0.0022963311371167  2.8594139009020871
  7.1222933544197922  1.4232498795403785  4.2743696872501200
  5.6971844425906646 -0.0004351315792501  5.6994785861623285
  7.1195701725556733  1.4227326441438803  7.1084624911491598
  5.7036407652413139 -0.0007249132943411  8.5245347241936926
  7.1026942810153324  1.4232197262633541  9.9602021659728575
  5.6937987306720945  2.8595255283105758 -0.0020388095568741
  7.1222618441107812  4.2744914398365434  1.4233022823074464
  5.6947811504270005  2.8594398195678936  2.8595523744271119
  7.1203072684155551  4.2645738942974418  4.2645277959276235
  5.6954770243548207  2.8441595020572041  5.6977860842008283
  7.1142345749292719  4.2701290450792930  7.1139067613189724
  5.7068801412041115  2.8551425534400332  8.5212218952173799
  7.1206172216381800  4.2726054178703654  9.9611906970548887
  5.6973062048175498  5.6994470711196970 -0.0004875348853452
  7.1196850181691138  7.1085773313980090  1.4227326543849452
  5.6954201661111217  5.6978024770642435  2.8441420400687760
  7.1142407268520857  7.1139129881324257  4.2701290400290217
  5.6929438017664769  5.6914197713135426  5.6914259767479694
  7.1123619723852416  7.1157855303512889  7.1157856012495611
  5.6873886318048337  5.6974924947779639  8.5408049586451913
  7.1170929155342160  7.1110261506760297  9.9602675363524078
  5.7036127967503072  8.5245067439416040 -0.0007249451071841
  7.1026734547343233  9.9601971664480313  1.4229977612747422
  5.7069256076654700  8.5212673596614703  2.8551425221880562
  7.1206008130429010  9.9611732519994938  4.2726622762779485
  5.6873425407412181  8.5407588688597667  5.6974924955382278
  7.1171213208755866  9.9602675494165283  7.1110545862089438
  5.6979510855330240  8.5301964224988609  8.5301964061666471
  7.1032192524348146  9.9647857324477780  9.9646305861520030
  8.5474381319501305  0.0010390553800823  0.0011876205124682
 10.0001298638963139  1.4174679728522019  1.4171424098063956
  8.5482888283909251 -0.0001830191227474  2.8451355811680688
  9.9473494509515117  1.4235396809742118  4.2808260372464302
  8.5312772343718422  0.0000821089442443  5.6967554645173566
  9.9536560450506073  1.4233022971517559  7.1058856870350890
  8.5287004258395704 -0.0004875362596044  8.5308413094145745
  9.9571635347191680  1.4248535619008704  9.9458072145490704
  8.5482679954536032  2.8451305855265177 -0.0004049649143256
  9.9473214517699375  4.2807980346065131  1.4235396946146388
  8.5477429924121946  2.8407021403760804  2.8405470180257346
  9.9530111619036834  4.2751363427315106  4.2751363214049460
  8.5338693457528088  2.8450652041022488  5.6943065868646965
  9.9635736221572149  4.2645277880203905  7.1078402333726673
  8.5303450302604400  2.8441420662538706  8.5327273453193264
  9.9440820766059339  4.2841108578562963  9.9501901950289575
  8.5313920961513308  5.6968702878381112  0.0000820858496925
  9.9537778493600229  7.1058541431116815  1.4232498882290763
  8.5338409421527484  5.6942781752619345  2.8450651921787218
  9.9636197315503523  7.1078402952554374  4.2645738805242352
  8.5386003012087368  5.6895471789388434  5.6895472072339324
  9.9580184530273907  7.1139067654722341  7.1139129494295421
  8.5367277257588423  5.6914260096756646  8.5352037213784850
  9.9554852460419365  7.1075466889244794  9.9611732730895195
  8.5286689351301206  8.5309630643064054 -0.0004351415393790
  9.9573440951893808  9.9459188191607719  1.4251110404104879
  8.5303614056758281  8.5326704975349745  2.8441594867847106
  9.9440366276564731  9.9501901870837344  4.2840653897751571
  8.5367215028128065  8.5352037013874238  5.6914197932762374
  9.9555420809250013  9.9611907162572475  7.1075302653874699
  8.5306550004990314  8.5408049730104132  8.5407588709017954
  9.9561811542032785  9.9457804199932287  9.9458929438890582
  2.8310455938615866  0.0145838981043128  0.0145839025737387
  1.4373986472062044  1.4082308592646562  1.4082308221400972
