Fe V 
 1.0000000000000000
    11.3695014384437822    0.0000000000000000    0.0000000000000000
     0.0000000000000000   11.3695014377247041    0.0000000000000000
     0.0000000000000000    0.0000000000000000   11.3695014389533764
 Fe  V  
 126   1
Cartesian
  0.0575739663945808  0.0407681430036283  0.0405454046803601
  0.0643691640866605  0.0486013457108141  2.7780876850559308
  1.4248266131367511  1.4177094211087515  4.3010768476743531
 -0.0004968827603489 -0.0014358580757203  5.6826407349259567
  1.4226751769251820  1.4195725919182935  7.1119905321995516
 -0.0005119838057668 -0.0039226907994915  8.5302398676461966
  1.4123119823993395  1.4301095949772102  9.8857024269633982
  0.0642876339730722  2.7780061443905861  0.0486013033436656
  1.4246659456538446  4.3010768177630077  1.4175488259522318
  0.0621787589416585  2.7801966598882042  2.7801966403710154
  1.4209327949676174  4.2514646677247994  4.2514271430962163
  0.0001709752422004  2.8423085021841481  5.6849936747492613
  1.4219399271578734  4.2573457195251585  7.1030680615389992
 -0.0067009765152567  2.8490101860080301  8.5206204556899365
  1.4229347572413920  4.2508252403585338  9.9574374926579576
 -0.0004033487595476  5.6826578018333134 -0.0014499354743764
  1.4228027427017971  7.1119905658291600  1.4197003092382952
  0.0000668928955249  5.6849936343885474  2.8422043941207784
  1.4219320142635230  7.1031224228665710  4.2573108763370362
  0.0040639119336038  5.6836690090745146  5.6836150073583251
  1.4210729868822853  7.1041980827053193  7.1042696547285766
  0.0000967893985146  5.6836895640506686  8.5264654143360783
  1.4227721941020983  7.1122304197450923  9.9588654692959526
 -0.0007341011664457  8.5300643212091849 -0.0040072097333203
  1.4122657452608107  9.8857024327064167  1.4300632555780795
 -0.0066347682628763  8.5206203768038655  2.8490762751449772
  1.4228134966257215  9.9573720174003242  4.2510476649739264
  0.0000798589634673  8.5264156374504125  5.6837608633911918
  1.4229297852806932  9.9587595017184167  7.1122457132967298
 -0.0022176789414647  8.5274647296996804  8.5275047905419896
  1.4206884271262807  9.9614076697219520  9.9616644625048565
  4.3261743445454606  1.4300632427999127  1.4301096517453074
  2.8016071210297664  0.0405455195251764  2.7848013816091921
  4.2544391684088430  1.4194406146068572  4.2508252185991848
  2.8430336522624629 -0.0007910151463014  5.6832498857490554
  4.2530112867094054  1.4196031257165247  7.1122304857473608
  2.8409978346970317  0.0013534568654070  8.5464760289791712
  4.2502122932011117  1.4216868327407230  9.9614076952877930
  2.8018298871113787  2.7848013413916242  0.0407681953742199
  4.2545048658320059  4.2510476237095318  1.4195618385959494
  2.7937739547623051  2.7780876290077767  2.7780061780483334
  4.2460329330603583  4.2471611020362294  4.2471812339357289
  2.8438252910993258  2.8427786098890522  5.6826577854358007
  4.2610034314004821  4.2622634899921197  7.1029318057483977
  2.8463825592964769  2.8431094469688536  8.5300643179218500
  4.2485488472449395  4.2479400822974931  9.9634348786468951
  2.8431665022236321  5.6832498117039449 -0.0006583270867770
  4.2531172904659362  7.1122456966354504  1.4194455852595984
  2.8438111527011380  5.6826407823259935  2.8428721898079594
  4.2608732483093705  7.1029087421614845  4.2621528111208411
  2.8414817302344582  5.6832504073114745  5.6833251917650811
  4.2604513177832430  7.1039667601099747  7.1039467365717064
  2.8420989031474666  5.6834953540766868  8.5272535158130278
  4.2561405102671603  7.1141436888987046  9.9555998056416151
  2.8410219395585612  8.5464760519635927  0.0013775753475546
  4.2504690831132699  9.9616645000494017  1.4216868201318709
  2.8462980282897474  8.5302397937572589  2.8428873451578713
  4.2484419907917381  9.9633278971103518  4.2479400045816567
  2.8421676264593621  8.5271406125249314  5.6834795940281264
  4.2562768829430739  9.9557363223230464  7.1141437323329990
  2.8421687910072939  8.5336326828274132  8.5336304627094606
  4.2320283094492819  9.9798484432735197  9.9798484479439615
  5.6654007428518076  0.0013775020353800  0.0013533353146143
  7.0998862996174967  1.4197002614891943  1.4195726008538634
  5.6818124685785536 -0.0040071572760614  2.8431094284187433
  7.1088086924726035  1.4204354848378953  4.2573456731278005
  5.6846233107633370  0.0002763989655997  5.6834953644611907
  7.1076071282197697  1.4213024614252245  7.1041981536204508
  5.6782462424754794  0.0002066381153709  8.5336326430907405
  7.0996311343718448  1.4194455646115305  9.9587595150660668
  5.6816370175755155  2.8428873547752640 -0.0039226372519694
  7.1087543089667085  4.2573108205625276  1.4204434051233168
  5.6912564318052450  2.8490762744462566  2.8490100934720282
  7.1077779809447907  4.2590223071448401  4.2590142102849127
  5.6854114738953285  2.8422786544335348  5.6836895024410747
  7.1051435495639685  4.2600647515686010  7.1066384588999529
  5.6843719373011794  2.8445930837697198  8.5274646676204977
  7.1089681007450860  4.2621528578952708  9.9510036063194622
  5.6847362136816635  5.6834795908570790  0.0002077947391545
  7.1076786424569418  7.1042696548056163  1.4213023920385075
  5.6854611971882605  5.6837609003384557  2.8422954622802750
  7.1052382340974409  7.1067332888046666  4.2600647823369862
  5.6752619923987666  5.6774935010328536  5.6774316976557717
  7.1057448283308480  7.1061319769659663  7.1061319287950289
  5.6780038293322859  5.6790127889802706  8.5339029012880800
  7.1079101133116938  7.1039466570301064  9.9514254690874200
  5.6782441629000102  8.5336305376437878  0.0002065592495799
  7.0996463404677375  9.9588654740091478  1.4196031364527799
  5.6844120663852928  8.5275048258136348  2.8445931214570392
  7.1089449910957283  9.9508733507584815  4.2622635437706951
  5.6779738966004851  8.5338729398295872  5.6790126686374744
  7.1079302161086737  9.9514254640378876  7.1039666411911826
  5.6786798638774378  8.5331969219523334  8.5331969609109120
  7.0977331167880804  9.9555998322180024  9.9557363064793041
  8.5286269013437810 -0.0006582644798450 -0.0007910667902376
  9.9107999181677258  1.4175487730183685  1.4177093575796893
  8.5292190663016640 -0.0014498956981649  2.8427786559562844
  9.9604496352706704  1.4214424345510619  4.2514647607634819
  8.5285517332587641  0.0008935954303433  5.6832504018844539
  9.9545659339915460  1.4204433816619635  7.1031224552254599
  8.5283971424630582  0.0002078037854969  8.5271406261204135
  9.9608291600395482  1.4195618860271784  9.9573720080058763
  8.5292360650668542  2.8428722370228372 -0.0014358769967808
  9.9604121165445836  4.2514271811197828  1.4214426344179818
  8.5268830927503796  2.8422043731235362  2.8423084348841319
  9.9700828556773988  4.2417940539247381  4.2417939907470856
  8.5282617329192973  2.8383115009166886  5.6836691244195050
  9.9528544666447427  4.2590140984748954  7.1040988314108668
  8.5281159406054989  2.8422954843396853  8.5264155482554749
  9.9647156779148123  4.2471813277687609  9.9658438747377946
  8.5286263469846304  5.6833251637844056  0.0008936506423382
  9.9545311415701594  7.1030680045532337  1.4204354803167638
  8.5282077650249271  5.6836150475513474  2.8383115109301396
  9.9528627013788338  7.1040987850883539  4.2590223063528398
  8.5351767527976605  5.6767000322410492  5.6767000418360682
  9.9518119545762964  7.1066385327953920  7.1067332877144818
  8.5343832606933727  5.6774317236672127  8.5366148122688958
  9.9496132369686663  7.1029317674745993  9.9508734238743966
  8.5283814354429257  8.5272534588767694  0.0002764233562121
  9.9610515413776710  9.9574376754926135  1.4194406076053510
  8.5281872565378922  8.5264654238914996  2.8422786103885942
  9.9646955799319539  9.9658439261517024  4.2471611599251178
  8.5344450599608148  8.5366148928421648  5.6774935584201582
  9.9497238597814235  9.9510035589124790  7.1029086453933630
  8.5328640161747096  8.5339028354705615  8.5338729095164148
  9.9639367353465111  9.9634348558681491  9.9633279013730753
  2.7493124190554590  0.0930628862597118  0.0930628648846953
