Fe Nb
 1.0000000000000000
    11.3787711100532238    0.0000000000000000    0.0000000000000000
     0.0000000000000000   11.3838601226813925    0.0000000000000000
     0.0000000000000000    0.0000000000000000   11.3787890316080986
 Fe  Nb 
 126   1
Cartesian
 -0.0075507720683777  0.0001574602818257 -0.0027547251735934
  1.3596713323659169  1.4622925415606691  1.4849870556616751
  0.0124133433396865 -0.0062246991505321  2.8324156898186610
  1.4218598345412052  1.4354098543080658  4.2513616847164748
  0.0000056690070357  0.0028886282726427  5.6889764208974221
  1.4252573494882390  1.4288049616472529  7.1217606892486689
  0.0155237895866427  0.0018092575754764  8.5524445802187632
  1.3675919665142033  1.4984028894711454  9.9119957678955313
  0.0722118926684126  2.8799918833924534  0.0569294683201398
  0.0363632390917586  2.9154757547115659  2.8084853176070079
  1.4240278608820305  4.2698592966627178  4.3042582674577954
 -0.0057516517373013  2.8494094355823152  5.6899768516305791
  1.4243069126606813  4.2683661539606437  7.1142532176791251
 -0.0186769094710673  2.8589618372855692  8.5156136879915891
  1.4245232863375630  4.2636492452683772  9.9118369980171774
  0.0550484442485338  5.6392970432444862  0.0508342411286228
  1.4194888817563838  7.1633815550544808  1.4254543444579801
  0.0416601101666076  5.6459688370758645  2.8031083534081334
  1.4232202383586843  7.1052534391604061  4.2551043841753380
  0.0001524848874421  5.6926137143135378  5.6911726784281287
  1.4239257612367451  7.1081544934295211  7.1123887138926847
 -0.0086036528858379  5.6961744095435929  8.5269611279157989
  1.4216087745614951  7.1121435349899516  9.9664400119183458
  0.0124644500940611  8.5567385694086777 -0.0016387531382595
  1.3564670035267137  9.9017050983947801  1.4879661560780257
 -0.0231182315983160  8.5228673431193194  2.8677109969041665
  1.4220431609011990  9.9607934316101083  4.2517099995259606
 -0.0049823794693631  8.5324476160500371  5.6895120815893874
  1.4214600265143422  9.9625550840634229  7.1185992483833633
 -0.0184900425158737  8.5197024014766569  8.5155163972142756
  1.3504506626683317  9.8956591205869202  9.8932363393676557
  4.3115048666639035  1.4982422000473172  1.4770238619690046
  2.8473065291599324  0.0001130763230904  2.8519798306970703
  4.2463309058777456  1.4434921899322184  4.2414643614300971
  2.8441334434558998  0.0002244795485328  5.6846950508793928
  4.2601204851579384  1.4267611420456874  7.1195411826386605
  2.8445320421043099 -0.0032883910260942  8.5244899356383996
  4.3035973642529903  1.5006335929393810  9.9198144858623660
  2.7812160182594932  2.8980913511984783  0.0633626112087647
  4.3116699152598752  4.2638180583255894  1.4205409379175313
  2.7875646190889558  2.8801938851792466  2.7722917512230461
  4.2499983272414825  4.2665199753442806  4.2494306965402036
  2.8450549221223689  2.8469577309208081  5.6872666179442106
  4.2557182454157809  4.2662670588474665  7.1143396855542109
  2.8487801612525057  2.8271574536160298  8.5491794050601886
  4.2526787225378131  4.2648089430356890  9.9709630899266006
  2.7943212191079123  5.6458679714026569  0.0504500989610226
  4.2572099219334376  7.1121217053030596  1.4228787393591518
  2.7938494208913776  5.6394536998463156  2.7898696387911843
  4.2485412957733022  7.1005782105984983  4.2478526080160348
  2.8475995967491361  5.6940960308184811  5.6896992545226315
  4.2619489898073066  7.1122946745073543  7.1147818358084445
  2.8476377975786407  5.6974760465344056  8.5317409475411381
  4.2519042665250684  7.1083844364636555  9.9715038977724291
  2.8467788283149029  8.5258337492445406 -0.0019688465743305
  4.3303762771028671  9.8956736911097245  1.4943966767297985
  2.8464849819836999  8.5567405668234677  2.8321943253288699
  4.2643640249600949  9.9604817649981570  4.2542278260615172
  2.8442936144487780  8.5369589226417997  5.6896491127749744
  4.2660050264207952  9.9617413832753083  7.1190810403897045
  2.8432491982246373  8.5522545400449239  8.5484860087928354
  4.3423541174222446  9.8872481353669937  9.8810292985776655
  5.6990966058770347 -0.0033680752200918 -0.0000477899171443
  7.1017742737448293  1.4289512256920192  1.4192236617950793
  5.6711854465674190  0.0019189418040653  2.8291441247901554
  7.1087981170878978  1.4276420904113074  4.2599554684088448
  5.6807593980124009  0.0108380345443960  5.6799518369073905
  7.1095170852892515  1.4262960313653725  7.1139095261976610
  5.6684408239462076  0.0104869674285143  8.5549832775817407
  7.1038532858287802  1.4266956784122506  9.9631288042445441
  5.6740606990100204  2.8270160731099123 -0.0038066812029194
  7.1092131952979969  4.2683068937256383  1.4203690350738023
  5.7078545643612122  2.8589011151415868  2.8634723696419533
  7.1156521662411940  4.2730296155804153  4.2641529329243406
  5.6914256163226602  2.8514648148378776  5.6893213897643458
  7.1163625697868129  4.2730373096919214  7.1070810691584834
  5.7032053799770388  2.8609342811580225  8.5202368882562727
  7.1090936270920215  4.2662139252957507  9.9677802045833506
  5.6918414000697961  5.6973297609311206 -0.0030020707973987
  7.1110355255598110  7.1081244773257977  1.4207853585208232
  5.6965655405707567  5.6963278751015203  2.8533522731719030
  7.1181834026675723  7.1025379849327566  4.2709561333427732
  5.6832285916479028  5.6890460365614066  5.6879962253619940
  7.1198398201009336  7.1026473013368898  7.1036331854993557
  5.6947714902993178  5.6909378232410743  8.5287420135073759
  7.1087496421791556  7.1123437890641092  9.9615824702722708
  5.6750078292151525  8.5522331093759210  0.0015144355725164
  7.1049021119804978  9.9627268826764066  1.4233792327580042
  5.7079928114198273  8.5197185730558846  2.8632187771561783
  7.1098782027660743  9.9643111019534931  4.2631983419328172
  5.6872612229951640  8.5253504926894266  5.6821712075554114
  7.1095070148916060  9.9650462595285791  7.1139016288282528
  5.7038708884996669  8.5101179502918285  8.5196264190202751
  7.1043665234193396  9.9615976502763903  9.9576035785073618
  8.5387350554245156  0.0003235870242783  0.0005881206630515
  9.9722690861762828  1.4353500235604262  1.4228788536807948
  8.5345748814984201  0.0029165743650441  2.8447405872709046
  9.9756970523739295  1.4436846749920584  4.2477871712695752
  8.5412456942520816  0.0106492657351911  5.6822275785828209
  9.9635357758044858  1.4276076092253700  7.1147066172422466
  8.5434895378077087  0.0107850208426853  8.5426942806423138
  9.9818484673870262  1.4436404072871538  9.9770972501358361
  8.5362320313168940  2.8469406772743819 -0.0005703352959062
  9.9192548460975019  4.2698502250199715  1.4206448464607428
  8.5335074460970191  2.8492927007220530  2.8502275018430945
  9.9613903307024234  4.2748365908092048  4.2619844005218424
  8.5349057738333389  2.8450148918366622  5.6884913257484140
  9.9593375787597438  4.2730836930369041  7.1077934783600556
  8.5341141553910695  2.8515156810460023  8.5318675517279061
  9.9740354990601165  4.2665055093227151  9.9733692268136878
  8.5338207003453430  5.6940906193001304 -0.0028027513556009
  9.9683964199047885  7.1051518324967615  1.4214404394286635
  8.5322715140149992  5.6925348149551542  2.8446095880243911
  9.9647165677805596  7.0921021457924720  4.2587378729148524
  8.5350500204887609  5.6863431762834482  5.6884668493367316
  9.9525724117080312  7.1024733865827265  7.1053540140017528
  8.5354185295875951  5.6890018303133569  8.5403117052276247
  9.9757366121642796  7.1005026474234070  9.9749808640838680
  8.5338271151829161  8.5370044068406870  0.0003881105723167
  9.9717638282741721  9.9607240304194544  1.4224988374736209
  8.5339573589484647  8.5324003969804139  2.8496473135358813
  9.9603175378630251  9.9632390004707201  4.2631668349671106
  8.5402769894804376  8.5348367126476923  5.6832571223230941
  9.9602462778730398  9.9642931570747031  7.1136758164773424
  8.5412752646045664  8.5253194413684490  8.5362358960387592
  9.9692278612693954  9.9605327978353628  9.9589855202723605
  2.8567944276671158 -0.0460001893432424 -0.0120341644620125
