Fe Ta
 1.0000000000000000
    11.4031158149435150    0.0000000000000000    0.0000000000000000
     0.0000000000000000   11.4031158165939974    0.0000000000000000
     0.0000000000000000    0.0000000000000000   11.4031158171437816
 Fe  Ta 
 126   2
Cartesian
 -0.0008228962762569  0.0143997883740929  0.0140300889682383
  1.4253894849584969  1.4253895244713928  1.4253896246139028
  0.0143997435780543 -0.0008227177256028  2.8367488587410787
  1.4851299084608069  1.3659641311565691  4.3129457328323779
  0.0025328884728415  0.0216518133189088  5.6815696308495891
  1.4253211686690828  1.4253212119812002  7.1269473876616409
  0.0216517835242514  0.0025331558792268  8.5723252173321249
  1.3659640652119363  1.4851298784618376  9.9409489402327811
  0.0140300286844936  2.8363791570346115 -0.0008229153066685
  1.4848149892172338  4.3129458617286929  1.3656489181692384
  1.4955929477174124  4.3460602583674905  4.3459278904243259
 -0.0058075382781760  2.8564889061881527  5.7171635114062678
  1.4282580461385044  4.2749529332460057  7.1238253427181135
 -0.0175560104125272  2.8682482585236158  8.5305352266274834
  1.4253894606672988  4.2728412406403056  9.9810534583645616
  0.0024821136632438  5.6818610476717870  0.0215265445297167
  1.4254577516822198  7.1269474589285613  1.4254577725132580
 -0.0057101518335970  5.7171635758039683  2.8565864271846615
  1.4281533125314818  7.1237449534242474  4.2750689155488022
  0.0037948519484521  5.6876681739817307  5.6877533255411086
  1.4253895386012325  7.1269762670787697  7.1269185086203803
 -0.0038555134532221  5.7003042010341156  8.5454276052226081
  1.4225207241166231  7.1300696370337073  9.9789420141712881
  0.0215265555952321  8.5720335707047752  0.0024820152246089
  1.3656490735486047  9.9409489113887375  1.4848149920912306
 -0.0174692542142150  8.5305351224960226  2.8683348644573474
  1.4253895395082312  9.9808689001943254  4.2730260339215240
 -0.0038929808904767  8.5453400388714957  5.7004552136421616
  1.4226257187197082  9.9788259321204862  7.1301496647698599
 -0.0171708297328309  8.5323029997095254  8.5323726375135767
  1.3551862770218066  9.9079668706450033  9.9078346010129490
  4.3129458888089527  1.4848149791793057  1.4851299740245953
  2.8363792608907699  0.0140300645142932  2.8516019518916935
  4.2728412877804578  1.4253893778176523  4.2728413403679699
  2.8682482145287103 -0.0175561161227643  5.7233595325134159
  4.2749527685567372  1.4282582553243319  7.1300695958182851
  2.8564889614691267 -0.0058074758965877  8.5367314760754489
  4.3460602572372204  1.4955929329886808  9.9079668564849381
  2.8367488342218654  2.8516018959625846  0.0143996188676162
  4.2730259301399851  4.2730258173994748  1.4253894618983769
  2.8516018578034057  2.8367487877245128  2.8363794203353163
  4.2656974459358254  4.2745160800353847  4.2743217358147705
  2.8292524442362552  2.8482969863636818  5.6818610266868568
  4.2708284496241644  4.2708285697550989  7.1269474340451096
  2.8482969796150828  2.8292523933483720  8.5720338245094538
  4.2745163189383657  4.2656973129723603  9.9795730592257854
  2.8683350037938977  5.7233594785158450 -0.0174691883205378
  4.2750690089758603  7.1301497623665346  1.4281532237664809
  2.8291272664187268  5.6815696649945346  2.8482460468482929
  4.2706899073915663  7.1269472876162165  4.2706899418664053
  2.8679497707141648  5.7215221880699634  5.7215917805523890
  4.2814950484261693  7.1353162784508148  7.1354700328532079
  2.8546344254265872  5.7084671536905143  8.5535906755518578
  4.2828118667708175  7.1421276809426484  9.9709746397713737
  2.8565863924150454  8.5367314253068880 -0.0057101183594311
  4.3459278719459418  9.9078345543331050  1.4955927744556952
  2.8482458731070186  8.5723250553315946  2.8291271109940994
  4.2743215630103339  9.9793784428026164  4.2656974827923220
  2.8546719785007229  8.5534396690931622  5.7085547160835493
  4.2829200606649875  9.9710829460161712  7.1421276728974377
  2.8469841927571213  8.5661413864976641  8.5662268353276705
  4.3698830670240350  9.8840117246991319  9.8840115936294577
  5.7171633310056311 -0.0057099710831230 -0.0058074255468327
  7.1269473967181964  1.4254577290977408  1.4253212150621861
  5.6818610590743459  0.0024819608626202  2.8292524367031375
  7.1300694957548192  1.4225208948598895  4.2749526281944847
  5.7003041538867540 -0.0038555003757375  5.7084671336172148
  7.1269761936027312  1.4253894775708382  7.1269762864654806
  5.6876680487819442  0.0037948102609301  8.5661414430173810
  7.1237449698642745  1.4281533184632209  9.9788258134689602
  5.6815695653471421  2.8291273869103053  0.0025330309633100
  7.1301496211219577  4.2750689186311526  1.4226257643679647
  5.7233595092880849  2.8683350578388689  2.8682482590711817
  7.1421275508776292  4.2828118084760991  4.2829200293991452
  5.7084670436425222  2.8546343603501767  5.7003041146877544
  7.1353163348900503  4.2814950795634754  7.1184247696341414
  5.7215221575022612  2.8679497863999752  8.5323030688191288
  7.1269473697570529  4.2706900903154379  9.9832047955853724
  5.7004551617115933  5.7085548105383497 -0.0038929895390314
  7.1269185525063614  7.1269185170792362  1.4253895595982642
  5.7085548574894522  5.7004552903617869  2.8546719565135641
  7.1354700927469423  7.1185784279170505  4.2814950703274830
  5.6964645634800979  5.7037460517759122  5.7036434500533213
  7.1269472186212406  7.1269473705957935  7.1269473636000722
  5.7037461794046491  5.6964645366100974  8.5502514755958643
  7.1185782159633959  7.1354699836713698  9.9723997473367518
  5.6877533617848535  8.5662266083774785  0.0037947807470472
  7.1238252339425037  9.9789420385386247  1.4282581745039156
  5.7215917639538327  8.5323725732336033  2.8679496859073494
  7.1269474084729012  9.9830663570626417  4.2708284012241391
  5.7036433940662290  8.5501489300278788  5.6964645348051075
  7.1184247124718576  9.9723995928738347  7.1353163052125561
  5.7227287546967638  8.5311660562170601  8.5311661598304163
  7.1117670500810890  9.9709746430313047  9.9710828726959981
  8.5305353369369268 -0.0174693485533250 -0.0175561433688188
  9.9409488978450398  1.3656490054743768  1.3659639934522614
  8.5720337631614196  0.0215265967111593  2.8482969699514888
  9.9079669380835771  1.3551863018005117  4.3460600304146570
  8.5323030255918368 -0.0171708894065512  5.7215222172421152
  9.9788256607931327  1.4226258083424659  7.1237449985373651
  8.5453400568439370 -0.0038930552609741  8.5534395513086441
  9.9808687890047718  1.4253894915457734  9.9808689302036253
  8.5723251779743155  2.8482457487147315  0.0216517743967898
  9.9078345468301201  4.3459278579900316  1.3551862748909627
  8.5367313381873657  2.8565862483896280  2.8564890380479047
  9.8840116775540707  4.3698830248941158  4.3698830979692307
  8.5661415671171941  2.8469840577786356  5.6876681164245317
  9.9710830308517533  4.2829201857640156  7.1117670010256191
  8.5534394419327739  2.8546719326057453  8.5453400218755675
  9.9793786752413975  4.2743216287074670  9.9881972656749820
  8.5323725624358140  5.7215918306017644 -0.0171708459189989
  9.9789420245069707  7.1238253155149547  1.4225207984817239
  8.5662266355344610  5.6877532337408461  2.8469840239047768
  9.9709746861428350  7.1117671924687764  4.2828119385234054
  8.5311661222694735  5.7227287232223070  5.7227286709378458
  9.9723997747100572  7.1184246557502604  7.1185782940843554
  8.5501486963011573  5.7036432986548142  8.5574301232636287
  9.9830664292540003  7.1269474322921011  9.9830663731400993
  8.5454275491355691  8.5535906631223106 -0.0038554823271294
  9.9810533912003638  9.9810533125180214  1.4253894356147165
  8.5535906497798937  8.5454275728169247  2.8546344785250213
  9.9795730857608174  9.9881972565217740  4.2745162346835208
  8.5502514079555461  8.5574303255731721  5.7037461695195040
  9.9832048017752477  9.9832046882459373  7.1269473919508961
  8.5574300164337327  8.5502515178447993  8.5501487261179925
  9.9881972977880800  9.9795731572837276  9.9793785913103328
  2.9092856170598540 -0.0585067233256564 -0.0585066823962731
 -0.0585066293327751  2.9092856060944854  2.9092854154570316
