Fe W 
 1.0000000000000000
    11.3961196512326524    0.0000000000000000    0.0000000000000000
     0.0000000000000000   11.3961196332852328    0.0000000000000000
     0.0000000000000000    0.0000000000000000   11.3961196472172368
 Fe  W  
 127   1
Cartesian
 -0.0083493064951246  0.0000000421700842 -0.0000000209653553
  1.3927753744011357  1.4562545230604558  1.4562547474277956
 -0.0043400657977402  0.0000000043135867  2.8533700976258958
  1.4187911621223486  1.4304155786964026  4.2719224496360217
  0.0047045237212850  0.0000001877577001  5.6980598149885733
  1.4186144089198354  1.4302386182946065  7.1241970350852517
 -0.0043402850448681 -0.0000001137646968  8.5427495870776831
  1.3927752731768794  1.4562545519909462  9.9398651691321227
 -0.0043402886928892  2.8533702409435198 -0.0000000177062725
  1.4186144913940830  4.2719223205939247  1.4302384705695113
 -0.0153436029933247  2.8643732002025195  2.8643732825516843
  1.4246504484306770  4.2728766535024603  4.2728612903653014
 -0.0053150026180924  2.8543448180336695  5.6980599331570092
  1.4246504192852327  4.2728613865994518  7.1232430176116601
 -0.0153436140186159  2.8643733400294771  8.5317463772619266
  1.4187912568577092  4.2719224480676710  9.9657040525753775
  0.0047043426589562  5.6980596700959527  0.0000001251554864
  1.4187910464708837  7.1241974096284482  1.4304155638496121
 -0.0053149534387260  5.6980599346340126  2.8543448924516999
  1.4246503237776855  7.1232583930669673  4.2728764126401906
  0.0027955469291266  5.6980597013307417  5.6980597389105530
  1.4246503930098018  7.1232430870154388  7.1232584497812246
 -0.0053148551495191  5.6980597387328649  8.5417747462804492
  1.4186144210507423  7.1241973484379679  9.9658808486603601
 -0.0043401073479407  8.5427496122415860  0.0000002918875553
  1.3927751729667763  9.9398650836158513  1.4562545872662387
 -0.0153433924036473  8.5317461703518642  2.8643733312918691
  1.4186143933258919  9.9658808723504002  4.2719224339396389
 -0.0053149082930037  8.5417747428108974  5.6980598724910330
  1.4187911961240796  9.9657039886022485  7.1241972695024227
 -0.0153432651439900  8.5317462198328773  8.5317462374004656
  1.3927752507962516  9.9398650312179981  9.9398651413192578
  4.3052844208172072  1.4562545660000097  1.4562544699398183
  2.8490298226462611  0.0000000801441893  2.8573792033192777
  4.2794454861811531  1.4302386067577375  4.2719224988348889
  2.8490299044206706 -0.0000000608719286  5.6980597348997808
  4.2792687043369906  1.4304158291941760  7.1241971804688600
  2.8490299989393382  0.0000000067787321  8.5387404779641738
  4.3052845614878956  1.4562545500234920  9.9398650215337589
  2.8490300206804604  2.8573792818907289  0.0000001470834762
  4.2792685936138595  4.2719222980771780  1.4304155523399833
  2.8490298289886540  2.8533701186423217  2.8533700962297619
  4.2734093665340103  4.2728613372183517  4.2728765868737666
  2.8490299398173606  2.8443253183792736  5.6980598663679913
  4.2734094445952113  4.2728764438605342  7.1232586070770765
  2.8490300640378692  2.8533701563535612  8.5427493677350661
  4.2794455689014956  4.2719224094131834  9.9658809514668558
  2.8490298782679870  5.6980597210938591 -0.0000000042476579
  4.2794454676029572  7.1241973534800440  1.4302385967050883
  2.8490299715991014  5.6980597974189093  2.8443256987641674
  4.2734094173037445  7.1232429990445469  4.2728613492114027
  2.8490299672527146  5.6980597795645815  5.6980597663855646
  4.2734093941413391  7.1232583256786377  7.1232430863253642
  2.8490299845977627  5.6980599402254786  8.5517941883305131
  4.2792683881232136  7.1241974360066314  9.9657039755422261
  2.8490300202976235  8.5387403460025517 -0.0000001156328594
  4.3052844597640290  9.9398650391482750  1.4562545004852123
  2.8490299094773182  8.5427495143942203  2.8533700859860645
  4.2792686976284244  9.9657041498448606  4.2719224924359001
  2.8490298631754460  8.5517943065665136  5.6980598794534005
  4.2794454560677986  9.9658810290140245  7.1241971057762248
  2.8490300082054025  8.5427494490066263  8.5427496097020157
  4.3052844949639333  9.9398650719754418  9.9398651796340829
  5.7064090950664825 -0.0000000586547516 -0.0000000706088825
  7.1209522400595047  1.4304154955184996  1.4302387064883120
  5.7024000769188374  0.0000000094975684  2.8533701107134628
  7.1219064289597798  1.4243795361211955  4.2728612419335956
  5.6933551435128456  0.0000000532628148  5.6980597377806621
  7.1218914006713794  1.4243794151018643  7.1232431396054663
  5.7024000889408146  0.0000000893733343  8.5427495606130766
  7.1209523405462853  1.4302386971372087  9.9657040779875441
  5.7024000868657838  2.8533701065786534  0.0000001328284631
  7.1218912583060314  4.2728764523489611  1.4243794997914654
  5.7134033348918223  2.8643733787815835  2.8643733702317205
  7.1275662001015769  4.2785361568533427  4.2785363972768504
  5.7033746501232079  2.8543447867915845  5.6980598432061109
  7.1275663759521857  4.2785363683693136  7.1175834077896889
  5.7134030127770643  2.8643733849563771  8.5317464823706359
  7.1219064900696853  4.2728613093034111  9.9717401074665890
  5.6933554096170083  5.6980597963252144 -0.0000000011331439
  7.1219064767738365  7.1232584304328572  1.4243795697652522
  5.7033747358419751  5.6980598945394894  2.8543448129460303
  7.1275661081922523  7.1175834830381914  4.2785364053916162
  5.6952641987045265  5.6980597928766876  5.6980597901733265
  7.1275661633220135  7.1175831734736716  7.1175835498570725
  5.7033749016358382  5.6980597970560591  8.5417748033351053
  7.1218911217143415  7.1232430761472303  9.9717400518920467
  5.7024000554719096  8.5427495642094176  0.0000000394597844
  7.1209524784237175  9.9658811204107280  1.4304156141717770
  5.7134033462403258  8.5317462212151298  2.8643732930254755
  7.1218912563705512  9.9717400323613372  4.2728764470968024
  5.7033748402167381  8.5417747648439946  5.6980597052461031
  7.1219065415108016  9.9717400884735010  7.1232583595825876
  5.7134032671056847  8.5317461771893033  8.5317464265938501
  7.1209523584483989  9.9657040546225186  9.9658811653269535
  8.5470896187035574 -0.0000000647449462 -0.0000000204139691
  9.9732273020134397  1.4302386833476259  1.4304155542020152
  8.5470896332885946 -0.0000001736227612  2.8443253692902193
  9.9722883126595594  1.4243795881990113  4.2728765002691969
  8.5470896879759977  0.0000001017867383  5.6980599377670895
  9.9722729754059323  1.4243794037313746  7.1232582755613727
  8.5470897428379100 -0.0000000399367855  8.5517942311598389
  9.9732271356263578  1.4304155478746869  9.9658809784619766
  8.5470896942503902  2.8443254640574316 -0.0000000230341494
  9.9722731979708925  4.2728612113691682  1.4243794120233819
  8.5470897122674128  2.8543449447692537  2.8543447794953680
  9.9666133996016271  4.2785363545551531  4.2785363032678170
  8.5470895614856630  2.8462340636309480  5.6980599039309219
  9.9666134166608487  4.2785363191818799  7.1175833879010231
  8.5470896588882468  2.8543448546766585  8.5417749265691523
  9.9722883678920144  4.2728764844776306  9.9717402167187110
  8.5470897920482169  5.6980598188936407 -0.0000001572029592
  9.9722884056796257  7.1232431051281626  1.4243796564133284
  8.5470897014651470  5.6980598166931538  2.8462341484962930
  9.9666132902237656  7.1175834212203233  4.2785363768142197
  8.5470897472635396  5.6980598566586895  5.6980598076634736
  9.9666133290646997  7.1175835005581130  7.1175833877418233
  8.5470896136953503  5.6980597305522496  8.5498855273083283
  9.9722730721422597  7.1232582116121428  9.9717400572042241
  8.5470896089789488  8.5517943568447699  0.0000001843440240
  9.9732271734061335  9.9657040471372103  1.4302386226928008
  8.5470897243548176  8.5417748902307959  2.8543447925091443
  9.9722728339043378  9.9717399831928439  4.2728612117556297
  8.5470896072265123  8.5498855782428276  5.6980598178363602
  9.9722883004314600  9.9717400590204441  7.1232431501163509
  8.5470897571419719  8.5417748183375188  8.5417746117561073
  9.9732272205346320  9.9658812076969703  9.9657040022572989
  2.8490299016967939 -0.0000000027973064  0.0000000392181403
