Fe Os
 1.0000000000000000
    11.3857119219384266    0.0000000000000000    0.0000000000000000
     0.0000000000000000   11.4475981127180333    0.0000000000000000
     0.0000000000000000    0.0000000000000000   11.3857119356294962
 Fe  Os 
 126   1
Cartesian
  0.0838772960058315  0.0017722226197307  0.0000795148327624
  1.4794478149157717  1.5039093295901556  1.3673351969172349
  0.0278240350348870  0.0191218756606718  2.8186470251435050
  1.4368009330990028  1.4238941683506023  4.2608425359643070
  0.0069378339468983  0.0053934185347260  5.6929178663149571
  1.4368565143745717  1.4237416961886633  7.1250357108065270
  0.0277808320098755  0.0191219882206659  8.5671078039100017
  1.4790925155204104  1.5039093254664109 10.0187318071833698
 -0.0415147759999081  2.8827830065193738 -0.0002931638091528
  1.4653393281884330  4.2617771250622924  1.3809061547106707
  0.0073059144890053  2.8708820588012363  2.8390797383773645
  1.4106479613275280  4.3004889254620604  4.2740970619192051
  0.0085974793713138  2.8582199239291999  5.6929185037286372
  1.4107061639176746  4.3004630339324272  7.1116055213911036
  0.0073480982189264  2.8708821192314220  8.5465899163091539
  1.4655218909474692  4.2617768774712319 10.0046234267946925
  0.0002127439638495  5.7207965660577429 -0.0000784170261984
  1.4175184101491478  7.1569510591007228  1.4290767480375948
  0.0044432385317575  5.7132971138385038  2.8419607055811102
  1.4100326784423327  7.1500667921760490  4.2807246881827092
 -0.0043167785060825  5.7166862199142443  5.6928563816852389
  1.4099891818454235  7.1500487968694690  7.1048537910973106
  0.0044672613643344  5.7132972925612560  8.5437273074428042
  1.4173509833803120  7.1569513257839699  9.9568023440077624
 -0.0039939851304788  8.5744631584003290 -0.0000013200254639
  1.4023697863644302  9.9559675704930211  1.4440657332601183
 -0.0144033532443344  8.5737021897785954  2.8607928279702652
  1.4311764178367821 10.0207318341392391  4.2613373397398639
 -0.0034892292277351  8.5902270676300354  5.6927792582069223
  1.4312736403184667 10.0204955830168476  7.1243268309871537
 -0.0143648764627312  8.5737020998999398  8.5248807850874133
  1.4023622642100408  9.9559674573360901  9.9416536615664413
  4.2137632715913824  1.5039092245868881  1.3669800974699182
  2.8465077191867048  0.0017718694157641  2.7625505752236275
  4.2559997221003965  1.4237418377888975  4.2606762413648847
  2.8464280104368886  0.0021016493926564  5.6928558062689341
  4.2560548474418454  1.4238941222173109  7.1248694049434906
  2.8463484346103334  0.0017717481840056  8.6231615508072448
  4.2134081532588237  1.5039095062664305 10.0183765799384954
  4.2273341132698308  4.2617768164897676  1.3810883176334263
  2.8461346529091953  2.8827828444800296  2.8879426354546713
  4.2821498260321764  4.3004628385180137  4.2741065525831861
  2.8464278545974939  2.8704642340958886  5.6928562098233648
  4.2822080217397307  4.3004892189908137  7.1116147272961285
  2.8467209679652727  2.8827829142865085  8.4977693683848834
  4.2275166691858352  4.2617770161852606 10.0048056571019917
  2.8464279254891016  5.7769159216518329 -0.0000000621336681
  4.2755047460488873  7.1569511335388967  1.4289094507156186
  2.8463491481037964  5.7207966386881886  2.8462152981021656
  4.2828668085953145  7.1500489180101532  4.2808580830669429
  2.8464280610423085  5.7162623793073513  5.6928558501712345
  4.2828230531958029  7.1500665934769110  7.1049869213913412
  2.8465066737498033  5.7207968720385081  8.5394965747997240
  4.2753375248550372  7.1569513109806957  9.9566348849324378
  2.8464278255861530  8.6439473031384235  0.0000000511081500
  4.2904936814770132  9.9559674273690337  1.4440582526629198
  2.8464265895107159  8.5744632386187227  2.8504220700381513
  4.2615825355269656 10.0204952989492249  4.2613851212586376
  2.8464280990954567  8.5837141131518546  5.6928556650952196
  4.2616793953782413 10.0207317865281347  7.1243746633671599
  2.8464293817299757  8.5744632399725269  8.5352898191402762
  4.2904859605418899  9.9559676271675688  9.9416463994067215
  5.6089784885052749  0.0017719603942239 -0.0000794897953119
  7.1072703838339351  1.4238942156256351  1.4096269478616090
  5.6650749824214452  0.0191216295080225  2.8186041421390207
  7.1155160590536033  1.4378504916638595  4.2691785782779430
  5.6859183083377776  0.0053934308848059  5.6927941429287952
  7.1156064448745253  1.4378504342026799  7.1166236787761665
  5.6650321911647064  0.0191220691924899  8.5670649450147742
  7.1071044838594446  1.4237414454925252  9.9761404420812010
  5.7343705745322682  2.8827829510921976  0.0002932213274082
  7.1205250679378027  4.3004892300921185  1.4357800514915500
  5.6855076880958153  2.8708822960365254  2.8391221490168230
  7.1161635047098546  4.2836800910090425  4.2697352849413086
  5.6842583613298263  2.8582198904971747  5.6927936352593882
  7.1161630886704517  4.2836801397546163  7.1159760752930747
  5.6855500825165528  2.8708824409689839  8.5466320118482031
  7.1205345630232024  4.3004628372141873  9.9499898915733542
  5.6926433382010382  5.7207968623676484  0.0000787540813894
  7.1271528015280614  7.1500665918083346  1.4363949587829445
  5.6883885758367931  5.7132971477816632  2.8419847994464402
  7.1205313764944469  7.1470602571199793  4.2741168542308383
  5.6971728142817044  5.7166864237094206  5.6928552671235000
  7.1205450819605502  7.1470602240836199  7.1116083547372817
  5.6884126041339256  5.7132975844258969  8.5437511667060591
  7.1272862861858863  7.1500489492079735  9.9492731042903628
  5.6968497397190427  8.5744631003334675  0.0000013548547393
  7.1077652036984071 10.0207321010203252  1.4152514559909211
  5.7072208575597720  8.5737019068408866  2.8608311709485785
  7.1104979093919640 10.0255006736868815  4.2639903368965841
  5.6963447006410153  8.5902270788085193  5.6929327474548828
  7.1104179786814958 10.0255005347816457  7.1216419324289228
  5.7072590809587700  8.5737021309552315  8.5249191563074653
  7.1078131880900575 10.0204955569574636  9.9705573115740993
  8.5392838254756480  0.0021015049001125 -0.0000001365425082
  9.9714637961819399  1.4237415887230165  1.4095713612729985
  8.5393456506629430  0.0053935074759245  2.8394901361512432
  9.9629613218334789  1.4378506281236709  4.2690881639134624
  8.5392839954586339  0.0061980254816509  5.6928560028895427
  9.9630517109076475  1.4378506872047176  7.1165333747433870
  8.5392220551256965  0.0053932133558362  8.5462217787035861
  9.9712975329871476  1.4238942214131922  9.9760849723067615
  8.5392838653980068  2.8704643346579912  0.0000001328699949
  9.9580335284202040  4.3004630080700368  1.4357221196333283
  8.5393462047886910  2.8582200039095347  2.8378304712030178
  9.9624044548381203  4.2836802840054613  4.2697355632562912
  8.5392839758468355  2.8544563558398712  5.6928560510929644
  9.9624044124888353  4.2836800746705928  7.1159766591664670
  8.5392216937932357  2.8582197543581271  8.5478813373864639
  9.9580427113093783  4.3004891636828457  9.9499320526186708
  8.5392838928408388  5.7162623539551376 -0.0000000407094809
  9.9512815794918605  7.1500489563958407  1.4364385830732196
  8.5392844373745511  5.7166864428539057  2.8507449136070351
  9.9580229584019797  7.1470602192850601  4.2741031748951652
  8.5392840289864331  5.7073195622584221  5.6928559676273620
  9.9580366608500732  7.1470604084435703  7.1115951158140005
  8.5392834373299582  5.7166863739851248  8.5349671447838507
  9.9514147552639489  7.1500665752226134  9.9493165502704137
  8.5392837679386933  8.5837140521600102 -0.0000000659811512
  9.9707548276185332 10.0204955914275544  1.4151546044296017
  8.5392070007636232  8.5902274402314482  2.8499168897593372
  9.9681497073614729 10.0255005683665068  4.2640698099005068
  8.5392838828456057  8.6026394971456277  5.6928558761337706
  9.9680700272470073 10.0255005963704402  7.1217218151052712
  8.5393608324112691  8.5902272636954731  8.5357949377238747
  9.9708026900566491 10.0207316982716073  9.9704605338422443
  2.8464284209488899 -0.0928572531599975 -0.0000000642383006
