Fe Hf
 1.0000000000000000
    11.4483362183491124    0.0000000000000000    0.0000000000000000
     0.0000000000000000   11.1688211698883872    0.0000000000000000
     0.0000000000000000    0.0000000000000000   11.4483361961074070
 Fe  Hf 
 126   1
Cartesian
 -0.0313796130265925  0.0997142781646725  0.0000585518004154
  1.0898131171567353  1.3851100175518212  1.7722688471701173
 -0.0938069618545613 -0.0958090349835725  2.9556075237333403
  1.3550842256372522  1.3850201568177141  4.3061421475184316
 -0.0453502162323112 -0.0619699634166008  5.7242110776138224
  1.3550846760193938  1.3851994374478667  7.1421959335596821
 -0.0935194172087083 -0.0958057955550688  8.4924478044878882
  1.0897997330844271  1.3851102102792323  9.6760573140412038
 -0.0313796106669436  2.6705050779283863 -0.0000581597129715
  1.4774435863906645  3.9838707216833038  1.3848791931602846
 -0.0935229899144369  2.8660282878956309  2.9558915492562070
  1.4547697699587034  4.1634889662164625  4.2922200009066458
 -0.0453501092006164  2.8321898144780628  5.7241230151725704
  1.4545797321046257  4.1634954369674206  7.1561780672394653
 -0.0938035452386288  2.8660250401076373  8.4927317890765650
  1.4772038900946880  3.9838723732728596 10.0636946397511480
  0.0667409242794504  5.5075577325369132  0.0000609872257020
  1.4503538186826408  6.9695203343787648  1.4117301860363829
  0.0392524525048528  5.5375497023964426  2.8231015230961733
  1.4585316707941456  6.9696680170034968  4.2450700925556495
  0.0429392541515128  5.6071540870620149  5.7241620481250468
  1.4585312316123666  6.9693727544045725  7.2032657625559109
  0.0389835133753275  5.5375501170338897  8.6255048646021670
  1.4503539804968544  6.9695198967221099 10.0366057809352096
  0.0667407382983175  8.4314829130179092 -0.0000614487340775
  1.4772050570785473  9.9551698175851744  1.3846407330065962
  0.0389826070397173  8.4014907573267763  2.8228314244952664
  1.4545785625649115  9.7755450856606405  4.2921583993222567
  0.0429389011902302  8.3318864859647608  5.7241742154086106
  1.4547711577207922  9.7755513967979901  7.1561170323241381
  0.0392528714201848  8.4014904492423117  8.6252348055291179
  1.4774433449104012  9.9551680883754514 10.0634557421537245
  4.6343793464103094  1.3851098011529990  1.7722998785774937
  2.8621419071614036  0.0997128983587836  2.8934666021216797
  4.3690840271719331  1.3851992540166125  4.3061393519632807
  2.8620840671958101  0.0331994352062562  5.7241680525649850
  4.3690835208237022  1.3850202124712188  7.1421992224202784
  2.8620253094402615  0.0997105352576421  8.5548652554552707
  4.6343920224659145  1.3851098536937214  9.6760262920060480
  4.2469656699264426  3.9838748401164996  1.3846420954434508
  2.8620248867838205  2.6705067195033916  2.8934664842925484
  4.2695877285898787  4.1634967418912785  4.2921585763891406
  2.8620843364921855  2.7370201433244903  5.7241681261395465
  4.2693955254511069  4.1634895850749221  7.1561169291623443
  2.8621420495395626  2.6705086321474001  8.5548648828020806
  4.2467277148823310  3.9838763144807223 10.0634542335718518
  2.8620850940544278  5.4997443469508775 -0.0000005738157444
  4.2738142808274260  6.9695202245853363  1.4117301077906550
  2.8621457129859036  5.5075575851081116  2.7953429406276382
  4.2656368366350730  6.9693726694084619  4.2450712635340535
  2.8620847290175400  5.5917526100417501  5.7241678009774679
  4.2656372003048864  6.9696682032451696  7.2032651530794771
  2.8620228162790933  5.5075567481612628  8.6529937360800648
  4.2738142765210165  6.9695204305737812 10.0366062912197052
  2.8620848785490600  8.4392960529637175 -0.0000003882951680
  4.2467272279730484  9.9551656378001763  1.3848808483784814
  2.8620228194730939  8.4314830385240409  2.7953427997082283
  4.2693967514986868  9.7755505425182410  4.2922196053316943
  2.8620846299434382  8.3472875804272366  5.7241679276988977
  4.2695871495239892  9.7755443843788274  7.1561785446198822
  2.8621456016303930  8.4314840432015785  8.6529935507031155
  4.2469663879818045  9.9551644435876483 10.0636932500857110
  5.7555579066437490  0.0997091129872383 -0.0000580540640204
  7.1682218308785011  1.3850199283137561  1.5069989559107249
  5.8176841866110607 -0.0958012666467035  2.9558828379840798
  7.1758789330092281  1.3851095032677920  4.3137956290966404
  5.7695192665245782 -0.0619691802560819  5.7241231706555427
  7.1758796855499325  1.3851098026513586  7.1345404655636271
  5.8179646170382471 -0.0957975546596805  8.4927397571562011
  7.1682208881121454  1.3851994679536781  9.9413367873996261
  5.7555577333741494  2.6705100337800132  0.0000584568572753
  7.1543023760257585  4.1634891031312495  1.4073124010007887
  5.8179680752343561  2.8660203618653473  2.9555990938065002
  7.1891494935083067  4.2830462328290944  4.3268969726633966
  5.7695185653965817  2.8321889428596698  5.7242112629095372
  7.1889811616648673  4.2830466133955465  7.1212705265951532
  5.8176809225166908  2.8660169761537584  8.4924562105335166
  7.1542411907096719  4.1634959262369211 10.0408333404894954
  5.6574260363572844  5.5075561343221775 -0.0000618169955629
  7.1071542786254076  6.9696679259354459  1.4035534208873255
  5.6851844527497368  5.5375505735671418  2.8228305998115730
  7.1066507776857053  6.9695203553812792  4.2445677674035691
  5.6812298460488799  5.6071553007891248  5.7241738844379526
  7.1066510985106559  6.9695205443971142  7.2037685782113110
  5.6849145358281898  5.5375511499793673  8.6252365060049225
  7.1071545630639941  6.9693723046722820 10.0447827461911938
  5.6574260293711411  8.4314843531545414  0.0000612079108621
  7.1542411369938641  9.7755450843733396  1.4075036889882111
  5.6849147143795706  8.4014902102161582  2.8231001075996964
  7.1889807719775529  9.6559945180525446  4.3270651461694465
  5.6812297851677132  8.3318858231633204  5.7241616562461370
  7.1891496083732864  9.6559938594001213  7.1214386545144697
  5.6851840000131943  8.4014896706167885  8.6255061424890140
  7.1543025782094434  9.7755508919270149 10.0410243955416529
  8.5862524740078978  0.0331994027239954  0.0000001837896242
 10.0042775248304796  1.3851989947726731  1.5070000758992284
  8.5862981833433434 -0.0619699993745669  2.9074344106571646
  9.9966266418204732  1.3851095937482216  4.3137932595535515
  8.5862520996900518 -0.0562706793187630  5.7241678632849391
  9.9966256382772727  1.3851097404088193  7.1345425509297309
  8.5862105721506303 -0.0619694049410891  8.5409015309239944
 10.0042787885358386  1.3850201873964798  9.9413359306317091
  8.5862523672626807  2.7370199398002821  0.0000000172789308
 10.0182609124329502  4.1634965414437666  1.4075055928741389
  8.5862104075535992  2.8321893240472766  2.9074344630275726
  9.9835247511107568  4.2830451279475277  4.3270635508787318
  8.5862517949260262  2.8264900958152275  5.7241677673072511
  9.9833557172836027  4.2830457947003708  7.1214404503694420
  8.5862983195114158  2.8321888079589499  8.5409016607244563
 10.0181996851759578  4.1634901131556505 10.0410225005612563
  8.5862530462245061  5.5917529461358964 -0.0000005671392086
 10.0653495364867176  6.9693728121301399  1.4035522909140195
  8.5862463237640032  5.6071540264370752  2.8191452980774812
 10.0658536427915468  6.9695201599653158  4.2445664707794304
  8.5862509706519941  5.7042879863334246  5.7241681048687312
 10.0658530715747663  6.9695201899745287  7.2037700312883590
  8.5862589821801301  5.6071548482942903  8.6291908370241082
 10.0653493835848558  6.9696676475569834 10.0447837195094678
  8.5862526237535306  8.3472877686350149 -0.0000002833417688
 10.0181997729556311  9.7755510083958743  1.4073143878200536
  8.5862588030326901  8.3318864318143024  2.8191450797291044
  9.9833563453475271  9.6559953140798438  4.3268950318528239
  8.5862508679079887  8.2347527302710439  5.7241685229414383
  9.9835243107889902  9.6559948645989060  7.1212718856230683
  8.5862460630662039  8.3318859470504876  8.6291904692699646
 10.0182612569279570  9.7755441043162197 10.0408316094972996
  2.8620478695080127  1.3851098514801228  0.0000157454632327
