Fe Au
 1.0000000000000000
    11.4124326606221747    0.0000000000000000    0.0000000000000000
     0.0000000000000000   11.4124326645615373    0.0000000000000000
     0.0000000000000000    0.0000000000000000   11.4124326622628995
 Fe  Au 
 126   1
Cartesian
  0.0303413241287238  0.0270932810810307  0.0273149397936253
  0.0243505268697529  0.0313405052009375  2.8285184129727168
  1.4229796901741549  1.4302166691098386  4.3252088463135676
 -0.0128048464053973 -0.0081258731281556  5.7049160323729895
  1.4141496695932738  1.4388545626075482  7.1167986356449742
 -0.0231637140457575 -0.0039965289185995  8.5391512391216295
  1.3821853314517694  1.4711254124241622  9.8789283605454195
  0.0245898154006205  2.8287576299258368  0.0313405216517035
  1.4228914333252132  4.3252088952332874  1.4301284945086450
  0.0382084567771709  2.8148997640685653  2.8148995831113823
  1.4226260275094382  4.2750350158996886  4.2750549975413605
 -0.0130833053720253  2.8662755406968770  5.7036256760727380
  1.4213197999048663  4.2858727995269312  7.1195063027997119
 -0.0403922466735554  2.8935854678482298  8.5209825400463650
  1.4191970615751441  4.2772844386349593  9.9848961973600012
 -0.0127367517191447  5.7050587073044561 -0.0080774011335378
  1.4142535294112981  7.1167986125635707  1.4389586877129323
 -0.0131674232799923  5.7036258132621871  2.8661914851015484
  1.4213011658049974  7.1193833163357585  4.2856963550565670
  0.0009232617483710  5.7056864181687086  5.7055485676718556
  1.4176485893551827  7.1211562067700722  7.1211114412437100
 -0.0119937579673422  5.7057141032863088  8.5449026165907238
  1.4160958389302243  7.1285255173597291  9.9835478109523983
 -0.0234228778810379  8.5392281191705948 -0.0042087270086122
  1.3819826128522861  9.8789282749513081  1.4709228673103625
 -0.0404771892230996  8.5209824493974171  2.8935004468980314
  1.4191696386961419  9.9851749015449833  4.2770559713530023
 -0.0119206962985027  8.5449181781902226  5.7056782723635857
  1.4162745511028627  9.9833579730787072  7.1284996821019808
 -0.0245235860470889  8.5366403383268548  8.5365529862755789
  1.4138748587209020  9.9726594638553205  9.9728566294487972
  4.3866124319356450  1.4709227694033276  1.4711254315620563
  2.8260149803635741  0.0273150270450942  2.8227667788910478
  4.2806445403561098  1.4339110939841975  4.2772844009805695
  2.8590550918382740 -0.0060607419398315  5.7073989235794755
  4.2819931413540058  1.4370123969387347  7.1285254429389679
  2.8517021069290043  0.0012625353924305  8.5572786627114876
  4.2926841785041567  1.4392333300734639  9.9726595637103426
  2.8257931482808201  2.8227668196592242  0.0270931791000421
  4.2803660318955181  4.2770560356679219  1.4339386888031656
  2.8217677123149558  2.8285184160670531  2.8287576179374878
  4.2766465163933116  4.2821788007603576  4.2820986630045912
  2.8611855872706178  2.8658450100994122  5.7050588597945380
  4.2889079195134832  4.2916440887388365  7.1233909629823762
  2.8573169197499064  2.8765310649411617  8.5392281986889493
  4.2820770398188923  4.2813221122120799  9.9836550779816680
  2.8591689371802191  5.7073989849741134 -0.0059470733675123
  4.2821829336770101  7.1284996857803167  1.4368336229859622
  2.8612340675188088  5.7049160871054152  2.8659129615994945
  4.2889207884866662  7.1234093214773910  4.2916796831093293
  2.8536889648478083  5.7072608977732875  5.7073366243718402
  4.2838353732404943  7.1251483702028633  7.1251479865432659
  2.8535153339932489  5.7073438627710225  8.5489774702168333
  4.2837685100851850  7.1380084428174344  9.9816557297042383
  2.8518455257260782  8.5572786367516080  0.0014060350163228
  4.2928813437046669  9.9728564396117267  1.4392332498042062
  2.8571046429887521  8.5391513200889158  2.8762718865998851
  4.2818857704839131  9.9834638053039857  4.2813219444114452
  2.8534569674698802  8.5488949547230533  5.7072896564997215
  4.2838851790239074  9.9817721977005540  7.1380084659266743
  2.8490553443021414  8.5497196864643357  8.5497678845594258
  4.2647587353843015 10.0007820134684788 10.0007819113589491
  5.7082622639897194  0.0014060826905410  0.0012626215922226
  7.1487422035315840  1.4389587575999820  1.4388546272969562
  5.7263127216309853 -0.0042087080470332  2.8765311588968254
  7.1460344949627324  1.4317884249408255  4.2858728700583004
  5.7165632786164773 -0.0004073557880442  5.7073439267300525
  7.1444292790580404  1.4354598351414232  7.1211562190800546
  5.7157728839788460  0.0040528294943060  8.5497197124886846
  7.1370411729897603  1.4368336136144939  9.9833579047151879
  5.7263896677123309  2.8762718132096183 -0.0039965126481140
  7.1461576406641205  4.2856965010002570  1.4318070547678650
  5.7445582695672730  2.8935005457680480  2.8935855049858774
  7.1485415970372976  4.2937065541871355  4.2937510700998551
  5.7206382219823952  2.8651019163220885  5.7057141405235212
  7.1450674841438326  4.2901705860653578  7.1205000182207616
  5.7289880103480604  2.8776317893488845  8.5366403103466943
  7.1421315010047906  4.2916797257875210  9.9766199678095902
  5.7166459502028868  5.7072895864730926 -0.0003489355445915
  7.1443846124532824  7.1211115544994872  1.4354598071142586
  5.7206226260010933  5.7056780840896160  2.8650287818300799
  7.1450407555312152  7.1204733945267282  4.2901706030579714
  5.7020663326986725  5.7030488030208515  5.7029969577709059
  7.1442673697181185  7.1212735383454202  7.1212735743663593
  5.7125383094426079  5.7067127796993136  8.5529502235539727
  7.1403925383008691  7.1251480324590570  9.9817054436915029
  5.7158212043327552  8.5497678563614077  0.0040528105362480
  7.1370153600658108  9.9835478517904939  1.4370123857259964
  5.7289005729518125  8.5365529308247936  2.8776317125100928
  7.1421497421454161  9.9766327847294551  4.2916441101698624
  5.7125906172540049  8.5530025420020195  5.7067127387358916
  7.1403928969391979  9.9817053794808110  7.1251482821851786
  5.7187985420008642  8.5467423305379882  8.5467423572302188
  7.1275323861216409  9.9816556507294383  9.9817720849277318
  8.5581417965995570 -0.0059470852834795 -0.0060607118847895
  9.9403320797496111  1.4301285074117098  1.4302167346680577
  8.5604820081906841 -0.0080774105848457  2.8658449397800703
  9.9904856706364544  1.4304821566751200  4.2750351290958770
  8.5582042013525577 -0.0005807829837449  5.7072608145273467
  9.9798443236466792  1.4318070153550801  7.1193832645644219
  8.5582512153020716 -0.0003489217008884  8.5488949771642329
  9.9884849286043540  1.4339386294676411  9.9851749710065860
  8.5606247831153173  2.8659130789433687 -0.0081259506660949
  9.9905058579502590  4.2750551220911541  1.4304822133652173
  8.5619151852744970  2.8661915833905294  2.8662755247229739
  9.9971279378272140  4.2684129256346184  4.2684128468930709
  8.5599922175729155  2.8521848593345807  5.7056865679773416
  9.9718342248702463  4.2937510001044226  7.1169992396689841
  8.5598625732137705  2.8650288445841983  8.5449180176245942
  9.9833620149687068  4.2820987214843242  9.9888943960268772
  8.5582799453554479  5.7073365560112652 -0.0005808432709322
  9.9796680047516961  7.1195063790668796  1.4317883819052795
  8.5598543048895124  5.7055485618028037  2.8521849007912277
  9.9717896978029650  7.1169991650788136  4.2937064783403809
  8.5663410864924625  5.6991997713695426  5.6991996942642658
  9.9753701966955841  7.1205000270356571  7.1204734963379908
  8.5624921124089930  5.7029969603014701  8.5634745021287966
  9.9738966590969902  7.1233909524661954  9.9766328220662235
  8.5581969618151827  8.5489775096192915 -0.0004072269606844
  9.9882564289961824  9.9848962408705884  1.4339110671601056
  8.5598267064491846  8.5449026488724034  2.8651019476013788
  9.9834421292926603  9.9888942595567478  4.2821788123327975
  8.5625438140463661  8.5634745626843216  5.7030487434622454
  9.9738611361132570  9.9766201173799764  7.1234093655115629
  8.5588279804814054  8.5529500544069457  8.5530025173555408
  9.9842188830677792  9.9836550482100161  9.9834638345245068
  2.7679350843837884  0.0851731825810437  0.0851731516274673
