Fe Os
 1.0000000000000000
    11.4298001565711047    0.0000000000000000    0.0000000000000000
     0.0000000000000000   11.4298001532445088    0.0000000000000000
     0.0000000000000000    0.0000000000000000   11.4298001592573311
 Fe  Os 
 126   2
Cartesian
  0.0873800009739785  0.0021941006700744  0.0019252619117223
  1.4287251674667003  1.4287250688682533  1.4287249143799332
  0.0021940448365045  0.0873799555424077  2.8555249442827884
  1.4452728788171378  1.4125627393438693  4.2764439694699110
 -0.0007681068115752  0.0004621265177798  5.7163398836704227
  1.4285524423613687  1.4285523352189877  7.1436251378380033
  0.0004622242275838 -0.0007682680191223  8.5709101348773675
  1.4125628270507344  1.4452728302990214 10.0108060911747536
  0.0019251627042104  2.8552559690311718  0.0873799206535834
  1.4448873516985186  4.2764441102583222  1.4121771389272844
  1.4312068109423832  4.3016554530780020  4.3017807302247970
  0.0021209494335763  2.8553019541861406  5.6588955670602763
  1.4152713271618547  4.2806621155278304  7.1384242661634127
 -0.0005052448287362  2.8578738336931941  8.5732056077581511
  1.4287250656453550  4.2763994095272100 10.0108510891190523
 -0.0008216850539324  5.7165170484779120  0.0003406329778025
  1.4288976104045403  7.1436250889588129  1.4288975916096731
  0.0021480044274186  5.6588957451924209  2.8553288700873178
  1.4150193657260368  7.1382389093253709  4.2807967661878381
  0.0011782447503170  5.7137870266035851  5.7138541722785554
  1.4287249772406716  7.1436870428738617  7.1435632613247408
 -0.0022984124935121  5.7153574383880539  8.5717460015040992
  1.4421784581878048  7.1488259575042985 10.0065881016533194
  0.0003406602019170  8.5707333064193030 -0.0008216650772280
  1.4121771888264467 10.0108060342094110  1.4448873032883593
 -0.0004239404845492  8.5732053904584902  2.8579553379269651
  1.4287249353133602 10.0108446833697542  4.2764054365616966
 -0.0023411901176998  8.5716550012619521  5.7154922229709388
  1.4424306247083964 10.0064532228269272  7.1490113907761623
 -0.0039113421279465  8.5688439557569609  8.5688974274245311
  1.4262431895420284  9.9854696865069847  9.9855949406023008
  4.2764441026788740  1.4448873226631478  1.4452726823041913
  2.8552560635890756  0.0019252000315942  2.7700699484754168
  4.2763991594688626  1.4287250060653034  4.2763993469347428
  2.8578742648348983 -0.0005051142036281  5.7140445732694820
  4.2806620967567044  1.4152714222313598  7.1488260520041536
  2.8553020817556645  0.0021211561433627  8.6283545622286546
  4.3016552131717836  1.4312069079093073  9.9854696369036304
  2.8555248428989373  2.7700700178056477  0.0021940508570916
  4.2764053911879731  4.2764054114064329  1.4287250013240567
  2.7700699944843836  2.8555247642293908  2.8552560270665293
  4.2833481831121238  4.2771687814152672  4.2768395547868971
  2.8571092183739699  2.8582718335920974  5.7165167631487721
  4.2936609913168198  4.2936610726822186  7.1436251162296447
  2.8582718062207193  2.8571094996849316  8.5707333435904847
  4.2771687513482624  4.2833482936769487 10.0104105253285738
  2.8579552067635006  5.7140444959825407 -0.0004238690335403
  4.2807968467904649  7.1490112329152993  1.4150192513639996
  2.8569879036598165  5.7163398415207105  2.8582182046431344
  4.2935840459901122  7.1436251828379431  4.2935838444502217
  2.8613612819757219  5.7183528664257199  5.7184063562062803
  4.2938503648310906  7.1417657539633925  7.1419241953752008
  2.8597484334725345  5.7155040414173248  8.5718927667657212
  4.2764158301015245  7.1484715914284838 10.0106616144218776
  2.8553287478812464  8.6283546372900801  0.0021478948787779
  4.3017806492248702  9.9855947586490874  1.4312069052470533
  2.8582181633569150  8.5709103123006933  2.8569878985028261
  4.2768395965794701 10.0100813357822247  4.2833482639701881
  2.8597914129792694  8.5717580525986747  5.7155952744207790
  4.2765884931438736 10.0108340159056031  7.1484715894202031
  2.8562717914594682  8.5733959743357637  8.5734631464723350
  4.2864743054866663 10.0007760573185607 10.0007760311484812
  5.6588955711787214  0.0021480085314509  0.0021212117286572
  7.1436251088748968  1.4288977371828553  1.4285525050369832
  5.7165168185813746 -0.0008217933180392  2.8571091901558097
  7.1488259377588141  1.4421785453606706  4.2806621525791826
  5.7153573268660089 -0.0022983228884240  5.7155041362610781
  7.1436869204448268  1.4287250337390132  7.1436870417701215
  5.7137871590919440  0.0011783185741564  8.5733961892688786
  7.1382389154096240  1.4150194437940837 10.0064532999825939
  5.7163399792514413  2.8569878014775272 -0.0007680357804263
  7.1490111960994405  4.2807969841263018  1.4424306931725710
  5.7140444913980453  2.8579553500360659  2.8578740981672768
  7.1484716750193540  4.2764159994210464  4.2765883815197485
  5.7155041572657304  2.8597482963636689  5.7153572277196769
  7.1417657970603630  4.2938503500840017  7.1453258839597655
  5.7183528169563429  2.8613611701197157  8.5688439465086379
  7.1436251229518390  4.2935838663241785  9.9936664594609876
  5.7154921443138260  5.7155952389993558 -0.0023411952247001
  7.1435631283220902  7.1435631542006179  1.4287250739401138
  5.7155951158689406  5.7154921127557108  2.8597913520140246
  7.1419242841017221  7.1454844888710447  4.2938502572611297
  5.7116286537494236  5.7132277136056722  5.7131376457338474
  7.1436249824175242  7.1436250722308676  7.1436251766183689
  5.7132277215955147  5.7116286209337606  8.5741125798425166
  7.1454845056544070  7.1419242085335597  9.9933998417030754
  5.7138541484387364  8.5734632259845860  0.0011780655907547
  7.1384241580742351 10.0065878536645148  1.4152714501620494
  5.7184063310158546  8.5688971973789609  2.8613612351739830
  7.1436252153453816  9.9935891348615193  4.2936610185524824
  5.7131374754505035  8.5740226119871394  5.7116287462854229
  7.1453259396527642  9.9933997230313967  7.1417658497402305
  5.7157829527238926  8.5714672157717136  8.5714671538745382
  7.1387786150215069 10.0106617210300985 10.0108343345674715
  8.5732056120326003 -0.0004240114645858 -0.0005052753435893
 10.0108061275867346  1.4121773981067396  1.4125628696376444
  8.5707332379003720  0.0003406902883055  2.8582718781522742
  9.9854696263576130  1.4262431278449501  4.3016554029311145
  8.5688437006175135 -0.0039114282616547  5.7183529890671094
 10.0064533342900184  1.4424306613518791  7.1382390120337824
  8.5716550681511432 -0.0023411922344594  8.5717580815424981
 10.0108448912131571  1.4287250487532965 10.0108446413637484
  8.5709105194785771  2.8582182577746691  0.0004621355177160
  9.9855948736027713  4.3017804716510550  1.4262433233382672
  8.6283545719927712  2.8553290864286218  2.8553019882538759
 10.0007761238882349  4.2864740471365179  4.2864740960520926
  8.5733962299852831  2.8562719469075248  5.7137870584252157
 10.0108342823487302  4.2765884236603382  7.1387785049960444
  8.5717579616095421  2.8597911925277066  8.5716550593481724
 10.0100813330420593  4.2768396875625614 10.0039020637949214
  8.5688973478105677  5.7184062826081341 -0.0039114137169089
 10.0065882140938633  7.1384240328152044  1.4421785402548739
  8.5734631188842734  5.7138539115726257  2.8562717532349655
 10.0106616771329922  7.1387786043900725  4.2764158081050248
  8.5714672475710909  5.7157830393096978  5.7157828764141936
  9.9933998510172994  7.1453259664454825  7.1454844895324117
  8.5740224731724055  5.7131374765438956  8.5756215455010807
  9.9935892424413009  7.1436250775413619  9.9935892384824463
  8.5717460435616957  8.5718929377202180 -0.0022983929401171
 10.0108508634782645 10.0108509081076633  1.4287250337671731
  8.5718926834300557  8.5717460819064453  2.8597484353022331
 10.0104106189357278 10.0039018163082201  4.2771688285043332
  8.5741126892282633  8.5756215057893499  5.7132275906755154
  9.9936663328104451  9.9936664337663164  7.1436249596870152
  8.5756214352497544  8.5741126026172427  8.5740225812531623
 10.0039021126317103 10.0104106421053256 10.0100813454749424
  2.8599024114231577 -0.0024524775879992 -0.0024526963112513
 -0.0024527604583943  2.8599027422949885  2.8599024420042864
