Fe Nb
 1.0000000000000000
    11.3765250397430506    0.0000000000000000    0.0000000000000000
     0.0000000000000000   11.3765250243250016    0.0000000000000000
     0.0000000000000000    0.0000000000000000   11.3765250288377828
 Fe  Nb 
 126   1
Cartesian
 -0.0083939474391956  0.0229255164463875  0.0225348929373093
  1.2352421923571315  1.6088889890675875  1.6088890397852469
  0.0178731737477904 -0.0497501582538227  2.8265821758553558
  1.3727083005002423  1.4717276025845374  4.2145582760687486
  0.0012642025485153  0.0136441015140750  5.6781349699008050
  1.4252654044698569  1.4186962353453996  7.1248198260686779
  0.0119603293122681  0.0066387493884079  8.5460699766559198
  1.3641456559841250  1.4803504874465254  9.8861088182773713
  0.0175490020167140  2.8262580033358229 -0.0497502796730495
  1.3724036256944503  4.2145582132566313  1.4714228936481595
  1.3664714914630574  4.1958110553137296  4.1958444330909481
 -0.0013560085578465  2.8454693531591762  5.7336146613922940
  1.4260170264086069  4.2672570135670238  7.1139228043371565
 -0.0149096734567219  2.8590670274636922  8.5166899283773461
  1.4278706496095743  4.2634590382300388  9.9505581409580444
  0.0013422738464828  5.6781062340038417  0.0136149075453421
  1.4254351783362884  7.1248198537924816  1.4188658393625733
 -0.0013379359866999  5.7336145639737195  2.8454872384939369
  1.4259120964434193  7.1139439253958514  4.2673562844466275
  0.0029986714216575  5.6696557032726709  5.6696583183999660
  1.4219166127582548  7.1113206074333046  7.1114168787171792
 -0.0030812127599764  5.6776664177089335  8.5293664210404394
  1.4208612323715062  7.1188253173548537  9.9558736599925499
  0.0118158022248730  8.5458111597446553  0.0064698641240624
  1.3637808376959919  9.8861088593615705  1.4799856413630443
 -0.0149357134821053  8.5166899256606108  2.8590407930966264
  1.4276232389594818  9.9505022466760238  4.2635930047253181
 -0.0031439794948502  8.5292176369100154  5.6778131961551104
  1.4209535694354192  9.9556739066834830  7.1188396666767106
 -0.0167086550997650  8.5197310409174953  8.5198385938889913
  1.3627482361241030  9.9019146691166657  9.9021497976351043
  4.3345475627651204  1.4799857011252722  1.4803505737921303
  2.8212057815672504  0.0225349190684789  2.8525252029131400
  4.2700982120505513  1.4162607460715095  4.2634588379588205
  2.8246539971330562  0.0193886168703035  5.6699555353673254
  4.2647825549537322  1.4232701224375877  7.1188253099677343
  2.8434306480171054  0.0005342216573386  8.5193113530031397
  4.3185064626120884  1.4813830401928278  9.9019146355209671
  2.8215964249689391  2.8525251459036500  0.0229255807338295
  4.2701540190085421  4.2635930018084096  1.4165079847987478
  2.8938815404352285  2.8265823071347547  2.8262580815088998
  4.2688195252011116  4.2666340102020008  4.2664095275368599
  2.8305161814923601  2.8427890745688371  5.6781062643241098
  4.2649069455942445  4.2639229678188331  7.1102754316194758
  2.8376615292404401  2.8323155966530758  8.5458112546965239
  4.2598547272517138  4.2540222344429655  9.9608875457662673
  2.8247427122187592  5.6699555473640268  0.0194773694376926
  4.2649824073339957  7.1188396051975591  1.4231776868294541
  2.8304871607699087  5.6781349496043889  2.8428671087352462
  4.2647771666252439  7.1104258690917952  4.2637844950279131
  2.8210692169057663  5.6649534965408472  5.6648853621475723
  4.2553701082320483  7.1025015034609140  7.1025546155191899
  2.8409195791164872  5.6827228815064998  8.5319048793221839
  4.2573034185494061  7.1088693784295414  9.9632007938284826
  2.8435970975343428  8.5193113749875966  0.0007007245322542
  4.3187417776213231  9.9021497494796726  1.4813830745272014
  2.8374926156203086  8.5460701820362637  2.8321709421803503
  4.2597687405513334  9.9608013650819967  4.2540221336496833
  2.8409009960478260  8.5319193411828547  5.6828268632706482
  4.2574555375591059  9.9633527463293561  7.1088694445772456
  2.8422297471938975  8.5493179878890704  8.5492529201408711
  4.3150517639961361  9.9056046380543936  9.9056046469395458
  5.7013449396017739  0.0007008012854908  0.0005341339679240
  7.0958364605454864  1.4188658700868169  1.4186961264259212
  5.6748450749113557  0.0064698407722588  2.8323154652290281
  7.1067336733811821  1.4181142039548813  4.2672570475194851
  5.6887512782327745  0.0032116220836502  5.6827228175917481
  7.1092394973612407  1.4222145539675901  7.1113205978744958
  5.6714034492031642  0.0019016348812573  8.5493179908161352
  7.1018166186936975  1.4231777417471201  9.9556739749490166
  5.6745861592238560  2.8321708715410514  0.0066387869369274
  7.1067125169553229  4.2673562264007172  1.4182190954569145
  5.7039664971210042  2.8590409544600970  2.8590669746850517
  7.1135142667907632  4.2710033876059521  4.2710954965233130
  5.6912898856897209  2.8472123311915243  5.6776664024602574
  7.1177918326400089  4.2691613857636863  7.1027722888938714
  5.7008177589316711  2.8608397279413387  8.5197310563480819
  7.1102304782000001  4.2637844531347753  9.9558791421722095
  5.6887368160099463  5.6828266848001032  0.0032302971960843
  7.1093358757638310  7.1114167227683218  1.4222145985447168
  5.6914385510166614  5.6778132945255839  2.8472752263867709
  7.1178840000817845  7.1028642816022431  4.2691613651812323
  5.6854386541281565  5.6834460097460511  5.6833468907678553
  7.1265739032313444  7.0940824171412453  7.0940823159934254
  5.6921933610355584  5.6852520426642394  8.5285179707607970
  7.1181548087114486  7.1025545603879348  9.9652863611847025
  5.6713382509714148  8.5492527413499477  0.0019015912435641
  7.1018308227298919  9.9558735224004522  1.4232699790994621
  5.7009254308759303  8.5198382718578021  2.8608399631973618
  7.1103807343931438  9.9557493985765255  4.2639229122029487
  5.6921384080334079  8.5284629643340004  5.6852519322201989
  7.1181018389146020  9.9652862985300725  7.1025015347334053
  5.7063265989328356  8.5143296885387461  8.5143297616224611
  7.1117868383181975  9.9632007133267546  9.9633528319814122
  8.5507006780699957  0.0194772041608283  0.0193885142208184
 10.0060979880305236  1.4714228580130375  1.4717276708912594
  8.5425499656312720  0.0136150084994480  2.8427889622076368
 10.0248117074670091  1.4776596265464748  4.1958112034287280
  8.5557710831324538  0.0230621350865393  5.6649533349259213
  9.9533000376691412  1.4182191951785583  7.1139437842583622
  8.5378294998133732  0.0032303331576070  8.5319194441600210
  9.9570632963337200  1.4165079074156730  9.9505022116434922
  8.5425213726667497  2.8428670704190386  0.0136440412562884
 10.0248451660942255  4.1958445715189310  1.4776596294500202
  8.4870417193483654  2.8454872619181564  2.8454693717131074
 10.0138489472183174  4.2068074385404248  4.2068073383380327
  8.5509979826115980  2.8411328458031848  5.6696558101921033
  9.9496528693820672  4.2710955633755798  7.1071419881916986
  8.5428429141185429  2.8472751923166291  8.5292177117826693
  9.9540223382941520  4.2664095887990321  9.9518366917210361
  8.5557029827303097  5.6648852711187807  0.0230618891540464
  9.9533991451562880  7.1139226853086441  1.4181142041304124
  8.5510005981629185  5.6696582361878924  2.8411327171699847
  9.9495607169356504  7.1071420096106817  4.2710034427976113
  8.5580953504208992  5.6625608371437828  5.6625608912258905
  9.9514948077409890  7.1027724212215260  7.1028642323519122
  8.5372101677333099  5.6833470222131943  8.5352176096214176
  9.9567333461516423  7.1102755442809702  9.9557492197080730
  8.5379335707514006  8.5319049663947162  0.0032116292155535
  9.9571973407394854  9.9505580641993117  1.4162606505581894
  8.5429898418352810  8.5293664240934355  2.8472125027961273
  9.9542467731482791  9.9518368046363879  4.2666339801477564
  8.5373092118938185  8.5352177344418436  5.6834459927169680
  9.9568718570596300  9.9558791632601569  7.1104256901769034
  8.5354041387840862  8.5285179087767062  8.5284628788445467
  9.9666341297892664  9.9608874695203298  9.9608015212941261
  2.8184574420773050  0.0256738774193332  0.0256739189550329
