Fe Ag
 1.0000000000000000
    11.3983096451501069    0.0000000000000000    0.0000000000000000
     0.0000000000000000   11.3973980178906498    0.0000000000000000
     0.0000000000000000    0.0000000000000000   11.3983328937613635
 Fe  Ag 
 126   1
Cartesian
 -0.0062689710024326  0.0010054083015780  0.0008483367114177
  1.3805674556471650  1.4471170240933493  1.4687587367091344
 -0.0315745104353003 -0.0048868907644550  2.8811386937801808
  1.4127745629452340  1.4436645568479300  4.2684210669601681
 -0.0100135853869904 -0.0000726628902248  5.6981682829710989
  1.4126255654992819  1.4424108284504802  7.1231679714131246
 -0.0326803334790841 -0.0013521024466188  8.5182656268270538
  1.3846894229200724  1.4795172425996341  9.9502852655747382
  0.0182499563478404  2.9204656623656029  0.0518281053840927
  0.0243656294396827  2.9221186162616744  2.8252039478976045
  1.4218995167887993  4.2887570632358463  4.3240256015145651
 -0.0083605478609555  2.8568368281228964  5.6976327102993247
  1.4193387506781876  4.2888856935480302  7.1094654633396956
 -0.0294277088574812  2.8769145215621035  8.5202479170714511
  1.4196267142701344  4.2740647067051567  9.9299502578366940
  0.0462145361213058  5.6499079054238930  0.0462910357317437
  1.4124069769498899  7.1623002544075973  1.4374257287955279
  0.0453780552816745  5.6438436570282668  2.8041940712618407
  1.4171339442556552  7.0954132656419722  4.2754586376058050
  0.0008562965011938  5.6993833110796031  5.7009017198231424
  1.4175084251580889  7.1011190038341985  7.1098219094452659
 -0.0094490560776505  5.6978761033969461  8.5388299426219287
  1.4106838102163426  7.1165295262125676  9.9708967126143584
 -0.0291017819008825  8.5263705473914637  0.0004702133641381
  1.3859686866186443  9.9412686938015185  1.4637905917036498
 -0.0310455232059778  8.5254981108826691  2.8805328932700891
  1.4143596864495123  9.9627554112407033  4.2658531833522719
 -0.0074707187438640  8.5375657639630251  5.6986108689436366
  1.4125328374257959  9.9612511977136666  7.1216920634035938
 -0.0306539955359214  8.5195260463648097  8.5168080405410844
  1.3843897400268479  9.9383289306877902  9.9343282277068070
  4.2974116580037780  1.4794565556836494  1.4647823701011853
  2.8487061421316939  0.0011093608319825  2.8558997460729398
  4.2733503790709531  1.4494864678887658  4.2616276097633730
  2.8482299408243512  0.0008118653064175  5.6970946749743003
  4.2822404088539576  1.4379319604361296  7.1249359456445616
  2.8454788367579531  0.0010887143848833  8.5410925968407465
  4.2972237856044178  1.4743251851630403  9.9505767514878496
  2.7808329098811146  2.9032000287326230  0.0689044596274302
  4.3179073756841255  4.2741807280141870  1.4300281881252483
  2.7975444403141778  2.9203974916273769  2.8314001329987604
  4.2682807343496139  4.2863527058674125  4.2750737375042034
  2.8515970604275256  2.8546529391473521  5.7000730047413413
  4.2710030124928160  4.2865176781560468  7.1145913380458436
  2.8495248359102732  2.8721398872535970  8.5211279523757106
  4.2679376973378318  4.2705110211451922  9.9800139554297935
  2.8040882911697871  5.6630893392852615  0.0455274721306741
  4.2770054929186934  7.1166091145362120  1.4388934028320766
  2.8032117610619478  5.6499772999385840  2.8035501845826354
  4.2664877561027446  7.0933744984757903  4.2709527386195258
  2.8534483353674429  5.7014008387576043  5.7018644093603292
  4.2775820687776305  7.1056701073250599  7.1114919186634582
  2.8510384838480798  5.7014905910194376  8.5396649788087622
  4.2718914195977620  7.1121885246489382  9.9761458526488003
  2.8473681699336399  8.5378487952041109  0.0022328807163063
  4.3134932968212851  9.9386997935568058  1.4652252964720036
  2.8491181212157430  8.5264194574843923  2.8789345300507803
  4.2827574093255345  9.9630586147179461  4.2715386029358449
  2.8481512560101927  8.5367271804923437  5.6986138257326973
  4.2823650989315265  9.9629440271819902  7.1223256667040706
  2.8472481042920115  8.5193596305988155  8.5187928920023772
  4.3134622980343345  9.9403507819046339  9.9345149584097516
  5.7067674665649371  0.0010789587165158  0.0039789069394672
  7.1248493741667351  1.4423961512879908  1.4368997044896690
  5.7296726236006110 -0.0013273019492521  2.8822989065752225
  7.1376428725449079  1.4394665376958782  4.2851058547714338
  5.7054070785016284  0.0064709470860428  5.6935485393331025
  7.1387889726261076  1.4378622734900603  7.1091785205731917
  5.7297087892693686  0.0042156603211673  8.5182138025347349
  7.1229209845490358  1.4379064583871342  9.9656073919131565
  5.7268441719990877  2.8720248340516057  0.0001966876922637
  7.1384479145496682  4.2887781084690930  1.4302991834700580
  5.7275087570515604  2.8768322713083161  2.8790338492544398
  7.1352175602438512  4.2854983330845959  4.2782401041847589
  5.7053609369136247  2.8604634713000676  5.7010409597353267
  7.1368445702242358  4.2882834019388678  7.1110834593747203
  5.7275783972921861  2.8817771124636304  8.5203567416820576
  7.1331795147476331  4.2865308075794957  9.9769392417518059
  5.7083153611876094  5.7013819765115157 -0.0014384965371905
  7.1380106083680790  7.1011158935480587  1.4321117420825500
  5.7090649654861716  5.6979446122492856  2.8590043160935954
  7.1365225249380781  7.1034628517988452  4.2831986923308483
  5.6951200618719344  5.6962418843783507  5.6979360679466682
  7.1379049933596725  7.1048398080703832  7.1100173721526359
  5.7061414834257640  5.6961408443002401  8.5417650469477309
  7.1364446755484394  7.1057182687419136  9.9703669915849975
  5.7290743367579058  8.5192947370058825  0.0024163905677111
  7.1262332285775249  9.9613150554453185  1.4370276162258881
  5.7310519880437214  8.5196765039255116  2.8802060269594740
  7.1397983347464189  9.9645849226028584  4.2886639820212400
  5.7006840810989816  8.5313343754269440  5.6923261630810593
  7.1416696006947582  9.9621958955354852  7.1062041319057423
  5.7246287143925780  8.5129441552244991  8.5232765523920815
  7.1256479904692123  9.9629119456741098  9.9655793898557246
  8.5508588124631704  0.0008954799417675  0.0013329337151771
  9.9794581939077549  1.4436805054515016  1.4367595388375070
  8.5497747837174760 -0.0000986161581879  2.8595941078246958
  9.9716505671555442  1.4488593680027457  4.2762154295615113
  8.5546911953906530  0.0090602916050316  5.6931820855409851
  9.9627996452215637  1.4394564816961251  7.1102787743720253
  8.5543950707062368  0.0064343476587530  8.5425295487914461
  9.9863825703509903  1.4495181388795171  9.9746100966636178
  8.5478649476994022  2.8547198651390642 -0.0022223729691871
  9.9239336409786656  4.2888218241106939  1.4275923751092847
  8.5502155375865172  2.8567381660574607  2.8577740523035242
  9.9742450064772488  4.2870686761464221  4.2736056196720513
  8.5492551710630487  2.8519191180473706  5.6985712549981233
  9.9695559207435416  4.2855790560536349  7.1126169172100786
  8.5469217882092714  2.8605037266554985  8.5425104499897149
  9.9727788505812214  4.2863406860718909  9.9796392818823492
  8.5459994197392284  5.7014421312383305 -0.0038081138690617
  9.9724558735818025  7.0953846734134034  1.4324419604198610
  8.5469694007265762  5.6992936840499082  2.8487602792375677
  9.9785380642060577  7.0903407979082891  4.2693520396896254
  8.5510207343471336  5.6951624091524664  5.6968472455632382
  9.9646407165285140  7.1034091577546077  7.1113505964024757
  8.5499290096332654  5.6962393944921930  8.5528926423097413
  9.9770243984824436  7.0933363162277372  9.9814718334215513
  8.5493555603459779  8.5367805998215509  0.0014607400343026
  9.9820675093172060  9.9627074356162115  1.4351639537203709
  8.5492448074442287  8.5375443009030967  2.8570180660745734
  9.9615156583550224  9.9649827278589083  4.2864055541342667
  8.5571450796310451  8.5372796273896814  5.6907259829347954
  9.9591775947970902  9.9645429642206622  7.1081372072001665
  8.5556017154813251  8.5313208055510863  8.5472502942439341
  9.9764731663311750  9.9629744111084442  9.9652121335976442
  2.8440480044877274 -0.0070906093240436  0.0050895084346391
