Fe W 
 1.0000000000000000
    11.4082468806951223    0.0000000000000000    0.0000000000000000
     0.0000000000000000   11.4082468808745485    0.0000000000000000
     0.0000000000000000    0.0000000000000000   11.4082468848257399
 Fe  W  
 126   2
Cartesian
 -0.0054924616940825 -0.0042093699772474 -0.0040736703205543
  1.4260308104782271  1.4260308671028037  1.4260308488956099
 -0.0042093013922907 -0.0054924882158053  2.8561353348612144
  1.4564726809974740  1.3954896224961872  4.2990134919840939
  0.0074141431382530 -0.0020331471593215  5.7089499164033306
  1.4257773232172835  1.4257773551537147  7.1301543061351902
 -0.0020331058203246  0.0074141266876924  8.5513587072614001
  1.3954896193168780  1.4564726921224613  9.9612951416434523
 -0.0040736723704094  2.8562710680420906 -0.0054924856637246
  1.4565720813025385  4.2990134538537221  1.3955890671641662
  1.4630734760433235  4.3136591897329115  4.3135226726906568
 -0.0045628692205621  2.8566159030878286  5.7077956191370696
  1.4316557233611045  4.2837701108615285  7.1306557272234876
 -0.0138103231616810  2.8658690318949223  8.5418133060574899
  1.4260308396649508  4.2823242159838992  9.9779844062505187
  0.0076078971912780  5.7089291122385983 -0.0018290241404947
  1.4262844341181184  7.1301542797431550  1.4262843443267228
 -0.0045541610413986  5.7077955591317382  2.8566245647526602
  1.4314638257975418  7.1306469205590624  4.2840501691870161
  0.0020748634228542  5.7086332741871040  5.7086672087715078
  1.4260308661824901  7.1301640652860225  7.1301444942023693
 -0.0056339378872188  5.6983589996931920  8.5506404947204206
  1.4204059992328424  7.1296528722408574  9.9765385146885261
 -0.0018290843524035  8.5513794866839650  0.0076079201163619
  1.3955890688073780  9.9612951351852193  1.4565720806914702
 -0.0138072510647247  8.5418132927276051  2.8658719258008261
  1.4260308678963194  9.9781684732683971  4.2821400421902025
 -0.0056734642533492  8.5507047820401425  5.6983477795711410
  1.4205978842942513  9.9762584108656220  7.1296616799627044
 -0.0170519181554840  8.5394327504360152  8.5394998407655596
  1.3889882761971994  9.9467858910365514  9.9466493794017516
  4.2990134709700429  1.4565720539841591  1.4564726611971033
  2.8562710815909798 -0.0040736394675907  2.8575541871931347
  4.2823242031375299  1.4260308388482943  4.2823242240440749
  2.8658689853157258 -0.0138103176822098  5.7184953127746612
  4.2837700784031059  1.4316556987525737  7.1296528837811524
  2.8566158568321867 -0.0045628952935875  8.5525130413555743
  4.3136592020392115  1.4630734639767733  9.9467859372153882
  2.8561353287581017  2.8575541653956784 -0.0042093412994358
  4.2821400621892423  4.2821400704251733  1.4260308740623693
  2.8575542056892309  2.8561352990496465  2.8562710653835630
  4.2744364145276492  4.2805549725534666  4.2804831799911973
  2.8538908186392167  2.8444538149299117  5.7089291186126205
  4.2755688884324110  4.2755688988028391  7.1301543345026941
  2.8444537855593919  2.8538908278402149  8.5513795245205753
  4.2805550141928661  4.2744363947091415  9.9798254454319633
  2.8658720140403453  5.7184952827517925 -0.0138072641475011
  4.2840501924307093  7.1296616953945362  1.4314638279090410
  2.8540948265101473  5.7089499032780804  2.8446475757260337
  4.2756866355860890  7.1301543261189533  4.2756866608115018
  2.8691136286775074  5.7208087581788085  5.7208758505881327
  4.2831111160580759  7.1367865967423780  7.1367687860315812
  2.8576956562585272  5.7096681296425267  8.5619496431691537
  4.2877764219877701  7.1363737836625933  9.9723552173588850
  2.8566245898018843  8.5525129953251895 -0.0045541579463889
  4.3135227347512863  9.9466494154436766  1.4630734049082872
  2.8446476232685853  8.5513586898005887  2.8540947865411588
  4.2804831802585870  9.9797535877779779  4.2744364119826619
  2.8577351533014705  8.5619608296582363  5.7096038700902536
  4.2879534479000876  9.9725321330581149  7.1363737799366094
  2.8499868650212341  8.5516413830946512  8.5516753090473472
  4.3184279154103713  9.9418806714437427  9.9418807144264107
  5.7077956499972604 -0.0045541488190037 -0.0045628708474421
  7.1301543077310479  1.4262843703334207  1.4257773122148116
  5.7089291570996119  0.0076079129120328  2.8538908405130110
  7.1296528647355988  1.4204060143801254  4.2837701165039439
  5.6983590020856987 -0.0056339200660753  5.7096680955776193
  7.1301640672973496  1.4260308812751092  7.1301640765909351
  5.7086332733997907  0.0020748784397407  8.5516414121444253
  7.1306469523617659  1.4314638223422180  9.9762583890888479
  5.7089498979915048  2.8540948026563320  0.0074141205915811
  7.1296616509122730  4.2840501912967008  1.4205978717565375
  5.7184952887083211  2.8658719673539390  2.8658689796444587
  7.1363737483171610  4.2877764435188555  4.2879533664453069
  5.7096680868209999  2.8576956586653424  5.6983590029964297
  7.1367865241855917  4.2831111553191317  7.1235397760955372
  5.7208087560038807  2.8691135996739097  8.5394327628029263
  7.1301542525947683  4.2756866896388761  9.9846219047618465
  5.6983477564077951  5.7096038574399346 -0.0056734477627203
  7.1301444945564691  7.1301444900241284  1.4260308548882834
  5.7096038226604335  5.6983478087733950  2.8577352030606944
  7.1367688216908638  7.1235220470298355  4.2831111049009705
  5.7000637390301048  5.7075559834782741  5.7076141054292000
  7.1301543072414466  7.1301542884360085  7.1301542740174586
  5.7075559348617855  5.7000638187258330  8.5526944659118929
  7.1235220531986192  7.1367687736708172  9.9771974554227203
  5.7086672608589897  8.5516752926827166  0.0020748591328295
  7.1306557258715939  9.9765385155899597  1.4316557215521928
  5.7208758585523301  8.5394998336150998  2.8691136216182680
  7.1301543075979570  9.9847397199248675  4.2755689000461947
  5.7076141048837474  8.5527525996451743  5.7000637283167199
  7.1235397615764731  9.9771974724378971  7.1367865517155673
  5.7211508482334112  8.5391577635830682  8.5391578136386119
  7.1239348384235832  9.9723552079477216  9.9725321656733019
  8.5418133016120112 -0.0138072833883580 -0.0138102706075172
  9.9612951482826801  1.3955890717283617  1.3954896445222731
  8.5513794796651137 -0.0018290692933507  2.8444538340333003
  9.9467859433546639  1.3889882879081621  4.3136592310322763
  8.5394327538950758 -0.0170518833267242  5.7208087695554415
  9.9762584209053635  1.4205978829058412  7.1306469601470654
  8.5507047464780825 -0.0056734297282023  8.5619607976063818
  9.9781684925975149  1.4260308292384889  9.9781685192964247
  8.5513586687702396  2.8446476053268874 -0.0020331310333829
  9.9466493524568715  4.3135226687638566  1.3889882812711873
  8.5525129840779268  2.8566245462180504  2.8566158649473947
  9.9418806436828167  4.3184279056425812  4.3184278814248689
  8.5516414079756089  2.8499868387497473  5.7086332738765817
  9.9725321243590983  4.2879534355848161  7.1239348473949127
  8.5619608249231103  2.8577351686065096  8.5507047580481945
  9.9797535944482210  4.2804832137627606  9.9858721789125742
  8.5394998247753886  5.7208758298268441 -0.0170518935485287
  9.9765384552654055  7.1306557156239601  1.4204059948329324
  8.5516753015918248  5.7086672214959826  2.8499868555934613
  9.9723552361652068  7.1239348506338560  4.2877764021410130
  8.5391577757219785  5.7211508207816300  5.7211507667955015
  9.9771974763177678  7.1235398080011407  7.1235220456311685
  8.5527526105775262  5.7076141275767354  8.5602448150304014
  9.9847396808373485  7.1301542865052072  9.9847396844245342
  8.5506404653294421  8.5619496107030422 -0.0056338898481271
  9.9779843747475852  9.9779844245529095  1.4260308626964524
  8.5619496102769759  8.5506405183467731  2.8576956329617644
  9.9798254410399707  9.9858721766860352  4.2805549868142512
  8.5526944899176272  8.5602448330277667  5.7075559740193365
  9.9846219043508793  9.9846219137618171  7.1301542988637356
  8.5602448151738404  8.5526945000912793  8.5527526182026694
  9.9858721640334434  9.9798254152288859  9.9797536202391512
  2.8788337863955018 -0.0267720648012774 -0.0267721230832364
 -0.0267720851284592  2.8788337844955545  2.8788338443277648
