Fe Cr
 1.0000000000000000
    11.3658419871637193    0.0000000000000000    0.0000000000000000
     0.0000000000000000   11.3703066016485366    0.0000000000000000
     0.0000000000000000    0.0000000000000000   11.3658419859610049
 Fe  Cr 
 126   1
Cartesian
  0.0308763814901657  0.0124682391373019  0.0000085262375059
  1.4711107975243729  1.4570330988364941  1.3706930710377665
  0.0235005705688614  0.0119187306445297  2.8179430328121344
  1.4211260387414861  1.4145783967004948  4.2535016515395307
  0.0066527577074086  0.0025797319442598  5.6829405564103901
  1.4210160139020174  1.4143751203913613  7.1124408792724383
  0.0235174029794073  0.0119190076206614  8.5478818291637104
  1.4707674656127441  1.4570327482008627  9.9954919155799171
 -0.0341562247947616  2.8330328950864061 -0.0001497274397587
  1.4761178156573640  4.2049124978408905  1.3651422147121088
  0.0053147203409757  2.8492374503097233  2.8361510536793890
  1.4203486309975977  4.2685308283083652  4.2631619083223189
  0.0103043127624420  2.8427079610437240  5.6829389074116188
  1.4202994463336747  4.2683485492679898  7.1026474758791602
  0.0053097551443831  2.8492373687421177  8.5296959561516754
  1.4763193463823727  4.2049126120316105 10.0004985922840550
  0.0156627787054558  5.6761217208437964 -0.0000497176870819
  1.4198227822054261  7.1163420950111149  1.4217830453550364
  0.0190672838556936  5.6681086089702033  2.8224057092769317
  1.4205310044483932  7.1036215966033502  4.2644475601752747
  0.0058883492091285  5.6799835830506185  5.6829299289670914
  1.4205119655684277  7.1034552617762978  7.1014528056885746
  0.0190546254126107  5.6681085631344974  8.5434488265461113
  1.4196769462152963  7.1163419836132489  9.9442046036484975
  0.0139366757968404  8.5357511117206908  0.0000491039941253
  1.4350547994819958  9.9574055130746011  1.4065290818839844
  0.0008772475912378  8.5255516805426552  2.8405722211706590
  1.4279489545142197  9.9521436975314721  4.2549579078241884
  0.0033543066168430  8.5294429737268231  5.6828911817505086
  1.4281104353977983  9.9519139101321414  7.1108734538901404
  0.0008885542356493  8.5255513964855627  8.5252584771686735
  1.4349319558585072  9.9574060881418642  9.9594369100515543
  4.2121534506918215  1.4570335625527266  1.3703500651724700
  2.8414685891199252  0.0124686231827343  2.8105838830429066
  4.2619051833707378  1.4143756287133988  4.2534008817035103
  2.8414603899957331  0.0108314249398420  5.6829212751605622
  4.2617945977270999  1.4145784174766296  7.1123399184801581
  2.8414520500009530  0.0124685329308245  8.5552579877861810
  4.2118100957072215  1.4570328459530892  9.9951489720217221
  4.2066021309881547  4.2049130176167484  1.3653429598561933
  2.8413110800591488  2.8330329763405531  2.8756168598552252
  4.2626213790446839  4.2683483062996368  4.2631949280669064
  2.8414605306078236  2.8402980935368332  5.6829208864223872
  4.2625722945231797  4.2685313447643525  7.1026803062044053
  2.8416097303224417  2.8330332223241355  8.4902254918739573
  4.2068031751623742  4.2049127806738209 10.0007006018796680
  2.8414608579945768  5.7291375562996647  0.0000002827061295
  4.2632434836912294  7.1163417292194246  1.4216374975964094
  2.8414103607251433  5.6761209960774677  2.8257970146465397
  4.2624090878554233  7.1034556575477348  4.2643889982261571
  2.8414606560342661  5.6758150615250118  5.6829211639052959
  4.2623897683171874  7.1036212266099215  7.1013943966321271
  2.8415102003121970  5.6761208391953879  8.5400443549335439
  4.2630980582266762  7.1163421615583875  9.9440588976492155
  2.8414608900452003  8.5443784328750905  0.0000000484932409
  4.2479891818262256  9.9574053605562902  1.4064052296851453
  2.8415092902020849  8.5357513478806268  2.8275236883221537
  4.2548107561916089  9.9519137964403352  4.2549683428223632
  2.8414605728241509  8.5286548787607028  5.6829209455511638
  4.2549717914281375  9.9521434288145922  7.1108839452726578
  2.8414117388183207  8.5357512763575247  8.5383182619336289
  4.2478654172203694  9.9574055534054811  9.9593131033323576
  5.6520445173072691  0.0124680774389717 -0.0000084434916583
  7.0949625245830923  1.4145783422155471  1.4203343251879506
  5.6594037550589071  0.0119186866227609  2.8179598234668064
  7.1055444028086789  1.4231140250978560  4.2640022372188691
  5.6762685196770803  0.0025797162601272  5.6829015782246604
  7.1054627512422490  1.4231137498453521  7.1017577933873115
  5.6594206111532595  0.0119191598675839  8.5478988315022306
  7.0948619226313658  1.4143747094538128  9.9453972574990317
  5.7170768874719107  2.8330329964266503  0.0001491420751514
  7.1046223446062395  4.2685309782433540  1.4211118333111370
  5.6776112453119829  2.8492370688519815  2.8361460585017655
  7.1034759981686868  4.2640402563661519  4.2619747491126576
  5.6726169303042884  2.8427075632533345  5.6829025538357092
  7.1034349657567990  4.2640408206382387  7.1038266306080295
  5.6776065131509386  2.8492376275171378  8.5296910948892180
  7.1046551635917137  4.2683483226667374  9.9446812269734117
  5.6672576889121107  5.6761213685989444  0.0000496827965136
  7.1059083330052424  7.1036214637492376  1.4209291001408708
  5.6638659048362436  5.6681088022847987  2.8223928340311906
  7.0943981980210857  7.0991100452940108  4.2529359551545838
  5.6770324416377536  5.6799837519750991  5.6829122086625263
  7.0943962915013961  7.0991102828763051  7.1129040020707679
  5.6638533966383759  5.6681088363564225  8.5434363859949816
  7.1058497413633477  7.1034554331935675  9.9448936058583133
  5.6689842212035941  8.5357515316392618 -0.0000488714872345
  7.0964183208159257  9.9521437481109434  1.4135111368218327
  5.6820319120029428  8.5255517988433578  2.8405835734259903
  7.0991625202264625  9.9547782169801859  4.2577889862416143
  5.6795672469712057  8.5294427161016557  5.6829508330725949
  7.0992496605029718  9.9547782677297665  7.1081394999161249
  5.6820437350292057  8.5255513316911991  8.5252701899681984
  7.0964286678554140  9.9519142250453516  9.9524915590638781
  8.5243813933121491  0.0108313786657757  0.0000002332567023
  9.9539016522163024  1.4143753378866297  1.4204445072617848
  8.5244008301516558  0.0025796928340043  2.8348074451514509
  9.9433004602641155  1.4231137685610800  4.2640840777815781
  8.5243813254231977  0.0023525959439350  5.6829208719012367
  9.9432182427044609  1.4231142270166734  7.1018397804866744
  8.5243621561737815  0.0025801133026158  8.5310342935583954
  9.9538004862597269  1.4145785226333139  9.9455077845498820
  8.5243816763708882  2.8402981844352286  0.0000003990140347
  9.9441071538418413  4.2683483527188644  1.4211612895354238
  8.5243999371922250  2.8427083684979935  2.8311560798635065
  9.9453280219408899  4.2640403199776866  4.2620152273047323
  8.5243816954539273  2.8433104053075717  5.6829206600106525
  9.9452874206982074  4.2640407453771667  7.1038674285961250
  8.5243633456117216  2.8427079409286824  8.5346856298897809
  9.9441407364164096  4.2685309805755534  9.9447299980992945
  8.5243811049113454  5.6758153325759428 -0.0000000181799720
  9.9429136834165224  7.1034553334864077  1.4209481919221540
  8.5243902601522503  5.6799834689850819  2.8355723618934361
  9.9543668646840420  7.0991102999264726  4.2529377086454323
  8.5243813242017090  5.6845588666638189  5.6829212782426808
  9.9543648015146786  7.0991101495400573  7.1129061270208727
  8.5243727998549090  5.6799835559221767  8.5302698383546236
  9.9428551203260174  7.1036213357894251  9.9449129267255945
  8.5243815828913920  8.5286543778980839  0.0000001023052103
  9.9523336938244071  9.9519141258420820  1.4133500161492236
  8.5243514114528196  8.5294429450885811  2.8381060073626787
  9.9495135675280117  9.9547784833580675  4.2577021452621659
  8.5243813989475896  8.5259119190054786  5.6829209453232048
  9.9496002476435681  9.9547779805967060  7.1080534748602036
  8.5244116465832231  8.5294430031157820  8.5277356375155833
  9.9523448705633033  9.9521438058539236  9.9523308058706430
  2.8414605878994328 -0.0286906101427612 -0.0000001291631374
