Fe W 
 1.0000000000000000
    11.4142694699125649    0.0000000000000000    0.0000000000000000
     0.0000000000000000   11.3999268856257601    0.0000000000000000
     0.0000000000000000    0.0000000000000000   11.4142694614259685
 Fe  W  
 126   2
Cartesian
 -0.0281098897620329 -0.0112649743095303 -0.0000096518816627
  1.3872314765919904  1.4249909340500779  1.4663357551512095
 -0.0168147898321884 -0.0048589098018797  2.8706354254636341
  1.4157005773529172  1.4251562196118974  4.2734884670337303
 -0.0003374206864141 -0.0021602732724073  5.7071172651566524
  1.4157004891520613  1.4248255663848961  7.1407810649597483
 -0.0170679623820844 -0.0048588064729622  8.5438873209980493
  1.3872313707836057  1.4249908559178310  9.9479336031306449
 -0.0281101837647795  2.8612468692502619  0.0000097047223487
  1.3787827579023708  4.3015465809645912  1.4747922280564414
 -0.0170682296762203  2.8548405874485341  2.8703820056756646
  1.4174514474713120  4.2817339644532879  4.2780392964714666
 -0.0003375261316761  2.8521415918246196  5.7071524067014421
  1.4173602575206687  4.2816033488027054  7.1361387234726061
 -0.0168145980375296  2.8548404556201161  8.5436341422505375
  1.3787748100379176  4.3015463672259919  9.9394845217205567
  0.0043544075756523  5.7068604213463496  0.0000442422018289
  1.4172999223256217  7.1249543226191765  1.4362675415075463
 -0.0222515986563609  5.7213362080390269  2.8757740211716931
  1.4266448649668140  7.1249472387809432  4.2799064412396399
 -0.0040008419626245  5.7063622470874122  5.7071080651712425
  1.4266449007691147  7.1249612910494022  7.1343630753990164
 -0.0222067903386993  5.7213358688145144  8.5384504172619575
  1.4172994622673885  7.1249542824748158  9.9780019854709607
  0.0043545684690279  8.5430483020425996 -0.0000440676724817
  1.3787751819321443  9.9483626736717223  1.4747843010393720
 -0.0222067036529167  8.5285726880613062  2.8758192019951303
  1.4173603172835760  9.9683052173240796  4.2781306797923531
 -0.0040010419681485  8.5435462186233675  5.7071609833170642
  1.4174510948822432  9.9681747513569352  7.1362302492557435
 -0.0222516548204805  8.5285724819929563  8.5384952632988949
  1.3787826869621653  9.9483624707942830  9.9394773488203967
  4.3199038307763731  1.4249910669648993  1.4663362164708942
  2.8535576984376427 -0.0112650659711494  2.8816778003381684
  4.2914339924606582  1.4248254614541422  4.2734884984681152
  2.8535672782244772  0.0045635798804121  5.7071347968951951
  4.2914343010969009  1.4251563783968808  7.1407810102975686
  2.8535771656729705 -0.0112653727833908  8.5325916268394284
  4.3199035901396288  1.4249907770413295  9.9479328994544183
  4.3283597197682742  4.3015461620398723  1.4747847728514629
  2.8535769389782089  2.8612467227197240  2.8816776338385846
  4.2897741367114417  4.2816030769191329  4.2781308139803054
  2.8535677382265079  2.8454180391440143  5.7071346161782861
  4.2896833867474298  4.2817337795626376  7.1362300190442927
  2.8535575618804616  2.8612469461871068  8.5325916240691484
  4.3283521882997036  4.3015464766974159  9.9394770662532963
  2.8535673205020919  5.7104102300900301  0.0000000814109055
  4.2898347117502045  7.1249543196435310  1.4362675345906106
  2.8536115922871668  5.7068603984791979  2.8492130582423707
  4.2804899305269384  7.1249611297195994  4.2799065381055401
  2.8535673633849448  5.6963398326751937  5.7071348091706167
  4.2804897853712651  7.1249472935296581  7.1343630624514969
  2.8535233005956964  5.7068603015339177  8.5650566152939387
  4.2898346480766927  7.1249544733997476  9.9780019671234168
  2.8535674720574771  8.5394984757061785  0.0000002472412176
  4.3283524380326943  9.9483623105637502  1.4747924262242602
  2.8535231717514700  8.5430479288519372  2.8492132380953037
  4.2896834476719841  9.9681749140132379  4.2780396480498846
  2.8535670476713890  8.5535690603140004  5.7071347072597209
  4.2897745173063146  9.9683052641687997  7.1361386327112104
  2.8536116109827909  8.5430481495775936  8.5650568344454214
  4.3283599049452715  9.9483619942877368  9.9394844193689238
  5.7352451725471338 -0.0112651208259238  0.0000097975925343
  7.1270559756385783  1.4251563056471619  1.4378666827664404
  5.7242030836614601 -0.0048584052490566  2.8703820689014727
  7.1347666170636455  1.4249908561800140  4.2811990309026644
  5.7074721054695763 -0.0021597391456689  5.7071523995321378
  7.1347666113095265  1.4249909369495972  7.1330699802799282
  5.7239494108668794 -0.0048586310804603  8.5436335497162528
  7.1270556321911531  1.4248254520308958  9.9764028019335882
  5.7352453598686735  2.8612468026370013 -0.0000096609785158
  7.1316068488963085  4.2817337870760603  1.4361162237148783
  5.7239496010866242  2.8548403686278037  2.8706356613581718
  7.1345519571332012  4.2784626495054843  4.2809932201396421
  5.7074721186945716  2.8521416053892921  5.7071172689611487
  7.1345604353175398  4.2784628694408164  7.1332848779396576
  5.7242031356073673  2.8548403691983779  8.5438875628054820
  7.1316981140795379  4.2816035561716674  9.9780624176836579
  5.7027803635751333  5.7068605155524352 -0.0000445531669303
  7.1334736945307142  7.1249475312477273  1.4269224539087288
  5.7293416681400178  5.7213361875273057  2.8758189362465396
  7.1470263519329205  7.1249542276719797  4.2934585612580385
  5.7111357112720507  5.7063623979514091  5.7071612461562058
  7.1470261500788483  7.1249543785169100  7.1208107602309108
  5.7293862926511663  5.7213359675567910  8.5384954039733056
  7.1334739646484042  7.1249613731070829  9.9873470111594376
  5.7027803989679331  8.5430481782951393  0.0000442054337622
  7.1316982760069543  9.9683051228980073  1.4362070716213580
  5.7293865915536504  8.5285727825513700  2.8757741114455295
  7.1345603978937904  9.9714459275181753  4.2809844037850180
  5.7111357210984810  8.5435462065998191  5.7071082537272053
  7.1345519405619511  9.9714459301873184  7.1332763590520987
  5.7293417207815969  8.5285724813814578  8.5384502598798697
  7.1316065368704864  9.9681750355894945  9.9781532478458690
  8.5607021207569716  0.0045638695268316  0.0000000018749958
  9.9943481112412567  1.4248255558979182  1.4378669317942956
  8.5606847738136391 -0.0021596800268233  2.8539045493206991
  9.9866375404393075  1.4249909983920570  4.2811991607381605
  8.5607023569417233 -0.0043997885253237  5.7071347434980613
  9.9866375143341308  1.4249909191948789  7.1330700059833863
  8.5607197549865841 -0.0021600812745269  8.5603647106409753
  9.9943480597072814  1.4251563317835745  9.9764027724570745
  8.5607021745634260  2.8454179215610855  0.0000000084860402
  9.9897059839424518  4.2816033691830446  1.4362072626369402
  8.5607195871342707  2.8521417471999997  2.8539046776783135
  9.9868435771957511  4.2784626750679378  4.2809842629991524
  8.5607022626710645  2.8543818060859008  5.7071347110137092
  9.9868522940286724  4.2784623599188540  7.1332762796718034
  8.5606848725565357  2.8521415442533944  8.5603648833318573
  9.9897973462835523  4.2817336411943385  9.9781529244246236
  8.5607021512555939  5.6963397632906965  0.0000000818621362
  9.9879301700112073  7.1249612457657623  1.4269223262257305
  8.5606758674557035  5.7063626553950044  2.8575684579921612
  9.9743780975501721  7.1249543495187497  4.2934586384288682
  8.5607021201791422  5.6925899914541853  5.7071347934910532
  9.9743783409826552  7.1249544024259270  7.1208106075229942
  8.5607285361479999  5.7063623260997343  8.5567010333323417
  9.9879301713539128  7.1249474508050961  9.9873470558569224
  8.5607017498395432  8.5535688472035147 -0.0000000429971630
  9.9897972383844298  9.9681746980841108  1.4361160715969465
  8.5607286494956867  8.5435462303237664  2.8575685071861781
  9.9868522110852993  9.9714460420926390  4.2809934746508329
  8.5607022136317461  8.5573180264395106  5.7071345332095884
  9.9868438643356168  9.9714461502427589  7.1332847042721577
  8.5606756701728841  8.5435461318171235  8.5567010454688806
  9.9897059582627836  9.9683051857121256  9.9780624341378967
  2.8535664050150853 -0.0793613413712673  0.0000000220815265
  2.8535666752037709  2.9293425211558555  0.0000003404540390
