Fe Re
 1.0000000000000000
    11.3836117430451189    0.0000000000000000    0.0000000000000000
     0.0000000000000000   11.3836117419647085    0.0000000000000000
     0.0000000000000000    0.0000000000000000   11.3836117442548712
 Fe  Re 
 126   1
Cartesian
  0.0446235212945768  0.0102332989309810  0.0100234472683296
  1.3549492492532729  1.4909537700818667  1.4909536709527742
  0.0141527298698358 -0.0504902995099898  2.8317920537511032
  1.3729698412818674  1.4731866614296740  4.1988342329043284
 -0.0007843291567245  0.0185823498076308  5.6802371300108128
  1.4279531447931375  1.4177570373928465  7.1227161084769355
  0.0058653670993586  0.0107084504858823  8.5450447866997568
  1.4030699240431419  1.4430740395198689  9.9338539665442163
  0.0141109527180296  2.8317502265402368 -0.0504902885827982
  1.3727162561695081  4.1988342629075879  1.4729330692970795
  1.3584789940892819  4.2078775127391221  4.2077183062743986
  0.0010719334358080  2.8449699464408429  5.7408288047989391
  1.4183243731817741  4.2716618307390277  7.1171210184493185
 -0.0024302534526159  2.8483660008830012  8.5357077417494391
  1.4305818667780992  4.2671307148693707  9.9632036871313314
 -0.0007494372043166  5.6801922689368363  0.0185930461340660
  1.4281458391674018  7.1227161638924184  1.4179497339612182
  0.0009330771623423  5.7408288358005963  2.8448310729614645
  1.4181976133315550  7.1169957061814033  4.2716889830596658
  0.0006929902043325  5.6764346734559243  5.6764269125330902
  1.4146006492766161  7.1135865768657638  7.1135933761108427
  0.0013804546709582  5.6788734371475149  8.5417356663970700
  1.4268588905443587  7.1148670691967313  9.9695093028533819
  0.0059547733911264  8.5448862774748484  0.0106849745093752
  1.4028289984962672  9.9338538935509622  1.4428330139674763
 -0.0024630420762214  8.5357077160708794  2.8483330956334405
  1.4304035328206057  9.9632507814793350  4.2670831930134989
  0.0013448576530514  8.5417399512561651  5.6789415078293697
  1.4269751886078197  9.9692915046453336  7.1148891722795833
  0.0004805866004962  8.5409359454029463  8.5409733947207798
  1.4075500294987335  9.9453784587327601  9.9453653503695847
  4.2956607670056606  1.4428329522358885  1.4430739467168867
  2.8356696503634224  0.0100234032736165  2.8012793470045350
  4.2663109196070570  1.4153211027983956  4.2671305928188668
  2.8216838054527020  0.0241187462233280  5.6677258756718105
  4.2600052987934696  1.4190441475049524  7.1148670204974467
  2.8433289929146657  0.0025193340449503  8.5712645614185661
  4.2841492120088445  1.4383528712376905  9.9453784931841849
  2.8358795606191025  2.8012794349063492  0.0102332744049944
  4.2662638852900097  4.2670832124612499  1.4154994394205382
  2.8963931709864599  2.8317920323189880  2.8317501648450074
  4.2744043656354167  4.2706621655892558  4.2704451195755251
  2.8273098888658863  2.8466523246659272  5.6801923021534764
  4.2724378637608265  4.2681677481351690  7.1141193409969832
  2.8352179772840969  2.8399481650761831  8.5448862232378229
  4.2611663514497282  4.2652947104206840  9.9684409465772266
  2.8217841641365751  5.6677259241977209  0.0242191460713548
  4.2602231811975617  7.1148891461142467  1.4189277269920941
  2.8273205341536380  5.6802370827942239  2.8466872759158104
  4.2724139186381640  7.1142490592046039  4.2681975173289235
  2.8225128536807405  5.6700090015969193  5.6699877688290572
  4.2642913420057642  7.1063311780957736  7.1064168346381784
  2.8409493924705131  5.6864187555090018  8.5363866981255576
  4.2540446308591751  7.1072665989236912  9.9753424402353463
  2.8433836318911578  8.5712645510731935  0.0025739305983940
  4.2841361768397421  9.9453653772425366  1.4383529235585097
  2.8351945051160774  8.5450446010348866  2.8400375747692452
  4.2610737794305127  9.9683482841478117  4.2652947054362107
  2.8409112682283260  8.5364075715444265  5.6864876940887097
  4.2541722233623487  9.9754700600170239  7.1072665832293875
  2.8444263475563032  8.5453208630345934  8.5453512805012330
  4.2750643266805888  9.9544504058754892  9.9544503193676483
  5.6582501483960854  0.0025738800416828  0.0025193307836019
  7.1067985374520211  1.4179497884686103  1.4177570186290276
  5.6846284514848939  0.0106848977945020  2.8399481367886721
  7.1123936723661965  1.4275785455774561  4.2716618142417007
  5.6931279490839213  0.0049534624317557  5.6864187753968043
  7.1159212462231300  1.4313023760584735  7.1135866151485283
  5.6841633632009829  0.0014766451286555  8.5453208821531206
  7.1146254813585150  1.4189277231499651  9.9692914582283692
  5.6844700438128664  2.8400376193128714  0.0107084327216891
  7.1125190271351011  4.2716889309132489  1.4277052189923640
  5.6938069458392517  2.8483331331122419  2.8483659534938739
  7.1115627502960814  4.2699487079107348  4.2700537271752834
  5.6877790626069524  2.8445225318287859  5.6788734879793461
  7.1149049235908288  4.2650562249957273  7.1145759261723729
  5.6885413046788402  2.8454223955406377  8.5409359819175705
  7.1152656200747577  4.2681975201034454  9.9571007322033811
  5.6931070906738963  5.6864877069981592  0.0049916474902569
  7.1159281001063075  7.1135934287244211  1.4313024084471691
  5.6877747256333118  5.6789415465509672  2.8445580243262931
  7.1149388127546658  7.1146097238096404  4.2650562601429023
  5.6894920235068565  5.6877559463680001  5.6877182929207137
  7.1205814890659642  7.1089331456000266  7.1089332153924891
  5.6903361367042473  5.6905720104137476  8.5391915735135644
  7.1231835172534970  7.1064168218104582  9.9652232900044133
  5.6841938481344227  8.5453512383862993  0.0014766681300079
  7.1146476400143790  9.9695093105427492  1.4190440880413244
  5.6885788184877271  8.5409734099502455  2.8454223580294595
  7.1153953174430491  9.9570767857537490  4.2681678297883590
  5.6903230507498215  8.5391785063499146  5.6905720822005925
  7.1230978601342354  9.9652233094228908  7.1063312390644473
  5.6907997933217205  8.5387148267667072  8.5387148290209698
  7.1222480740113498  9.9753424038754872  9.9754700615573455
  8.5617887326579076  0.0242190813670989  0.0241187472402038
 10.0306804491623698  1.4729331078004508  1.4731866542096268
  8.5493223728432532  0.0185929974284100  2.8466523692603820
 10.0217964069657253  1.4874239607411579  4.2078775466807894
  8.5595268669214839  0.0233902143596537  5.6700090441933693
  9.9578257326874144  1.4277052787590909  7.1169956478931047
  8.5430269804162950  0.0049916849283884  8.5364075142040914
  9.9624314675634214  1.4154993440314623  9.9632507334681542
  8.5492775953729829  2.8466872559757701  0.0185823999365678
 10.0216370894178723  4.2077182893527612  1.4874239964153237
  8.4886858049287905  2.8448310600821332  2.8449699331617087
 10.0143800084808845  4.2151347569823896  4.2151346928911160
  8.5530878329842928  2.8452099167462253  5.6764345981175355
  9.9595659980753179  4.2700537419474518  7.1179518477013710
  8.5505731393348299  2.8445580799895755  8.5417399826565461
  9.9588524229561113  4.2704451523446272  9.9551103024337060
  8.5595056385032873  5.6699877811188957  0.0233901276079656
  9.9578528495270824  7.1171209396291095  1.4275785522501294
  8.5530800851688600  5.6764269080384668  2.8452099806286610
  9.9594609091293940  7.1179519021127140  4.2699485714793388
  8.5572012223435650  5.6723134953541505  5.6723134834626148
  9.9644584782695169  7.1145758991485621  7.1146097613627504
  8.5417587097039203  5.6877183243218807  8.5400225943779997
  9.9613469025578443  7.1141193832867620  9.9570768236766742
  8.5430959735696987  8.5363867199805963  0.0049535513759845
  9.9623840054435622  9.9632037084089013  1.4153211365750875
  8.5506411860146212  8.5417355982865057  2.8445224541185139
  9.9590695671408742  9.9551102483949130  4.2706622055514103
  8.5417963545910105  8.5400226476271559  5.6877559719905530
  9.9613171919132135  9.9571007691121860  7.1142490047159503
  8.5389427047578685  8.5391916354719211  8.5391785462573040
  9.9642199099690298  9.9684409415535171  9.9683483037447349
  2.8237094051584930  0.0221934453031031  0.0221934729759243
