Fe Mn
 1.0000000000000000
    11.3657443603295913    0.0000000000000000    0.0000000000000000
     0.0000000000000000   11.3657443588860243    0.0000000000000000
     0.0000000000000000    0.0000000000000000   11.3657443538016043
 Fe  Mn 
 126   2
Cartesian
  0.0197466737743372  0.0072034092279729  0.0071269796341274
  1.4207180729740783  1.4207180604990153  1.4207180590076769
  0.0072034300949402  0.0197466226283508  2.8343091474849933
  1.4061640954733756  1.4353616054463272  4.2318242364262950
  0.0014330375308370  0.0097269011741976  5.6745071787298480
  1.4206440210516036  1.4206439854859978  7.1035902469374355
  0.0097268875611672  0.0014329982282063  8.5326732715170959
  1.4353615691628745  1.4061640275900966  9.9753561823725097
  0.0071269855357707  2.8342326594810703  0.0197466194890673
  1.4060744733883912  4.2318242346073056  1.4352720858121419
  1.3992792397540783  4.2438906516940511  4.2439017412565638
  0.0085128917432828  2.8328594173760724  5.6712683247338562
  1.4169676173242032  4.2613278701669612  7.0892901552482881
  0.0060573923017319  2.8353858940524659  8.5299161130459336
  1.4207180375926243  4.2467349296517742  9.9604454993773111
  0.0014154975932085  5.6746274847232145  0.0097317526391936
  1.4207921245407777  7.1035902117288137  1.4207920495899080
  0.0085767354767582  5.6712683118779585  2.8329231988724368
  1.4169085861540605  7.0893197845549460  4.2614794196582775
  0.0024338389802341  5.6750382693881098  5.6750219435762874
  1.4207180502595036  7.1035254810843362  7.1036549519407801
  0.0047856933006689  5.6816121374471829  8.5293896219222933
  1.4244685423371104  7.1178902264287061  9.9458526577757151
  0.0097316926570065  8.5325529430438767  0.0014155431334266
  1.4352720278388100  9.9753562172796872  1.4060744887613936
  0.0060501238693853  8.5299161355194464  2.8353787236755648
  1.4207180089004863  9.9604154182474414  4.2467650452994716
  0.0047602514125124  8.5293511573674916  5.6816376799628188
  1.4245274771338567  9.9457011177515184  7.1178606089995498
  0.0069692150330522  8.5308400884165891  8.5308664045923592
  1.4421568521802539  9.9632787411369765  9.9632897873827435
  4.2318242113955398  1.4060744830973730  1.4061640095415502
  2.8342326759903460  0.0071269923313567  2.8216894177302758
  4.2467348974041634  1.4207180049847912  4.2467349291379417
  2.8353859432219228  0.0060574145076430  5.6772643694549796
  4.2613278244710386  1.4169676478254474  7.1178903349216336
  2.8328594075480544  0.0085128384819159  8.5359120597780684
  4.2438906140652364  1.3992792447325364  9.9632786369989113
  2.8343091784581724  2.8216894601365961  0.0072034680785785
  4.2467650165721516  4.2467650478947165  1.4207179972889437
  2.8216894285616978  2.8343091366043689  2.8342326283253594
  4.2491589618045138  4.2603540360878904  4.2603755689026608
  2.8317043900267409  2.8400205092089053  5.6746275387681751
  4.2647752204518543  4.2647751511290295  7.1035902573834955
  2.8400205370358349  2.8317043800717632  8.5325529523857284
  4.2603540237698976  4.2491590237135650  9.9468048896232126
  2.8353786776097274  5.6772643380663395  0.0060501507358083
  4.2614793778030169  7.1178606401685327  1.4169085870663920
  2.8317091598548489  5.6745071604760975  2.8400031074926866
  4.2646724764133106  7.1035902466784764  4.2646725007640836
  2.8344668748597499  5.6763140135372225  5.6763403965861352
  4.2579389206752900  7.0955232610582701  7.0955139577130266
  2.8366504237373755  5.6777907898030140  8.5255683612922635
  4.2519418442467023  7.1125888725665458  9.9551690226655278
  2.8329232388285641  8.5359120520341438  0.0085767170475957
  4.2439017368464400  9.9632897982081143  1.3992791508995606
  2.8400030889949255  8.5326732839322421  2.8317091228044209
  4.2603755879113603  9.9468263735951528  4.2491590132558184
  2.8366758099834990  8.5255428072321067  5.6778293160409898
  4.2520113926198073  9.9552386180069465  7.1125888435491573
  2.8390022817904126  8.5321585054274021  8.5321422734181525
  4.2386567113112061  9.9685236364190200  9.9685237230993344
  5.6712683939105206  0.0085766703219725  0.0085129059522217
  7.1035901922988227  1.4207920829732517  1.4206440133011518
  5.6746275174949812  0.0014156310050310  2.8317043869293657
  7.1178902749649602  1.4244684536059702  4.2613278618890842
  5.6816120340601186  0.0047856975300329  5.6777907825123899
  7.1035254915272210  1.4207180728703142  7.1035255059065028
  5.6750382658536065  0.0024338853564729  8.5321584601957952
  7.0893197798142236  1.4169086392279242  9.9457010564474331
  5.6745071705001333  2.8317091509998282  0.0014330247844796
  7.1178606380909155  4.2614794452847722  1.4245275171871936
  5.6772643292628810  2.8353787008322962  2.8353859494307407
  7.1125888384043341  4.2519418287367747  4.2520113945373836
  5.6777907841858299  2.8366504177841509  5.6816120981426632
  7.0955232829495296  4.2579389043721543  7.1116665474207199
  5.6763140477729292  2.8344668446935626  8.5308401296511800
  7.1035902087921965  4.2646725219717458  9.9425079268905971
  5.6816377271098899  5.6778293299237834  0.0047602662032076
  7.1036549890387510  7.1036549968700395  1.4207180566430926
  5.6778293225713794  5.6816376892549156  2.8366757826067008
  7.0955139051387102  7.1116571436078058  4.2579389706444957
  5.6812736643773745  5.6765867344112575  5.6765536206097176
  7.1035902111641827  7.1035901807753863  7.1035901790297267
  5.6765867271864670  5.6812736679245912  8.5306268317041152
  7.1116572144210162  7.0955139111510546  9.9492414847842916
  5.6750219884565443  8.5321422217312239  0.0024338393748934
  7.0892901833413209  9.9458526162829877  1.4169675809169622
  5.6763403723551322  8.5308663899897912  2.8344668957315156
  7.1035902239088813  9.9424052498038211  4.2647752026583809
  5.6765536118734223  8.5305937255868098  5.6812736693458987
  7.1116665463019002  9.9492415296570744  7.0955232467284173
  5.6752959938095149  8.5318844485528675  8.5318844591765703
  7.0945916400524602  9.9551690153560415  9.9552386154730126
  8.5299161069790230  0.0060501283414115  0.0060574140244201
  9.9753562091628751  1.4352720657270635  1.4353615465910670
  8.5325528956093457  0.0097317340488778  2.8400205061987585
  9.9632786903186936  1.4421569617820462  4.2438906124111151
  8.5308401046039233  0.0069692113766766  5.6763140645749308
  9.9457010453957704  1.4245275000082949  7.0893197440481881
  8.5293511376838822  0.0047602625879495  8.5255427545844640
  9.9604154262376792  1.4207180400525377  9.9604154075249554
  8.5326732991001997  2.8400030753031547  0.0097269499907010
  9.9632898158629519  4.2439017594926218  1.4421568796428976
  8.5359120338608712  2.8329232186029687  2.8328594248607262
  9.9685237321096487  4.2386567925472081  4.2386567573737297
  8.5321584671103636  2.8390022126898207  5.6750382005581885
  9.9552386167049036  4.2520114599564121  7.0945915972995151
  8.5255427317713171  2.8366758488218764  8.5293511177090338
  9.9468263951440630  4.2603755289020020  9.9580214423517113
  8.5308664433345562  5.6763403691996830  0.0069692304047699
  9.9458526222119126  7.0892901959581467  1.4244684667807967
  8.5321422197544710  5.6750219293473085  2.8390022803801118
  9.9551690642270518  7.0945915747143120  4.2519418259667301
  8.5318844745904077  5.6752959752359979  5.6752959916726278
  9.9492415557129927  7.1116665357054449  7.1116572188065916
  8.5305937196424324  5.6765536651487496  8.5259067270479569
  9.9424052470477715  7.1035902267408240  9.9424052690040092
  8.5293896418310968  8.5255683262188935  0.0047856625252384
  9.9604455268582104  9.9604454973354297  1.4207180542979549
  8.5255683744357782  8.5293896484000484  2.8366503862807413
  9.9468049391387066  9.9580214372394149  4.2603540027107050
  8.5306267877353630  8.5259068014361450  5.6765867296586814
  9.9425079315360794  9.9425079211862961  7.1035901841160065
  8.5259067429414337  8.5306267998034429  8.5305936964735221
  9.9580214294686975  9.9468048845758084  9.9468264043162353
  2.8340615628385750  0.0073745940492180  0.0073745862192670
  0.0073745746772628  2.8340615236919309  2.8340615462428485
