Fe Hf
 1.0000000000000000
    11.3741628328347790    0.0000000000000000    0.0000000000000000
     0.0000000000000000   11.3860989970964575    0.0000000000000000
     0.0000000000000000    0.0000000000000000   11.3741700530403875
 Fe  Hf 
 126   1
Cartesian
 -0.0145704144178907  0.0025645411989605 -0.0034938844184386
  1.3376724533732345  1.4844694241122542  1.5057974134395080
  0.0107658023657522 -0.0074710525065480  2.8329556095795563
  1.4205793226201271  1.4361678615653726  4.2486110672849957
 -0.0026335270946414  0.0036374907282631  5.6868457883704266
  1.4241342681943900  1.4293327369222526  7.1225313410671260
  0.0167308874029021  0.0058017196542609  8.5511527446103770
  1.3403304298694836  1.5246672598664761  9.8880248786901870
  0.0724145856608543  2.8824625582076084  0.0567754962363307
  0.0243752520830067  2.9303351759078540  2.8193703899367559
  1.4244406265714824  4.2728219278678505  4.3047203950167097
 -0.0058074000968245  2.8506616512829388  5.6878044733518820
  1.4237020905651483  4.2712456500240146  7.1106511006559909
 -0.0317622594683668  2.8731099040634143  8.5002320449687971
  1.4249382364910128  4.2620424406875763  9.9075263613111311
  0.0524601365824127  5.6399042831607877  0.0504980051795778
  1.4173802383174554  7.1642121223397295  1.4263095376541575
  0.0408283806941533  5.6466179647981756  2.8027769872114816
  1.4225680528238549  7.1048470861368918  4.2543683977035771
 -0.0028313397946252  5.6938939673341844  5.6889598843442917
  1.4220151124154432  7.1080117961986753  7.1083624013889279
 -0.0100265217608111  5.6968328463033355  8.5235600516324084
  1.4190955258136591  7.1128598618027494  9.9602906961183706
  0.0138697969157994  8.5578774809698075 -0.0000202141802593
  1.3358277208305271  9.8865881560160389  1.5074720401705446
 -0.0346985132272668  8.5140353606676911  2.8781319772500558
  1.4226743120432805  9.9631962266825962  4.2502445871669874
 -0.0047345926301785  8.5345958898153746  5.6874761448224733
  1.4195631873919652  9.9641291365572382  7.1179133350844399
 -0.0329871543812165  8.5077043076841541  8.4981362486806304
  1.3227123253411492  9.8710203255394671  9.8624036813032419
  4.3297962007222779  1.5244757617307461  1.5031129902710538
  2.8468984301005800  0.0025591975228312  2.8577966460567801
  4.2442843695810524  1.4455480121499897  4.2390817202405477
  2.8437797170412753  0.0009941237498404  5.6851340062534037
  4.2598762845726066  1.4290056774676936  7.1189088524427637
  2.8436174184174803 -0.0016191377290185  8.5102180491165065
  4.3263474070582486  1.5258929641426986  9.8913319123759997
  2.7725966563061766  2.9003999502992746  0.0707293324179223
  4.3102930360748237  4.2621464702497720  1.4188830349030266
  2.7866398958919221  2.8826781479416241  2.7708047497743529
  4.2471739530847490  4.2687616985872356  4.2500218887495764
  2.8432365974324396  2.8503070514832194  5.6862855726682264
  4.2530075908356686  4.2670661687664602  7.1118829512355459
  2.8461811792456686  2.8282634714810899  8.5449157877438235
  4.2488915271486176  4.2635302233396342  9.9688960976352519
  2.7935487479892855  5.6509810894051995  0.0501244157233550
  4.2575893851890045  7.1128165673666963  1.4243237952967713
  2.7930672712374016  5.6400794675900912  2.7913115187496103
  4.2453447473220320  7.1016416884887885  4.2466462457927827
  2.8468961719516606  5.6968310033472624  5.6882688509161365
  4.2600699583112078  7.1125126065343220  7.1116551478780519
  2.8466149919009038  5.6992288273158040  8.5263960617856949
  4.2524718751530584  7.1108600862032754  9.9652217295886185
  2.8461815183948356  8.5101754998565902 -0.0024532137791451
  4.3555205063379701  9.8711245169202346  1.5209979787417334
  2.8437012993764581  8.5578775748656852  2.8295822222394951
  4.2632623609524307  9.9616699835571492  4.2509759509389209
  2.8428484979254800  8.5360434489164128  5.6890725510642790
  4.2650814127526067  9.9628327548420739  7.1201315748750416
  2.8405224445585322  8.5510629533550944  8.5435824877298092
  4.3763654068347781  9.8512628017620685  9.8411812464351076
  5.7076849899236750 -0.0017558589673331 -0.0003154994480352
  7.0951875972486844  1.4294309954282021  1.4192121724625342
  5.6667591382477882  0.0059365696201516  2.8268036603585713
  7.1060369929994289  1.4280528285899916  4.2595581291440610
  5.6800443584671960  0.0114838442470925  5.6777748269389585
  7.1070467039145093  1.4272337363484637  7.1105768645709775
  5.6659815145227270  0.0135520085533311  8.5517148798112199
  7.0987096754209942  1.4290279840739033  9.9576877402888293
  5.6725416955608772  2.8281669923978661 -0.0024612004685293
  7.1069962520851595  4.2712066932476294  1.4198119424324041
  5.7175023009124875  2.8730416341673259  2.8754565090580329
  7.1168972106631916  4.2779146570842670  4.2676078905653885
  5.6892109730458200  2.8527949170062641  5.6869023630177722
  7.1184466263358201  4.2785337437111846  7.0992336032553203
  5.7135424864394349  2.8755887902202470  8.5041296760234619
  7.1058052796610820  4.2669883933216521  9.9647043029760543
  5.6914184810063553  5.6990545153254626 -0.0031171462288746
  7.1092762452519489  7.1079901496757758  1.4215258534781250
  5.6941760201185065  5.6969261767172368  2.8536424560649274
  7.1202464014049394  7.0990652062869009  4.2740082174847913
  5.6824223086165517  5.6901868111628202  5.6850773901218359
  7.1236805355736301  7.0968997745282341  7.0940272077541433
  5.6926801229462995  5.6919103700446225  8.5250603608184417
  7.1060918853775146  7.1125582548663608  9.9576813537682902
  5.6740855327242778  8.5510503487523568  0.0030565235087112
  7.0998329872455654  9.9642207068539701  1.4240494712465379
  5.7196161701158781  8.5077180627906763  2.8765746461716590
  7.1065158980177969  9.9677748471759795  4.2618326770902000
  5.6852067315463009  8.5264309797165669  5.6805737715861051
  7.1073803704072063  9.9685626720866978  7.1102626285238708
  5.7193494656743082  8.4951486092828414  8.4983625459073036
  7.0975378012383299  9.9627293401343628  9.9526827824498394
  8.5325381612719120  0.0010721634042297 -0.0001769386466176
  9.9692291325375866  1.4361206308562229  1.4229896395653587
  8.5309279453522322  0.0036872942613618  2.8462237973184208
  9.9717962215272671  1.4451735241237154  4.2459910230927269
  8.5379432104421493  0.0121178305628820  5.6797768202186472
  9.9581656553930848  1.4280082298922485  7.1117711628606903
  8.5398923838419183  0.0114325912562843  8.5376586540861492
  9.9784643845676264  1.4456324970288941  9.9733480616939847
  8.5314741592921184  2.8502896987686808  0.0000617425276035
  9.9130233893622126  4.2727726585816317  1.4190416030740711
  8.5298937469354268  2.8505231625197980  2.8491070776211220
  9.9529745601814508  4.2798917621706174  4.2646246601569855
  8.5315215080236904  2.8473527340561486  5.6861261344345220
  9.9501448104665755  4.2779987516707862  7.1008182438849774
  8.5307809096998852  2.8528332206933773  8.5283047151543840
  9.9677198979622972  4.2687950052690873  9.9704136116074995
  8.5294668701853986  5.6968188050226249 -0.0032523387806412
  9.9633622167516798  7.1047073349560961  1.4209644986439143
  8.5286899215809271  5.6938181517958171  2.8464225186044230
  9.9574548704431116  7.0905609955383833  4.2602385194145809
  8.5331527346359426  5.6866835396827646  5.6846041401810572
  9.9437663034046047  7.0990032799215825  7.0975168647194513
  8.5325747233165607  5.6901387781873041  8.5353273303378074
  9.9711464112701904  7.1015764579884602  9.9724149625487986
  8.5286243078222892  8.5360982983841449  0.0006670974256380
  9.9674556947001260  9.9631549154920886  1.4208073438574396
  8.5302159070156982  8.5345270305491425  2.8482576349499626
  9.9549711097341831  9.9655842707606936  4.2626868268586566
  8.5370223195337918  8.5351584903755189  5.6807504035159724
  9.9558748699358155  9.9677559082759828  7.1112542962244447
  8.5371138173793568  8.5264010362997222  8.5325206400169602
  9.9667228267056931  9.9616346439528503  9.9543760119253832
  2.8685998561603907 -0.0561766228289989 -0.0249971608837340
