Fe Mo
 1.0000000000000000
    11.3961246756498031    0.0000000000000000    0.0000000000000000
     0.0000000000000000   11.3931706472068530    0.0000000000000000
     0.0000000000000000    0.0000000000000000   11.3961246743710642
 Fe  Mo 
 126   2
Cartesian
 -0.0109587188253503  0.0035064909370986 -0.0001322338988399
  1.3933380627207383  1.4575011878658237  1.4561179599803653
 -0.0076030333141963  0.0030668727864490  2.8567133876130608
  1.4238057619085502  1.4242207823937800  4.2698178708788745
  0.0064587805676410  0.0033518136493344  5.6952916749677698
  1.4225344367731190  1.4324528371234500  7.1246014966324731
 -0.0052391470595196  0.0017818773134572  8.5407371385706252
  1.3823496858291773  1.4508278796966858  9.9318692987740782
 -0.0397400122796898  2.8216111121837582 -0.0421660506303562
 -0.0486851999594961  2.8255953751329499  2.8974833600807304
  1.4251513720436890  4.2715667635889263  4.2802735473780178
 -0.0057439868414140  2.8502625060953681  5.6960389152021991
  1.4257720614910343  4.2703589039850520  7.1239331664628658
 -0.0124937009365825  2.8567863919147278  8.5409842028474756
  1.4243832438694903  4.2689325164666343  9.9606503346040345
 -0.0309293590361449  5.7326807554473662 -0.0345794417076917
  1.4245280544629242  7.1334602385025541  1.4244904857065257
 -0.0369180481868887  5.7289387541800219  2.8859568866887129
  1.4230628898331641  7.1270728580068976  4.2779976656423173
  0.0030127686454562  5.6974761174410222  5.6944415135360131
  1.4239748999660009  7.1164184083851092  7.1244892834895568
 -0.0063047778796128  5.6979891686912536  8.5472726057334150
  1.4226663906686225  7.1314882359991811  9.9645677902496033
 -0.0070414290919698  8.5341212538980926 -0.0018494801948685
  1.3908506397758356  9.9368350801183460  1.4582073126474868
 -0.0122894378725057  8.5282331057269296  2.8613190509939614
  1.4213023376525940  9.9671581358982646  4.2648122443676417
 -0.0047190732841029  8.5390141653374716  5.6971812044816899
  1.4224550671275351  9.9671342735853674  7.1264081123626166
 -0.0125357449093462  8.5306022895570539  8.5363089421557579
  1.3899363156714166  9.9329289064891331  9.9406798870220356
  4.3136041273813310  1.4507249935358442  1.4662521775784827
  2.8492291120652697  0.0033271428316817  2.8599487837921900
  4.2861177669111781  1.4155910338609530  4.2795430719949641
  2.8477635888722390  0.0021001242560038  5.6967221994607122
  4.2791475241707220  1.4222345529499387  7.1245057219354626
  2.8483019766233251  0.0008530399204287  8.5404601941113150
  4.3219988966092595  1.4468437197838322  9.9229235407407881
  2.8806337056158613  2.8149377157649922 -0.0311775468036370
  4.2844641694019385  4.2691116031651646  1.4247135838182263
  2.8907678568864177  2.8217140334643296  2.8890886579212149
  4.2787028737017669  4.2706889286014418  4.2798334795802369
  2.8508816406904369  2.8398753752772246  5.6960772513549678
  4.2670581543109467  4.2690847153059366  7.1253235796135002
  2.8498333697413374  2.8482334425641076  8.5508149603621391
  4.2812292405069767  4.2693721031803173  9.9640061118436805
  2.8827227970592464  5.7287746348004012 -0.0336651866744777
  4.2807477681829589  7.1315865845854765  1.4263561076565097
  2.8835518208633046  5.7327971695483768  2.8799337805994925
  4.2861100257273055  7.1350341137530213  4.2844187677198358
  2.8511632394023758  5.6983789039313528  5.6942773564752374
  4.2782432736096592  7.1266066797437047  7.1235241024661802
  2.8521890474433915  5.6985623205593958  8.5558524240292542
  4.2858347700330812  7.1373767260847023  9.9593196059703484
  2.8490060154733481  8.5321494699866296  0.0000125200215130
  4.3044489525947709  9.9328125278085899  1.4590362470048488
  2.8508718402687632  8.5340229701780483  2.8562321920909630
  4.2798346423145244  9.9674328711943829  4.2734222125618162
  2.8495271156362634  8.5491716535466153  5.6961449044193335
  4.2705663140283132  9.9682052303827540  7.1262330299340721
  2.8504294350690427  8.5384881952911940  8.5427152771404806
  4.3104724620916244  9.9366707821934668  9.9346910629632177
  5.7047893772478142  0.0008721308262861  0.0006357330155268
  7.1205925020900738  1.4325636581575745  1.4263660582243398
  5.7043490652914732  0.0017501700246721  2.8541873285525985
  7.1210041680609972  1.4206453774294967  4.2769152560603274
  5.6976297678282322 -0.0046454951226842  5.7028291712272798
  7.1219644070144925  1.4281135420975686  7.1231594423029074
  5.7085549618880576 -0.0069019123913099  8.5366025275016408
  7.1205546632254499  1.4221768275801581  9.9658652102629048
  5.6943333205746800  2.8482181296673725 -0.0007096711994373
  7.1212383027512907  4.2703387961705275  1.4232480109390642
  5.7040588433752220  2.8568478657020839  2.8616023119941607
  7.1273450072116287  4.2770843306035751  4.2731142005512091
  5.7014309840803348  2.8517937545937988  5.6964885507037604
  7.1280783334658047  4.2771693319113497  7.1170620643805576
  5.7079722302295943  2.8591951289511535  8.5371376673122050
  7.1198075087698109  4.2690869823252156  9.9780676246015538
  5.6893277190610547  5.6984517459041824 -0.0032133383819616
  7.1206605254749800  7.1164380975934316  1.4250114919644814
  5.6979376091840779  5.6981770361337780  2.8553193404678603
  7.1283352900069934  7.1184368196535974  4.2835591640693931
  5.6923563946639870  5.6954357458465115  5.6978974557648465
  7.1282539605615094  7.1111838030424250  7.1169519597127486
  5.7012562872569266  5.6970814013583819  8.5438980404315021
  7.1216964467606507  7.1265955092515947  9.9668902111681792
  5.7025131534084261  8.5385365110865905 -0.0014529000403789
  7.1187929225471649  9.9672307272776504  1.4266477316565862
  5.7089344408974050  8.5305753799504860  2.8615946946659392
  7.1224129349130383  9.9701738367265627  4.2678408292192138
  5.7080748044227185  8.5471728892676069  5.7038194941752423
  7.1221343327327009  9.9703472562597035  7.1229938110656752
  5.7151861165556186  8.5392635801303776  8.5299894687520368
  7.1189571230613886  9.9681335773543402  9.9746217616867749
  8.5484488511459098  0.0020801662475602  0.0012565858552393
  9.9753305845069065  1.4242052205506446  1.4253180849405565
  8.5498390617632722  0.0033544305989459  2.8425421619931677
  9.9616529073788485  1.4132437626189951  4.2834565634562818
  8.5415776790157771 -0.0047301378596277  5.7035628539061030
  9.9682053696177242  1.4206706195546754  7.1241267100150223
  8.5423055412364679 -0.0046139425502367  8.5474778364258626
  9.9654998811304090  1.4156526788978023  9.9591153220782509
  8.5491169263465867  2.8399859974474913 -0.0019814732220394
  9.9649756713597402  4.2715860586148855  1.4237864108877070
  8.5490210250317045  2.8502047756955671  2.8546321371443462
  9.9611180609072250  4.2793410843019588  4.2840391154765989
  8.5476749743941269  2.8443251653932640  5.6974488182667073
  9.9719935636919637  4.2770527891234762  7.1177903094746791
  8.5486423097009361  2.8517683834612573  8.5436898840244897
  9.9652529133183450  4.2706572153932827  9.9663697977152399
  8.5509237399120792  5.6984751856799187 -0.0020604113599439
  9.9672309252306288  7.1271217007171606  1.4259138406503375
  8.5507486813832507  5.6974044455460353  2.8460509701263113
  9.9545051637616080  7.1263457640552392  4.2906703946279148
  8.5475092825538130  5.6952624374849554  5.6976187491378143
  9.9616061550425101  7.1184147669081463  7.1168864409676669
  8.5472859129466503  5.6954133786204899  8.5527753710490355
  9.9608247319368015  7.1350073368663507  9.9590735821266616
  8.5490047234413140  8.5491913712643139 -0.0005408727158066
  9.9803679155762257  9.9670474450424500  1.4276731612456268
  8.5480395726732219  8.5390027881724819  2.8537279586232684
  9.9684133399705566  9.9685283955392094  4.2767406062941937
  8.5414671910757285  8.5544260288784830  5.7037382359953241
  9.9772910997702517  9.9701961688925245  7.1227703584500404
  8.5414019114648632  8.5471949653736861  8.5370904716410454
  9.9717882750097928  9.9676202957254283  9.9653042145615149
  2.8553924026127504 -0.0002992758129203 -0.0063586269137911
  1.4181572429659379  4.2727383138827495  1.4308769891795745
