Fe Ta
 1.0000000000000000
    11.3926232431233547    0.0000000000000000    0.0000000000000000
     0.0000000000000000   11.3926232365971583    0.0000000000000000
     0.0000000000000000    0.0000000000000000   11.3926232472839217
 Fe  Ta 
 127   1
Cartesian
 -0.0090133991958535 -0.0000000145667093 -0.0000000661066527
  1.3618086140876122  1.4863471101499244  1.4863470741736828
  0.0159408083256743  0.0000000079504570  2.8322150019985792
  1.4242779743134473  1.4239993283674783  4.2652413090821497
  0.0003797891052723 -0.0000000066077331  5.6963116202917350
  1.4241565040753723  1.4238778127646814  7.1273818828394155
  0.0159408420387102 -0.0000000232511818  8.5604081558038807
  1.3618087088803768  1.4863470845414855  9.9062761815246159
  0.0159407080223681  2.8322150203287344 -0.0000000078109754
  1.4241564570851317  4.2652413525920796  1.4238778343672698
 -0.0177990445240549  2.8659548884546506  2.8659548941934014
  1.4258403503484141  4.2707969450401482  4.2708092090252316
 -0.0053595591982620  2.8535153876325028  5.6963115611923927
  1.4258403531518242  4.2708092362538963  7.1218263212143826
 -0.0177990588766748  2.8659548895739073  8.5266683854362864
  1.4242780207419805  4.2652413459566523  9.9686239527705993
  0.0003798541192213  5.6963116435081780 -0.0000000177398933
  1.4242779448133169  7.1273819402362735  1.4239992910906050
 -0.0053596020688209  5.6963116185296263  2.8535154051427494
  1.4258403939990192  7.1218140692240723  4.2707968872567710
  0.0029463963505848  5.6963116683659871  5.6963116296155034
  1.4258403967947693  7.1218263695469100  7.1218140634260694
 -0.0053596121372863  5.6963116223816828  8.5391078389831065
  1.4241565412047457  7.1273819139544337  9.9687454199736898
  0.0159408165116819  8.5604082118630487 -0.0000000490152018
  1.3618086703008381  9.9062761158726325  1.4863470795276117
 -0.0177990590580643  8.5266684078344497  2.8659548523335294
  1.4241565416882289  9.9687454373455999  4.2652413648171166
 -0.0053595303248481  8.5391078192835899  5.6963116532024642
  1.4242780610117705  9.9686238749784657  7.1273818787043881
 -0.0177990752518693  8.5266683647001038  8.5266683015883977
  1.3618087222640032  9.9062760975963791  9.9062761621338922
  4.3345028792831153  1.4863470774985814  1.4863470785911064
  2.8481558457316725 -0.0000000027885330  2.8571691808956672
  4.2721551628215488  1.4238778026430199  4.2652413596912435
  2.8481558446510857  0.0000000592337977  5.6963116443676354
  4.2720335871130830  1.4239992957241578  7.1273818906969693
  2.8481558065729518  0.0000000144535664  8.5354540682712621
  4.3345028763687798  1.4863470063876005  9.9062762146994530
  2.8481558402538196  2.8571692178389503 -0.0000000286187933
  4.2720336401074741  4.2652413371343432  1.4239993846514436
  2.8481557682731236  2.8322149830204078  2.8322150563870614
  4.2704712123661341  4.2708091596337896  4.2707968786979462
  2.8481557796131862  2.8477759670683049  5.6963116227078503
  4.2704712027457541  4.2707969322708337  7.1218140133670733
  2.8481558702599146  2.8322149864528345  8.5604081822718676
  4.2721551755854481  4.2652412911517947  9.9687454577957073
  2.8481558336359858  5.6963116456966780 -0.0000000392720487
  4.2721551387622174  7.1273819015189863  1.4238778584476390
  2.8481558043014421  5.6963115944281109  2.8477759455657696
  4.2704712698088825  7.1218263446632388  4.2708091643663897
  2.8481558827754148  5.6963116507510874  5.6963116168432304
  4.2704712569062302  7.1218140756656618  7.1218264298237415
  2.8481558220386090  5.6963116619898777  8.5448472744500705
  4.2720336440214979  7.1273818961662627  9.9686238954653810
  2.8481558082326646  8.5354539559853357  0.0000000105385130
  4.3345029151737480  9.9062761085971456  1.4863471174978700
  2.8481558051848928  8.5604082701524238  2.8322150620605977
  4.2720336240519980  9.9686239218796224  4.2652413467093151
  2.8481558238284692  8.5448472513707525  5.6963116534785234
  4.2721551363026729  9.9687454236556388  7.1273819623565391
  2.8481558348396785  8.5604082235882490  8.5604082672999322
  4.3345029278992220  9.9062761246761415  9.9062761927254996
  5.7053250637477912  0.0000000087758382 -0.0000000372374348
  7.1133971737488721  1.4239993992887892  1.4238777512669121
  5.6803708184045520  0.0000000051304326  2.8322150385119413
  7.1189526938594678  1.4223153871630072  4.2708091666438630
  5.6959317741997300 -0.0000000613395969  5.6963115956653576
  7.1189649972011519  1.4223154035754531  7.1218263383500284
  5.6803708499459882 -0.0000000506339253  8.5604082188618928
  7.1133971192441550  1.4238778093606512  9.9686238838699808
  5.6803708260623651  2.8322150362344480  0.0000000114849378
  7.1189650176568007  4.2707969269535484  1.4223153721558714
  5.7141107383059060  2.8659548426482835  2.8659548585268064
  7.1272737850228793  4.2791180416520902  4.2791180350131510
  5.7016711784797476  2.8535153759507699  5.6963116686169499
  7.1272738299412444  4.2791180057853948  7.1135052054750574
  5.7141105966745558  2.8659548400295347  8.5266683589151953
  7.1189527047576888  4.2708092094897818  9.9703078073710660
  5.6959317608384801  5.6963116377289902  0.0000000190890841
  7.1189526794929288  7.1218140730141188  1.4223154253995125
  5.7016712180753872  5.6963115768328265  2.8535154009827193
  7.1272738043687260  7.1135052236807175  4.2791179919787830
  5.6933651821903100  5.6963115871054155  5.6963116289415776
  7.1272737917800653  7.1135052501996485  7.1135052420442140
  5.7016711943148968  5.6963116369004965  8.5391078544215411
  7.1189649491044440  7.1218263740113947  9.9703077715019788
  5.6803708029270075  8.5604081759072450  0.0000000253202705
  7.1133971482261487  9.9687454499860415  1.4239993405078613
  5.7141106723655506  8.5266684307800240  2.8659548991520123
  7.1189650448085073  9.9703078129114715  4.2707968509384049
  5.7016711902566310  8.5391078392702671  5.6963116273785372
  7.1189527354219848  9.9703077955174617  7.1218140490824711
  5.7141107667569466  8.5266683746493790  8.5266683740010603
  7.1133970944374294  9.9686238662956033  9.9687454366466302
  8.5444674306157911 -0.0000000122631529 -0.0000000170469274
  9.9755378308891967  1.4238778393446418  1.4239992815699092
  8.5444674351464691  0.0000000319759280  2.8477760139989221
  9.9699698754480259  1.4223154439323276  4.2707968752873890
  8.5444674662777800  0.0000000319925599  5.6963115547449927
  9.9699821239919881  1.4223154107184743  7.1218140977181310
  8.5444673770964616 -0.0000000254164472  8.5448472548387411
  9.9755377262855660  1.4239993820521564  9.9687453809078548
  8.5444674377790548  2.8477759648701655 -0.0000000072956840
  9.9699821881025255  4.2708091449330281  1.4223154189938774
  8.5444674338393796  2.8535153697096054  2.8535153659105266
  9.9616610200180347  4.2791180133243660  4.2791180828193536
  8.5444673715871922  2.8452093653246808  5.6963116272230430
  9.9616610631511655  4.2791180637556145  7.1135052160199406
  8.5444674476571176  2.8535154523584128  8.5391078887934526
  9.9699698670174381  4.2707968630414346  9.9703077851651258
  8.5444674633329178  5.6963116447883344 -0.0000000076925833
  9.9699698941020731  7.1218264064809347  1.4223154370590521
  8.5444674112537822  5.6963116748853242  2.8452093358197139
  9.9616610049211705  7.1135052602861375  4.2791179827561772
  8.5444673865929328  5.6963116270385532  5.6963116289056748
  9.9616610340399419  7.1135051907133162  7.1135052357841690
  8.5444674245203700  5.6963116180354101  8.5474138569565650
  9.9699821474132158  7.1218141118869829  9.9703077738509585
  8.5444674375535996  8.5448473045705260 -0.0000000087626476
  9.9755377258042426  9.9686239411645321  1.4238777979249173
  8.5444674639537723  8.5391079207990881  2.8535153925644505
  9.9699821902722281  9.9703078481703216  4.2708091744754864
  8.5444674469916464  8.5474139228455073  5.6963115416591314
  9.9699698717250627  9.9703078076803564  7.1218263569984206
  8.5444674179128661  8.5391078836181187  8.5391078173739174
  9.9755376793260293  9.9687454605265238  9.9686238273661516
  2.8481557817644525 -0.0000000493212021  0.0000000131200575
