Fe Pd
 1.0000000000000000
    11.3956153973873828    0.0000000000000000    0.0000000000000000
     0.0000000000000000   11.3957264450723041    0.0000000000000000
     0.0000000000000000    0.0000000000000000   11.3956365887353872
 Fe  Pd 
 126   1
Cartesian
  0.0150937431145248 -0.0050325572989335  0.0000115434392786
  1.3979300640414354  1.4284500349952973  1.4509754488963995
 -0.0061449920274521 -0.0028566101072791  2.8550624844482120
  1.4205334072245794  1.4396272856646581  4.2617290741409670
  0.0000431857097294  0.0010515628831638  5.6965096164375266
  1.4210432290227930  1.4349545430487083  7.1272097752051922
 -0.0060567797066122 -0.0002742083785968  8.5432713746740117
  1.3998714521788744  1.4632026714641104  9.9632366324975656
  0.0504115151294046  2.8979850863133980  0.0543769732501997
  0.0384416717812693  2.9191136744833832  2.8105475160805695
  1.4235578442237848  4.2860404170767366  4.3192652999574372
 -0.0043311012071959  2.8526399311532953  5.6966387526992435
  1.4216079629619707  4.2838628297450185  7.1120999182213893
 -0.0186845478740930  2.8680194177997023  8.5288747944332073
  1.4224551088507069  4.2731975387045527  9.9321545034618932
  0.0534946805088266  5.6511628352070424  0.0502361937585552
  1.4204809788030681  7.1789494843664592  1.4287174929202613
  0.0473049987345345  5.6473504180813947  2.8016305239244570
  1.4196550017548171  7.1001868806788613  4.2706480883214626
  0.0043678798092776  5.6990062819273852  5.6996410693527011
  1.4205509042843254  7.1043956953743495  7.1111180944611583
 -0.0069352854862837  5.6979542524388291  8.5399610590404489
  1.4177227769305796  7.1213567405173688  9.9786042476328998
 -0.0082239124284393  8.5520992495541570 -0.0002927908205513
  1.3927527372959787  9.9446279121592891  1.4562082112641552
 -0.0259254052074315  8.5311340469677202  2.8747610661571765
  1.4175869866024144  9.9660817405921822  4.2592720667310546
 -0.0063298661042325  8.5397681948622441  5.6972776548316677
  1.4175872798874565  9.9665781600613297  7.1256651392029102
 -0.0242362385212377  8.5246962107103172  8.5216740902632431
  1.3891975886396255  9.9400988439551270  9.9399118824303621
  4.2812691432436081  1.4630791148772060  1.4489296256098241
  2.8488525239472100 -0.0049123725070148  2.8337742583403571
  4.2627181849323765  1.4451982505773566  4.2553896746064019
  2.8471862948228566 -0.0006110807336719  5.6943072374685606
  4.2718753227235933  1.4315186616360729  7.1296449627542229
  2.8452421071855047 -0.0047277287116279  8.5683443362513501
  4.2866594071795836  1.4620327990945350  9.9577371060079933
  2.7925810768999937  2.8809010424827726  0.0563603467199268
  4.3121475441466091  4.2732669817595461  1.4267550529742201
  2.7943092411341364  2.8979393945162997  2.7985136813594660
  4.2618180303833437  4.2826069173522399  4.2686883061553269
  2.8504774703646674  2.8472167521554357  5.6978655860034815
  4.2661569009815086  4.2830271130120083  7.1156966550765750
  2.8492806662857699  2.8482291018689243  8.5449625061776455
  4.2626949534839058  4.2701882868405940  9.9820585020773827
  2.7983897629865448  5.6546361900921909  0.0505359482601961
  4.2660739578818170  7.1214523343965999  1.4309596456731026
  2.7986086757647448  5.6512465062483619  2.7955113566405263
  4.2610430114276712  7.0955250547049094  4.2663383756256543
  2.8512364150245175  5.6994126460326999  5.6989635459961780
  4.2726434191546199  7.1077250639112313  7.1127401645997503
  2.8485230786814255  5.7012685605027169  8.5448866889448354
  4.2609436391944024  7.1117786030933532  9.9834948652189102
  2.8473539126184590  8.5734952757567502  0.0015814103455287
  4.3045251265807440  9.9404239395376166  1.4597287533927843
  2.8492089701410288  8.5521146072436132  2.8573195689856075
  4.2770861553877175  9.9671338999951757  4.2646174194900315
  2.8475009066475394  8.5459816985981671  5.6965263461533509
  4.2766741190811661  9.9673125153508089  7.1245113669592461
  2.8474968092988413  8.5436713874211403  8.5401247650879206
  4.3042331238568021  9.9424462797999471  9.9403713289127893
  5.6761689288031603 -0.0047946990619514  0.0035274888817579
  7.1174080278238501  1.4351694681087048  1.4275485607627501
  5.7013023439558888 -0.0002054606328226  2.8549251565146663
  7.1315763172528488  1.4359624358026661  4.2783482903120298
  5.6933105535992912  0.0082936853055980  5.6916962712542256
  7.1329582799016826  1.4342086220771579  7.1116591087502874
  5.7010066797043377  0.0061253419591722  8.5435629910719424
  7.1148817724125308  1.4313216214149111  9.9723353230989069
  5.6995595036511224  2.8480799169688455 -0.0002168901151212
  7.1324756480075386  4.2837140609764441  1.4273260812122877
  5.7155161804866648  2.8679621583452830  2.8677169754660694
  7.1293866669890633  4.2806388406982387  4.2728587623499781
  5.6996529790986799  2.8565443994772650  5.6988055004183193
  7.1315229009268517  4.2829762330287604  7.1130416262435716
  5.7166699502661684  2.8726872169836648  8.5279084024291780
  7.1287404141329507  4.2830517102033907  9.9783844349730622
  5.6996676807889948  5.7011016145641307  0.0003284299493087
  7.1332945960684526  7.1042971317451435  1.4283709678132590
  5.7045471892892623  5.6980557198832527  2.8557858686349813
  7.1332832730950519  7.1048768443996941  4.2808340594492673
  5.6896793595383537  5.6947030777664214  5.6960098165813706
  7.1348273918203029  7.1061013762025134  7.1097136891188439
  5.7033939876486652  5.6962711408703433  8.5411586239738480
  7.1318698063582620  7.1077938587508722  9.9719639359282937
  5.7044007476359546  8.5435913475937628  0.0015326456369130
  7.1188813729036564  9.9668455593217722  1.4314584506043615
  5.7228243899673554  8.5248347460463805  2.8730772254124664
  7.1342005704018439  9.9689334362835780  4.2833333519569958
  5.6975444304304332  8.5330987423786624  5.6911893871661370
  7.1352920904379324  9.9666429326851702  7.1091947905361925
  5.7155982738348454  8.5172170367421209  8.5289588023566054
  7.1200894520206139  9.9670676068458253  9.9680793533522234
  8.5502642595404073 -0.0005221078748638  0.0017215125955020
  9.9828415982410874  1.4394965590436113  1.4284753344653300
  8.5480272949506926  0.0010308582013612  2.8488633028250376
  9.9755865817099423  1.4480750811436247  4.2688817831260764
  8.5534370548501126  0.0112410006758810  5.6910814481330423
  9.9662166633673159  1.4359413238538388  7.1129374340372600
  8.5528888696963481  0.0082521476464787  8.5512429836932693
  9.9892370716836538  1.4454037523194789  9.9820599130899605
  8.5467292697256525  2.8472841325646945 -0.0017751759568279
  9.9253687999989086  4.2860291833804478  1.4253402956762653
  8.5478315121085267  2.8525670306879110  2.8530933370910305
  9.9769770017945749  4.2811854844659809  4.2675370256844758
  8.5477915865875698  2.8465879109913423  5.6966672513181811
  9.9716356185398194  4.2806959001417537  7.1150908773630634
  8.5457780926133413  2.8565496718529748  8.5448097079978957
  9.9758172970128101  4.2825153436602248  9.9826640296677578
  8.5455939866720811  5.6994027929989093 -0.0022691239685008
  9.9738707739294625  7.1001520240570679  1.4292157672169181
  8.5448530444623358  5.6988792280314904  2.8445892975182736
  9.9768463710412210  7.0927305945933794  4.2676231804414879
  8.5496080217158248  5.6908319252978190  5.6949190619206425
  9.9636477592993131  7.1048515956335958  7.1112297671551685
  8.5485094359159106  5.6946911614697706  8.5549409614940135
  9.9783120635689766  7.0954384713218488  9.9835304646663889
  8.5480675710499163  8.5460141594072354  0.0014486037499915
  9.9852945579706898  9.9658681040625936  1.4311351876796810
  8.5471701029404983  8.5397218598834588  2.8551714586351884
  9.9634180647637152  9.9690937296264952  4.2811410775763967
  8.5548770229373865  8.5433361800749879  5.6896209517415608
  9.9611168752500738  9.9688804791361196  7.1103799049299719
  8.5533580788631252  8.5330633598140153  8.5470104086775933
  9.9799401306160522  9.9672237436818154  9.9673305268044068
  2.8479327164150243 -0.0244037602772613  0.0008309011745909
