Fe V 
 1.0000000000000000
    11.3705297200861448    0.0000000000000000    0.0000000000000000
     0.0000000000000000   11.3797543823646379    0.0000000000000000
     0.0000000000000000    0.0000000000000000   11.3705297276702346
 Fe  V  
 126   1
Cartesian
  0.0347024445391053  0.0153198143104422  0.0000868186395701
  1.4595689699368848  1.4800967749460081  1.3833771138880238
  0.0235984653394868  0.0125356818333575  2.8190440592726844
  1.4198129854202088  1.4189861558844408  4.2563645643288419
  0.0065793483022084  0.0048690134755424  5.6852884038266183
  1.4198171149071981  1.4188469898120646  7.1142759286720594
  0.0235876643494956  0.0125352990538845  8.5514961973357337
  1.4592576145471523  1.4800952926914355  9.9874665221317258
 -0.0364084931326324  2.8408445984669153 -0.0001128308394467
  1.4758925354609531  4.2095907117324236  1.3666265403912610
  0.0041718583194426  2.8536304841558935  2.8384850677563231
  1.4200791398023729  4.2732797751800593  4.2675040922107872
  0.0090557558554954  2.8441158324977165  5.6853036959358043
  1.4200759252357891  4.2731476091808771  7.1029842205231537
  0.0041462159309100  2.8536321341980715  8.5320693426626804
  1.4760020163002963  4.2095912868456731 10.0037940149127991
  0.0134335512414275  5.6788075278822685 -0.0000067865974467
  1.4157274137006239  7.1197334601744231  1.4270519437477318
  0.0170036548648271  5.6725736790838788  2.8256326864955770
  1.4208185158665378  7.1089468767369421  4.2675915765169963
  0.0065137311885763  5.6848407320413434  5.6852679973480580
  1.4208102214328004  7.1087801887066711  7.1029400340240567
  0.0169991173531764  5.6725726847951190  8.5449016590299163
  1.4155820046307985  7.1197335823883670  9.9436251302855485
  0.0099268667756536  8.5390425569117454  0.0000429172049904
  1.4113855609275143  9.9402066673744329  1.4313451323418134
 -0.0005903269064728  8.5325434632181558  2.8431770192022210
  1.4254985080489593  9.9583806280622209  4.2575429511731366
  0.0023024362385703  8.5362255587484395  5.6852308479576665
  1.4255401769591209  9.9582066408038248  7.1129729042491769
 -0.0005456761989674  8.5325433290521335  8.5273076487215214
  1.4112869699307411  9.9402075562700283  9.9392844556220421
  4.2260105747126833  1.4800990477161859  1.3830651618624434
  2.8427170468170675  0.0153214133487010  2.8079330625273986
  4.2654483833495505  1.4188484228538458  4.2562540709577688
  2.8426318516260149  0.0115559672461827  5.6852654829572007
  4.2654521774198679  1.4189869343450012  7.1141639102634304
  2.8425439985545276  0.0153218157359531  8.5625983468412059
  4.2256965345379314  1.4800979352651003  9.9871525663886747
  4.2092635608268560  4.2095913809723395  1.3667343961015777
  2.8425184751940695  2.8408404162123335  2.8790441911869480
  4.2651885326085939  4.2731479423551555  4.2675475548308892
  2.8426334719024822  2.8419158781488654  5.6852647721778844
  4.2651851323463479  4.2732796604489902  7.1030250710638994
  2.8427457091198778  2.8408411975147860  8.4914862243988125
  4.2093709960739023  4.2095920966488594 10.0039034380431655
  2.8426327235479953  5.7379268875847194 -0.0000007644784740
  4.2696836433660907  7.1197347210438338  1.4269043883379309
  2.8426243917027070  5.6788114666866161  2.8292021289228231
  4.2644537455057154  7.1087807435912884  4.2675904702239906
  2.8426328835210102  5.6821199849146549  5.6852647172304653
  4.2644462786799853  7.1089482565261104  7.1029371186325685
  2.8426385093204671  5.6788104542909652  8.5413292156277709
  4.2695365991857850  7.1197343793644610  9.9434794090091145
  2.8426337155194483  8.5423561050257870 -0.0000006686868179
  4.2739802852541589  9.9402037511402810  1.4312466785426203
  2.8426755987981975  8.5390415259234178  2.8327062406660786
  4.2597245363657139  9.9582047689405631  4.2575574564968699
  2.8426342150508148  8.5352508344000846  5.6852649318264437
  4.2597671156085992  9.9583782916482413  7.1129859694760373
  2.8425906074143366  8.5390419477884922  8.5378240469589652
  4.2738795182926870  9.9402046664007209  9.9391837572290740
  5.6505643905640728  0.0153206684700105 -0.0000870713278480
  7.0989958250863259  1.4189873791898655  1.4228215234793720
  5.6616771532317793  0.0125358194761384  2.8190331101682005
  7.1087678725524874  1.4229569980138594  4.2661290569887038
  5.6786859804692771  0.0048693537571693  5.6852407494830128
  7.1087610343191807  1.4229564984703196  7.1043921392406615
  5.6616663966244962  0.0125356846715812  8.5514861844421741
  7.0988848472740402  1.4188486215938994  9.9477125244497397
  5.7216745703955221  2.8408442160073966  0.0001141847714733
  7.1101371091328938  4.2732783824311111  1.4225520129371665
  5.6811191239297543  2.8536297504259509  2.8384594165362360
  7.1074462420480975  4.2670131328978149  4.2647867880787160
  5.6762095834701158  2.8441157152852252  5.6852248747048062
  7.1074207334452701  4.2670132957058460  7.1057163628809219
  5.6810938162156459  2.8536305397079920  8.5320451806879092
  7.1101787695039844  4.2731467409657915  9.9479745031652218
  5.6718313318382876  5.6788078164656994  0.0000070911171952
  7.1102241544242224  7.1089483605103405  1.4218153924732104
  5.6682655186368258  5.6725739892073097  2.8256283264976401
  7.0983605687195492  7.1053802751449853  4.2557215045871768
  5.6787508048374660  5.6848404530869416  5.6852607281818326
  7.0983537589327783  7.1053809230895721  7.1147999606821939
  5.6682610104308990  5.6725731157218053  8.5448977866252172
  7.1102210989647050  7.1087808686066847  9.9487072665954646
  5.6753374237736844  8.5390426853271855 -0.0000426274258873
  7.1001768042419524  9.9583795874940897  1.4171338490879652
  5.6858098835286990  8.5325445255936110  2.8432217326708473
  7.1022700670758008  9.9656679402710271  4.2596958578675981
  5.6829617072556529  8.5362256150232945  5.6852986209551180
  7.1023300250437185  9.9656677452381199  7.1108928876714517
  5.6858543214567758  8.5325441916022857  8.5273530906658372
  7.1001904133263496  9.9582059282827533  9.9534381592704477
  8.5278981530924511  0.0115524059798777  0.0000001209406252
  9.9569085434848628  1.4188471300618675  1.4228180168900255
  8.5279226535303128  0.0048677106696058  2.8360529335525815
  9.9470339392166611  1.4229553992374413  4.2661363982302483
  8.5278977333735000  0.0032456200756617  5.6852659368136429
  9.9470251678758306  1.4229547667630660  7.1044004558000289
  8.5278745083469758  0.0048671232318424  8.5344757960698878
  9.9567973686442812  1.4189856054922001  9.9477077853151616
  8.5278957546712757  2.8419187919474536  0.0000002466633083
  9.9456158923676234  4.2731483011761311  1.4225555292422283
  8.5279359156859584  2.8441162414664105  2.8335765898112149
  9.9483755685149955  4.2670146435978396  4.2648135126341495
  8.5278957714409724  2.8409926576007534  5.6852654034822310
  9.9483473651786607  4.2670148121196299  7.1057443198972541
  8.5278574471314332  2.8441172549716738  8.5369525237222437
  9.9456578819581036  4.2732803547085645  9.9479759059267394
  8.5278974434561885  5.6821175804474269  0.0000001941040794
  9.9455731789683828  7.1087802659410499  1.4218236996457201
  8.5279019657000710  5.6848404184059262  2.8361187603368139
  9.9574417431108451  7.1053797532002951  4.2557287886930135
  8.5278977005723373  5.6891899277696547  5.6852658039929409
  9.9574330697816649  7.1053800762805670  7.1148083435076792
  8.5278952246870023  5.6848393380176949  8.5344101348466594
  9.9455710491957063  7.1089474944990467  9.9487138876460222
  8.5278969343422126  8.5352532457756976  0.0000002175977918
  9.9556029759020923  9.9582058480065729  1.4170915869272229
  8.5278631388843174  8.5362271548205619  2.8403290442342115
  9.9534657363281642  9.9656685611144287  4.2596368264768163
  8.5278969146194559  8.5379021140626126  5.6852659173341502
  9.9535239025246351  9.9656683328655511  7.1108344899421914
  8.5279314864208207  8.5362273925864081  8.5301993887030996
  9.9556172825923230  9.9583801095732110  9.9533950185632651
  2.8426285521552233 -0.0502792846557828 -0.0000023571635459
