Fe Hf
 1.0000000000000000
    11.3779180321845761    0.0000000000000000    0.0000000000000000
     0.0000000000000000   11.3690044480861534    0.0000000000000000
     0.0000000000000000    0.0000000000000000   11.3779180293733937
 Fe  Hf 
 126   1
Cartesian
 -0.0200638143351830  0.0001391718850588 -0.0487925897166047
  1.2481469221353390  1.3945863903747397  1.5961811131437058
  1.3761740066505668  1.3593763595795594  4.2021408470068797
 -0.0024981197740912 -0.0001436271762694  5.7432092411163280
  1.4278995818227485  1.4218925201393469  7.1283502489609454
  0.0121733324083323  0.0000484822032015  8.5451584570536809
  1.3418030226417266  1.5016840037310162  9.8579922655331469
  0.0180883008158321  2.8020470493473448  0.0164461275426258
  1.4210580818093919  4.2451005846566350  1.4233742582737545
 -0.0438865022581549  2.9304122595496489  2.8884297101417697
  1.4299047980485153  4.2618932900635551  4.2669187294555648
 -0.0024578019519494  2.8308668372901202  5.6747398979457477
  1.4234650597134884  4.2609918475355215  7.1106061742877662
 -0.0250875521688764  2.8610673326391041  8.5051426339596627
  1.4211487608969871  4.2499637544937308  9.9591392871418218
 -0.0007385778241014  5.6845004926976781  0.0144753268387792
  1.4211048088132991  7.1239035431239968  1.4234214251540227
 -0.0068458958187876  5.6845020225894967  2.8513254633180987
  1.4300420155841671  7.1071913638754731  4.2666890636677834
  0.0059401031374471  5.6845589075409775  5.6777673819681311
  1.4234632158791112  7.1080567837726383  7.1106875657038700
 -0.0024576832726619  5.6845693915594477  8.5306186833492816
  1.4211311689780743  7.1190539733850802  9.9592411776535137
  0.0181788439683428  8.5667677699475853  0.0165029293098400
  1.2482979329617940  9.9744179921105474  1.5963322514532672
 -0.0439504452406024  8.4385920206732390  2.8883662090540163
  1.3760639623182271 10.0095267529567771  4.2023438167715561
 -0.0025646728207758  8.5379894214219831  5.6748703907932621
  1.4278382298465966  9.9467910543031817  7.1283420151289256
 -0.0252749600840559  8.5079407994350760  8.5053032182169730
  1.3417144231788476  9.8674059745686566  9.8579443447643413
  4.3644532636815816  1.5015989662276108  1.5027652048886615
  2.8932723237355784 -0.0001394489383759  2.8645433723157692
  4.2756117069047415  1.4234650224610284  4.2588201520124835
  2.8363410340266073 -0.0001149074513717  5.6808013738233285
  4.2713428032526064  1.4232152730404777  7.1203725367080795
  2.8496862757347112 -0.0001075337891348  8.4957147823055870
  4.3550572026888013  1.5212552209567352  9.8672804410163621
  2.8176681498901024  2.8305125669528572  0.0267286058545230
  4.2631564311218151  4.2499500984578180  1.4233486513896110
  2.8279771743218070  2.8022374344813881  2.8263004183944096
  4.2606721364886777  4.2582800418683959  4.2597417258876797
  2.8247348139074733  2.8248459907084471  5.6713770714311131
  4.2564012981742909  4.2571736184844049  7.1042464386407698
  2.8429832654587011  2.8280717030172715  8.5471880898530923
  4.2525671157492795  4.2467440083391033  9.9699148413190617
  2.8305844566992944  5.6845023771373215  0.0138947125895527
  4.2632577645038738  7.1190404066358317  1.4233310268529598
  2.8300042053887839  5.6845040411572985  2.8452181006212762
  4.2607213747901973  7.1108084676042962  4.2597326791374277
  2.8389705344237899  5.6845983127352628  5.6814421681290428
  4.2564327030183895  7.1118656437002219  7.1043103898313307
  2.8397487538205213  5.6845019783176527  8.5313646089737851
  4.2524821391131704  7.1222607458468081  9.9698299613759236
  2.8177505582516318  8.5384920393046695  0.0268111678053251
  4.3644047174588900  9.8673204711139775  1.5026756648537769
  2.8280336497689844  8.5669572493191488  2.8263912793383859
  4.2758620387356210  9.9453431405563144  4.2589598768262231
  2.8247787731631679  8.5441358154050064  5.6714835257346428
  4.2714384174915949  9.9458271880985478  7.1204185808240101
  2.8429289915577498  8.5410971581013211  8.5473387463179797
  4.3551170200531821  9.8477495541036859  9.8673403579793657
  5.7266828810863641  0.0001075465541753 -0.0052069230820754
  7.0940553607674204  1.4222126578269874  1.4166417747292903
  5.6772394881390076 -0.0000482963734430  2.8323055553060374
  7.1061562073493993  1.4224292127232887  4.2700488467393587
  5.6938348269467225 -0.0000075406328303  5.6821140747607597
  7.1092839659247469  1.4211040856568986  7.1132030999947995
  5.6753904812611866 -0.0000002733133546  8.5470073965861317
  7.1019794258362987  1.4231769902534679  9.9509588539926028
  5.6750589212543696  2.8279071970652794  0.0015509443906213
  7.1117099114742430  4.2609476438755269  1.4210163843285875
  5.7170941805927242  2.8610636701080043  2.8697542077994820
  7.1248001553761844  4.2729981964102874  4.2738085505894237
  5.6930189675849192  2.8475562502034886  5.6853607642616639
  7.1293676714221119  4.2689078194970307  7.0929771903225705
  5.7181819112051500  2.8772657767069143  8.5041031724585441
  7.1180875174790357  4.2571394210465945  9.9659649215063997
  5.6910332993727151  5.6845020870583642  0.0047307354744531
  7.1117913064299332  7.1080124526674471  1.4210146060167308
  5.6917783838057128  5.6844350380717072  2.8469372589677038
  7.1248206539738774  7.0960253573531027  4.2737695042157355
  5.6847578960449141  5.6845287745034767  5.6825795800149681
  7.1294201877492593  7.1000969938985676  7.0930299210806114
  5.6900105051748202  5.6845020007335112  8.5323871070577120
  7.1181514006282871  7.1118304416262097  9.9659964506921561
  5.6752097801182924  8.5409329693040714  0.0014961856386115
  7.0940474656037082  9.9471122581591338  1.4165799979691631
  5.7172551423966729  8.5079369649074383  2.8695671553366644
  7.1061864710959730  9.9465703499900613  4.2699047820051801
  5.6931235087387284  8.5213559637211951  5.6854127537639814
  7.1091946305830449  9.9479002689656806  7.1131132200343954
  5.7182942212217860  8.4917387628661647  8.5042153651471484
  7.1020249274286584  9.9457890604554713  9.9510547905038180
  8.5415962379849493  0.0001143530078058  0.0081384180829423
 10.0200539776871071  1.3594781571716790  1.4684159536369628
  8.4791883970538304  0.0001441154666756  2.8469771957475132
 10.0105463294844412  1.3598247308521758  4.2118088604953918
  8.5450245209557920 -0.0000001889993937  5.6773730508344737
  9.9524928800343240  1.4224340750469999  7.1162106808690515
  8.5402836404026043  0.0000075734296550  8.5285627659884788
  9.9634377388493061  1.4236613088688288  9.9465353234782921
  8.5509139767512821  2.8248690941785712  0.0197005241250899
  9.9557086252365039  4.2618131171129505  1.4144375068495545
  8.5475270457452321  2.8310147575633398  2.8470444790820508
  9.9375588042404388  4.2806245452089415  4.2848725461319841
  8.5536060707325632  2.8205560459001444  5.6687702257125077
  9.9486281342992910  4.2729793993791017  7.0975765970006313
  8.5369846755924392  2.8476487820675884  8.5292743861115898
  9.9626646115815252  4.2581959674839185  9.9616762372872074
  8.5409551692262600  5.6844066940215487  0.0055091090598530
  9.9554790390431567  7.1071112599638111  1.4145745102585947
  8.5446301795451944  5.6844453982355354  2.8385395005859286
  9.9375249209891550  7.0883800836241866  4.2848389600683827
  8.5365643157852578  5.6845021586130953  5.6858336553895930
  9.9485888402910394  7.0960061358786923  7.0975975894892480
  8.5398175492228301  5.6844754774893929  8.5376394618065579
  9.9626557330496723  7.1107244098277116  9.9617253574653102
  8.5510205411757099  8.5441584515125584  0.0197445535981579
 10.0202564865584769 10.0096281258276640  1.4683050332676493
  8.5476574500408464  8.5381374006308377  2.8469372561444177
 10.0105886920579419 10.0091795861296760  4.2118514097304605
  8.5536276044689288  8.5484484010931059  5.6687914501743988
  9.9523482396157750  9.9465748730882328  7.1162413790456451
  8.5370368488777082  8.5214489886380296  8.5293780467717113
  9.9635775827189423  9.9455392543982271  9.9467860467895886
  2.8835708264873867 -0.0000001248039846 -0.0390913820543771
