Fe Ta
 1.0000000000000000
    11.4081425643931595    0.0000000000000000    0.0000000000000000
     0.0000000000000000   11.3849989083081553    0.0000000000000000
     0.0000000000000000    0.0000000000000000   11.4081425708448929
 Fe  Ta 
 126   2
Cartesian
 -0.0159019884702181  0.0147347097448748 -0.0000860484580185
  1.3413002518752053  1.4570043706239726  1.5106301664676407
  0.0074903158279172  0.0108680169063881  2.8447568287183373
  1.4256679013553029  1.4416256803042744  4.2502290152703877
  0.0019897841868115  0.0030354372229678  5.7004492300621949
  1.4235148945603602  1.4276192648030566  7.1343758103837480
  0.0193840380560388  0.0019562958157826  8.5657651414470770
  1.3539496764403685  1.5103905200206131  9.9413153584408516
 -0.0408092956475884  2.7589841090992713 -0.0720680276243600
 -0.0898264517156922  2.8118819743105634  2.9419992315027161
  1.4330299834080755  4.2665590304057552  4.2914500311637473
 -0.0079332185043925  2.8529169333331557  5.7003926372028859
  1.4312710366842449  4.2652773067696792  7.1312972134578105
 -0.0252002584778995  2.8670395488010709  8.5407896142025255
  1.4259318056946502  4.2546397403807399  9.9662228714470285
 -0.0573550818172842  5.7504866646618140 -0.0582362732221413
  1.4331842570410613  7.1256634225528037  1.4188425655676815
 -0.0606216577416048  5.7427713046631981  2.9127921278880082
  1.4287507380458850  7.0956115500549304  4.2557830883834260
  0.0059932037083420  5.6934512331311913  5.7003383994666637
  1.4285409639046271  7.1165511291810546  7.1364956927437984
 -0.0041742125977173  5.6910961022106594  8.5594292765561750
  1.4274348643252215  7.1089640523136524  9.9986614166359793
  0.0165367258513368  8.5454094811473489  0.0014170689289628
  1.3666113545534473  9.9164383775420450  1.4852963502846954
 -0.0146401881859800  8.5167511086666945  2.8667139347247637
  1.4236816863306319  9.9648313048596009  4.2675607755280360
 -0.0021153816186099  8.5297715542928767  5.7018575417947135
  1.4260476060028959  9.9602467724255384  7.1342580064971157
 -0.0152621765653330  8.5210306870721908  8.5441230853637649
  1.3677816777945278  9.9038868425344901  9.9247698902039527
  4.3189198779368256  1.5105579716854634  1.4977189406348770
  2.8519686032578955  0.0146285732184715  2.8674319590694792
  4.3033992102267788  1.4019860471413201  4.2930959655657466
  2.8469208255430845  0.0041119741980341  5.7029660828895743
  4.2859348831769069  1.4164518578840397  7.1337134617264075
  2.8452134394135711  0.0028464434650945  8.5429554538622465
  4.3680172617661048  1.4574925932267737  9.8922982060488973
  2.9366478770519437  2.8123705872434104 -0.0847174088397839
  4.2934496522140488  4.2547459154754854  1.4259507230232149
  2.9237366363078072  2.7588165150667319  2.8929019976894113
  4.2583430611391124  4.2674974748921874  4.2683799825619300
  2.8544913457207350  2.8415190822855756  5.6999801333089648
  4.2761520955943784  4.2663952145077948  7.1337371567346253
  2.8526589799228050  2.8278269394722413  8.5840019630919855
  4.2707746042849477  4.2585064769354686  9.9896150231602689
  2.9113144169318175  5.7379351435417245 -0.0594064648314619
  4.2615706889203029  7.1090800072302862  1.4244343754530109
  2.9100146424337003  5.7506556908978981  2.9093284298180215
  4.2932823460217771  7.1334696165781093  4.2900429486789502
  2.8522189717467028  5.6941070809973677  5.7000661220546549
  4.2801425252943774  7.1246659995181112  7.1324360399918376
  2.8542465493150604  5.6896733551550946  8.5667011504271731
  4.2927317577330930  7.1376225078247515  9.9674846100147541
  2.8448604897040566  8.5287100898996151  0.0071663643642218
  4.3353463411269653  9.9037178657617346  1.4839967820400815
  2.8504520858420350  8.5452934209126674  2.8355529602267557
  4.2820842793869520  9.9630730548533180  4.2747331571852953
  2.8494537181032178  8.5377994021656889  5.6977980969942612
  4.2722268733829374  9.9610045725317935  7.1339905398555601
  2.8492467038278431  8.5588199116415158  8.5785210154757259
  4.3388099075922124  9.9116021615734269  9.9215030136777145
  5.7174677186011769  0.0028157108965834  0.0070121789314644
  7.1259979079561875  1.4278555089542257  1.4284736054561193
  5.6943977418597385  0.0018770681139315  2.8323254146196279
  7.1283446504092556  1.4160099924098448  4.2843564136894345
  5.7122838934086397 -0.0113170537739425  5.7112765779081176
  7.1304768432203041  1.4221766722735667  7.1296607500065301
  5.7011586403551311 -0.0162366201830944  8.5591809061989768
  7.1264105462273921  1.4164577142501076  9.9741914251215729
  5.6762468668541954  2.8277488494147094 -0.0003500301453704
  7.1289838480782333  4.2652625109785163  1.4209030963228815
  5.7191137482514502  2.8673884990283764  2.8773812905175697
  7.1372944088734966  4.2806916821907111  4.2862661537121731
  5.7103742997379952  2.8533646979340155  5.7023269308510818
  7.1379255821314045  4.2791232866952118  7.1221820789630144
  5.7223275296316807  2.8666756864624126  8.5377783252469381
  7.1264670441238600  4.2663390321447148  9.9841146457525287
  5.6935786363174561  5.6895420520586990 -0.0023360595980737
  7.1238159821568781  7.1165740322520383  1.4234358612276439
  5.7007510581444940  5.6913004185862892  2.8560665515647825
  7.1351835931216341  7.1137074921767756  4.2876997122046241
  5.6989461154230323  5.6930305863095141  5.7038666388308537
  7.1362440760166130  7.1113732671136445  7.1239681718756307
  5.7103688929914656  5.6950877530898758  8.5498571170340796
  7.1278754500445753  7.1246020218626791  9.9800094203839969
  5.6818008625416700  8.5587618712730951  0.0027329257244580
  7.1260839940601421  9.9602664721504208  1.4262011458006496
  5.7160606040486011  8.5209038844889200  2.8672646410848950
  7.1298843142064285  9.9613428725606852  4.2729283859071678
  5.7137176428356193  8.5406659262229923  5.7091656415457388
  7.1319501543025572  9.9570982154910723  7.1282114413918114
  5.7267834865316116  8.5320101517349940  8.5334830838697808
  7.1263563732002817  9.9609223092298684  9.9881180341194522
  8.5573150086230587  0.0040972861884865  0.0052531224008300
 10.0100198321044420  1.4415476956753761  1.4266411172456011
  8.5597548512877495  0.0029793053658571  2.8501343980801419
  9.9637961502652157  1.4026987348649762  4.2963097518575903
  8.5481998982307488 -0.0097486696986001  5.7119079990068276
  9.9757059638032324  1.4160254665492615  7.1317631165732109
  8.5488455365478515 -0.0112083427046961  8.5478795239827257
  9.9668074496186687  1.4023350321296100  9.9569244618366533
  8.5603935667313653  2.8417552654053115 -0.0025029988848567
  9.9689732533455935  4.2665281343232691  1.4191957573995446
  8.5597312847371931  2.8529228283728258  2.8599171409017088
  9.9851988017198092  4.2856111875069045  4.2751408448993615
  8.5556786897687331  2.8471979252186070  5.7044591004007952
  9.9738973336560353  4.2805828645737583  7.1228277245566201
  8.5577808937091078  2.8533490482774462  8.5496880471121042
  9.9917830003400443  4.2674182122619042 10.0015088701309125
  8.5602758943271500  5.6941268743273206  0.0000297745475041
 10.0045388796360353  7.0955536066588225  1.4232288220568483
  8.5600083945969132  5.6933685926968183  2.8462090122595201
  9.9595008375418335  7.1223633127737660  4.3007659256463535
  8.5542290691815452  5.6972754720130370  5.7059324383330869
  9.9724400402201550  7.1136964860445735  7.1250503063342023
  8.5563094664705321  5.6929419046653047  8.5611577323861958
  9.9701410796402197  7.1333428062455937  9.9668624744723786
  8.5625134279344479  8.5378223356452967  0.0025231531228839
  9.9927190690713008  9.9647001001409468  1.4282288070973850
  8.5584538631496745  8.5297074512722322  2.8541246521663952
  9.9758749903404542  9.9592858201340686  4.2843510670731506
  8.5499859648585588  8.5430001075081439  5.7102263205780268
  9.9871756355137578  9.9614317814721165  7.1302915480974951
  8.5510680595499728  8.5406769747949483  8.5464220989580415
  9.9854470920181271  9.9632774846190397  9.9779504795438019
  2.8395725456870697  0.0425389532213889  0.0122760146411702
  1.4382938919232331  4.2268354434187660  1.4135543985896739
