Fe Tc
 1.0000000000000000
    11.3977245227235606    0.0000000000000000    0.0000000000000000
     0.0000000000000000   11.3977245289754130    0.0000000000000000
     0.0000000000000000    0.0000000000000000   11.3977245227788622
 Fe  Tc 
 127   1
Cartesian
  0.0694600537325466 -0.0000000042133491 -0.0000000104896194
  1.3929751241565496  1.4564560537662123  1.4564560387027374
  0.0156549758026319  0.0000000120939657  2.8337761584633787
  1.4319318276071327  1.4176142230652955  4.2679387301361329
  0.0045671097919022 -0.0000000007206344  5.6988622915512543
  1.4318169231951559  1.4174993054288467  7.1297858504783500
  0.0156549739393139  0.0000000022485265  8.5639484104097896
  1.3929750343988647  1.4564561246926397  9.9412684288967021
  0.0156549733400270  2.8337761589422965 -0.0000000212215974
  1.4318169492571764  4.2679386892338380  1.4174993188924137
 -0.0063413094343751  2.8557724106661153  2.8557724090167249
  1.4221436354549704  4.2751982468820993  4.2751786542172816
  0.0019949463984388  2.8474361610607657  5.6988622779142233
  1.4221436337506292  4.2751786681453732  7.1225262479117228
 -0.0063413191411817  2.8557724051235405  8.5419520761744003
  1.4319318026538028  4.2679387028904783  9.9801102918878843
  0.0045671279000430  5.6988622446228483  0.0000000230966860
  1.4319318553899012  7.1297858066454172  1.4176142016519753
  0.0019949741542721  5.6988622644551352  2.8474361458394695
  1.4221436517579711  7.1225458489428659  4.2751982561909125
  0.0072064838025758  5.6988622683772654  5.6988622717496931
  1.4221436345596428  7.1225262571242771  7.1225458499977110
  0.0019949592540380  5.6988622631127663  8.5502883279563111
  1.4318168974493508  7.1297858060797346  9.9802251725413740
  0.0156550060776863  8.5639483835674035 -0.0000000149821838
  1.3929750866422663  9.9412684716608641  1.4564560953745820
 -0.0063412807691653  8.5419520956095045  2.8557724355148570
  1.4318169324936889  9.9802251752425288  4.2679387210772832
  0.0019949639755375  8.5502883271283991  5.6988622754088771
  1.4319318040106928  9.9801103191702971  7.1297858266382965
 -0.0063413358352293  8.5419520935269091  8.5419520864502534
  1.3929750559041769  9.9412684390266826  9.9412683809458890
  4.3058871690767697  1.4564560245716855  1.4564560436734753
  2.8494311137371424 -0.0000000138511390  2.7799711458445882
  4.2670453452703896  1.4174992985569688  4.2679386949357312
  2.8494311202837244 -0.0000000145404765  5.6988622772157207
  4.2669304720862948  1.4176141971217606  7.1297858073662859
  2.8494311543586113  0.0000000362166410  8.6177533984482046
  4.3058872088984952  1.4564560756738927  9.9412684637463880
  2.8494311389234857  2.7799711752933187 -0.0000000325037509
  4.2669304845311320  4.2679386741263290  1.4176141887643781
  2.8494311494586908  2.8337761700556872  2.8337761518259392
  4.2767186162692585  4.2751786586820657  4.2751982602902903
  2.8494311450721321  2.8448640389786037  5.6988622628688637
  4.2767186242484820  4.2751982297495683  7.1225458680944316
  2.8494311447175660  2.8337761587711849  8.5639483576798643
  4.2670453721353505  4.2679386820102572  9.9802251706863458
  2.8494311389944427  5.6988622437468939 -0.0000000269546383
  4.2670453356744797  7.1297858171365061  1.4174992910273254
  2.8494311710213012  5.6988622751598550  2.8448640395476157
  4.2767186165360949  7.1225262928301687  4.2751786679718178
  2.8494311392236042  5.6988622491428638  5.6988622554625774
  4.2767186328536058  7.1225458634614940  7.1225262928301545
  2.8494311687125586  5.6988622607393369  8.5528604722756931
  4.2669304582589485  7.1297858101463980  9.9801103110334903
  2.8494311072858425  8.6177534212564044 -0.0000000059453214
  4.3058871548001312  9.9412685094414321  1.4564560273775791
  2.8494311416630649  8.5639483428559906  2.8337761494260487
  4.2669304337603515  9.9801103269262388  4.2679387095586145
  2.8494311248689361  8.5528604703728810  5.6988622591056775
  4.2670453187460868  9.9802252217768022  7.1297858411417492
  2.8494311147074791  8.5639483317553360  8.5639483773296998
  4.3058871853575029  9.9412684489642498  9.9412684745215234
  5.6294023243916289  0.0000000120480795 -0.0000000183057271
  7.1173698683537454  1.4176142030923402  1.4174993389298360
  5.6832073044073672 -0.0000000231029422  2.8337761487680018
  7.1246293731964538  1.4272874896231493  4.2751786606472528
  5.6942951655660803 -0.0000000105682195  5.6988622620958020
  7.1246097912386226  1.4272874744604493  7.1225262534507037
  5.6832072967025020  0.0000000169491167  8.5639483783818058
  7.1173698949881103  1.4174993028449887  9.9801102775424422
  5.6832073197781439  2.8337761690676335 -0.0000000086517291
  7.1246098226641825  4.2751982709901428  1.4272874916825287
  5.7052035415741651  2.8557724298522906  2.8557724478138780
  7.1250320407738830  4.2756009340071790  4.2756009017539043
  5.6968672823066342  2.8474361695530352  5.6988622150087584
  7.1250320570367318  4.2756009088469549  7.1221235560203002
  5.7052035917076989  2.8557723994229365  8.5419521292343656
  7.1246294092768157  4.2751786573379977  9.9704370225783201
  5.6942951890644764  5.6988622698511238 -0.0000000247096614
  7.1246293910134399  7.1225458571547149  1.4272875208861759
  5.6968672827689648  5.6988622701911060  2.8474361577467731
  7.1250320456487168  7.1221236018752272  4.2756009270859794
  5.6916557407102690  5.6988622699227376  5.6988622564072999
  7.1250320554572468  7.1221235846147311  7.1221235810085846
  5.6968673324578196  5.6988622639646236  8.5502883541885915
  7.1246098065172605  7.1225262706867927  9.9704370274255041
  5.6832072980429196  8.5639483735786701 -0.0000000083350147
  7.1173698534554708  9.9802251859630626  1.4176142182942204
  5.7052035358235198  8.5419520883297739  2.8557724024592801
  7.1246097839301870  9.9704369927053715  4.2751982660015573
  5.6968673011899629  8.5502883505542009  5.6988622836540026
  7.1246293603728210  9.9704370121482881  7.1225458598701028
  5.7052035384491937  8.5419520979259804  8.5419520804068849
  7.1173698475868585  9.9801103302733587  9.9802251928481240
  8.5482933683639075  0.0000000060306722  0.0000000101087368
  9.9792169559617712  1.4174992899808507  1.4176141965303577
  8.5482934021815016 -0.0000000049808544  2.8448640497374904
  9.9719769929387923  1.4272874931285551  4.2751982648583251
  8.5482933852259357 -0.0000000162297668  5.6988622392653268
  9.9719573816100109  1.4272874710262682  7.1225458473702696
  8.5482934121764345 -0.0000000196631686  8.5528604833033164
  9.9792169435256355  1.4176142071548996  9.9802252266551559
  8.5482934093085472  2.8448640571574235  0.0000000006432403
  9.9719574184018978  4.2751786641851668  1.4272874818175674
  8.5482934431599471  2.8474361706788769  2.8474361792070120
  9.9715547448411108  4.2756009175694825  4.2756009217627744
  8.5482933892772195  2.8422246411308096  5.6988622440071817
  9.9715547302784362  4.2756009185978083  7.1221235631820177
  8.5482934038531031  2.8474361817658385  8.5502883406233696
  9.9719769868356334  4.2751982581955108  9.9704370310009782
  8.5482933916703274  5.6988622605595163  0.0000000033339065
  9.9719769970748207  7.1225262863168393  1.4272874728996408
  8.5482934074285595  5.6988622586645006  2.8422246693740423
  9.9715547382588436  7.1221236000678774  4.2756009355502202
  8.5482933945440873  5.6988622485073126  5.6988622295856164
  9.9715547062791394  7.1221235564114203  7.1221235849284801
  8.5482933923494766  5.6988622321054043  8.5554998418563208
  9.9719573916972841  7.1225458342359014  9.9704370349112601
  8.5482934005377018  8.5528604755598447 -0.0000000196848488
  9.9792169439250777  9.9801103116541832  1.4174993113190393
  8.5482934107311941  8.5502883433448744  2.8474361992511725
  9.9719574301765057  9.9704370104722937  4.2751786744665798
  8.5482934002598405  8.5554998773337569  5.6988622882367075
  9.9719769814415518  9.9704370411867025  7.1225262557310280
  8.5482933853922312  8.5502883333398678  8.5502883363981823
  9.9792169430582955  9.9802251941271649  9.9801103347362741
  2.8494310916440031  0.0000000310962464  0.0000000221288561
