Fe Cr
 1.0000000000000000
    11.3790306334669697    0.0000000000000000    0.0000000000000000
     0.0000000000000000   11.3790306304662270    0.0000000000000000
     0.0000000000000000    0.0000000000000000   11.3790306311370664
 Fe  Cr 
 127   1
Cartesian
  0.0187577729439829  0.0000000179638558 -0.0000001197566087
  1.4304625438616085  1.4142951632906369  1.4142950047164657
  0.0054213242851159  0.0000000692203558  2.8393363726640204
  1.4260152314852310  1.4189431461546322  4.2610044229566739
  0.0030266209834910 -0.0000002322014799  5.6895153926054567
  1.4258145354158342  1.4187425403308764  7.1180262161706107
  0.0054212019118166  0.0000001233604549  8.5396940123636451
  1.4304623840088513  1.4142952208661856  9.9647353133931116
  0.0054212583206613  2.8393363815090873  0.0000001365953558
  1.4258145128121547  4.2610044678714374  1.4187424976745924
 -0.0053327856159243  2.8500906481665336  2.8500906254919878
  1.4223617230819505  4.2694699528767464  4.2693771273347503
  0.0017058991893317  2.8430517558814832  5.6895153491111738
  1.4223618800733209  4.2693769337302800  7.1095606111870158
 -0.0053328889714121  2.8500905939508430  8.5289402374798531
  1.4260153206356212  4.2610044062811960  9.9600873110685111
  0.0030266037415623  5.6895152379781075  0.0000000007192337
  1.4260151213251058  7.1180262038696585  1.4189433692940956
  0.0017059021965370  5.6895153738817088  2.8430517741939019
  1.4223616948514053  7.1096534659182460  4.2694696823774914
  0.0006357273666329  5.6895151779713959  5.6895153578466688
  1.4223616845647955  7.1095605304894347  7.1096536294616053
  0.0017059520137468  5.6895153595609953  8.5359788068278402
  1.4258143191702253  7.1180261522182864  9.9602879881229267
  0.0054213522613404  8.5396941201851355 -0.0000002155567729
  1.4304622748403075  9.9647353990382399  1.4142952561205973
 -0.0053330067382170  8.5289400398976909  2.8500905564863181
  1.4258144237386690  9.9602882999824569  4.2610044730792671
  0.0017058324467971  8.5359790196256622  5.6895152071549209
  1.4260149926844694  9.9600875710270280  7.1180261220930783
 -0.0053326504856703  8.5289402027005856  8.5289400780949745
  1.4304622476933733  9.9647354207918291  9.9647352056559413
  4.2590529163163504  1.4142953324998526  1.4142951650971272
  2.8447577336851104 -0.0000000366617109  2.8259997905388650
  4.2637007857196778  1.4187425236677276  4.2610045143772526
  2.8447577389913787 -0.0000000308129786  5.6895154797607370
  4.2635002662624633  1.4189432286315524  7.1180259672713708
  2.8447575884024245 -0.0000000111494543  8.5530307513110539
  4.2590527828963944  1.4142953265534322  9.9647354003180393
  2.8447576845376563  2.8259998335809429 -0.0000000020412611
  4.2635001398617982  4.2610045863210848  1.4189432638573487
  2.8447575641828999  2.8393365059104005  2.8393363865229686
  4.2671534346642117  4.2693770235123951  4.2694698909042836
  2.8447577438745344  2.8417309047182204  5.6895153092826503
  4.2671535036295918  4.2694698331719128  7.1096537300415017
  2.8447577763488527  2.8393365147961847  8.5396942456203959
  4.2637008664527398  4.2610045761460311  9.9602882457284103
  2.8447576695391841  5.6895152046697675 -0.0000000626215842
  4.2637009795358702  7.1180261154287408  1.4187424776619637
  2.8447577554106180  5.6895153700575420  2.8417307365836311
  4.2671535933347329  7.1095607456494054  4.2693770665037123
  2.8447576786199336  5.6895153801353953  5.6895154104823389
  4.2671534943510894  7.1096536346583825  7.1095608129635064
  2.8447576270799746  5.6895153162613523  8.5372998583280069
  4.2635000912777876  7.1180261242094121  9.9600873590253123
  2.8447577138248796  8.5530307090205948 -0.0000000265494659
  4.2590529695187627  9.9647352678773586  1.4142951337522212
  2.8447577598649310  8.5396941984048595  2.8393363428504035
  4.2635001380237814  9.9600873433065580  4.2610042982112644
  2.8447575692177152  8.5372997013329943  5.6895152800726496
  4.2637010837215525  9.9602882550039915  7.1180262156878582
  2.8447577689763177  8.5396942011885866  8.5396941930033936
  4.2590528379573103  9.9647354213859689  9.9647355014920205
  5.6707574899270883 -0.0000000018443987 -0.0000000560780390
  7.1057622294464675  1.4189431103003003  1.4187425280578747
  5.6840940343293864  0.0000000189379738  2.8393363331516785
  7.1142274889684645  1.4223958793099136  4.2693770332475216
  5.6864886642739085  0.0000000331477401  5.6895151718447492
  7.1141346604745088  1.4223958277029978  7.1095607196352546
  5.6840940480744626  0.0000001467423817  8.5396941756157148
  7.1057621941667950  1.4187425201075994  9.9600875595231972
  5.6840940980916539  2.8393364481003660 -0.0000000042313558
  7.1141347081693933  4.2694698305448542  1.4223959614215826
  5.6948480310491156  2.8500905459306600  2.8500905191229884
  7.1115230698129785  4.2667653932259784  4.2667653145902822
  5.6878093911403269  2.8430516336439258  5.6895154031197244
  7.1115231610667342  4.2667654970033988  7.1122653120355066
  5.6948483009360222  2.8500906830194079  8.5289401803976297
  7.1142275427836053  4.2693769139522706  9.9566348014486312
  5.6864884958501358  5.6895153767222171  0.0000000217891454
  7.1142275394371648  7.1096536682723626  1.4223957795632272
  5.6878093143050421  5.6895153964769198  2.8430517799445436
  7.1115230742356781  7.1122653007582608  4.2667653686368974
  5.6888795155113243  5.6895152555813127  5.6895153956810045
  7.1115230389227877  7.1122652563292785  7.1122653491042476
  5.6878095519706546  5.6895152868362286  8.5359788704918529
  7.1141347731702798  7.1095608018206100  9.9566346789781548
  5.6840940657193260  8.5396942025287252  0.0000001745830827
  7.1057622340100659  9.9602881466491286  1.4189431385409277
  5.6948480445568341  8.5289400331622467  2.8500904906631410
  7.1141348744166537  9.9566347054225144  4.2694699337925783
  5.6878094516437274  8.5359787753754155  5.6895153439509754
  7.1142275404464694  9.9566348162232821  7.1096535788625541
  5.6948480974855853  8.5289401199470518  8.5289400178506867
  7.1057620759327342  9.9600873800316396  9.9602881746898166
  8.5342729522092160  0.0000001331447023 -0.0000000546762160
  9.9627836365832234  1.4187425470867576  1.4189431053996244
  8.5342729205985037 -0.0000000139779425  2.8417308828674899
  9.9544112881736933  1.4223958395502794  4.2694698515821887
  8.5342727941594667 -0.0000001028221324  5.6895152103106010
  9.9543184540726308  1.4223959260748289  7.1096537241343363
  8.5342729111180873  0.0000000074146280  8.5372998131804643
  9.9627837302568185  1.4189430440118671  9.9602881507628993
  8.5342729978191265  2.8417309691389128 -0.0000001320384895
  9.9543184394664745  4.2693770701123057  1.4223958996650550
  8.5342728033637094  2.8430518196651677  2.8430517040864367
  9.9570228846056299  4.2667654233291827  4.2667654105371211
  8.5342729708858620  2.8441219569928955  5.6895153783599275
  9.9570229453374957  4.2667652953289235  7.1122653535761451
  8.5342730547819539  2.8430517983417651  8.5359788358944240
  9.9544112686139048  4.2694697991494452  9.9566347176855050
  8.5342731071661895  5.6895153856938601  0.0000000576553836
  9.9544111900843397  7.1095606831356859  1.4223960175387835
  8.5342728394531058  5.6895152510922200  2.8441218739049017
  9.9570231529362836  7.1122653188481575  4.2667651900730386
  8.5342729809013012  5.6895151353923756  5.6895153851593818
  9.9570229424028440  7.1122652421626187  7.1122652024409776
  8.5342729870435026  5.6895153507953102  8.5349088018146944
  9.9543185262665546  7.1096538106815199  9.9566347086373543
  8.5342730078419589  8.5372997551232181  0.0000000740302346
  9.9627837580168102  9.9600872214688216  1.4187424572903120
  8.5342729974986895  8.5359788627508717  2.8430515421039888
  9.9543185124831481  9.9566346257976051  4.2693771125290523
  8.5342728424927277  8.5349087767854979  5.6895154289578400
  9.9544112056487055  9.9566347188962627  7.1095605559946984
  8.5342729807849107  8.5359789960315311  8.5359789544763700
  9.9627837874667655  9.9602880297921406  9.9600875371435649
  2.8447577298734164  0.0000001792884797  0.0000002840915458
