Fe Rh
 1.0000000000000000
    11.3933342985229302    0.0000000000000000    0.0000000000000000
     0.0000000000000000   11.3933342978492362    0.0000000000000000
     0.0000000000000000    0.0000000000000000   11.3933343003100624
 Fe  Rh 
 126   1
Cartesian
  0.1069355770925030  0.0507557892213006  0.0507663738641767
  0.0414625332446026  0.0352314470763600  2.8067248686410897
  1.4291208678300888  1.4193565322745882  4.3118863999914652
  0.0015141704770638 -0.0031755586878313  5.6937740392816751
  1.4193349641179842  1.4288435790690590  7.1236506232043899
 -0.0100367359164908 -0.0021873924003283  8.5399433513959764
  1.4011838936582433  1.4473747019010574  9.8967721676961258
  0.0416085528881391  2.8068708839057903  0.0352312118349624
  1.4289772797110047  4.3118866546594825  1.4192123602653042
  0.0500480907800629  2.7982853276805773  2.7982855186694930
  1.4203722008881206  4.2646047440788912  4.2646563083958080
 -0.0045180787705356  2.8529629009676278  5.6950834446576994
  1.4197543847478320  4.2730060136966719  7.1129903968124228
 -0.0221504498994838  2.8705004502957756  8.5254466228810664
  1.4261061499856456  4.2608692631909193  9.9799154620608572
  0.0015420258124144  5.6939167616519040 -0.0031614210349718
  1.4194898397285647  7.1236505343303840  1.4289987335322143
 -0.0046290478189172  5.6950836497652420  2.8528518452009535
  1.4197891928693747  7.1129488424797378  4.2728321470162482
  0.0021362693237348  5.6953659691394964  5.6952161056192718
  1.4174164915421643  7.1126219483546338  7.1125798384414454
 -0.0048436975786966  5.6939176507975269  8.5405145788957082
  1.4220141210708757  7.1248830173181839  9.9748491712978744
 -0.0102725402002658  8.5399729249447933 -0.0021511286346783
  1.4009589978920451  9.8967721223410017  1.4471496795649967
 -0.0221670790507549  8.5254467557816405  2.8704840377258103
  1.4261173679717549  9.9800385720600460  4.2607421454820704
 -0.0047922960257788  8.5405432144900146  5.6938522066614210
  1.4221610477015527  9.9745240659835890  7.1248204259306167
 -0.0117110145056678  8.5341831227198188  8.5342045137057987
  1.4155892622775801  9.9640796928078075  9.9643186840117970
  4.3448955273418619  1.4471495641049701  1.4473746658388111
  2.7975778909579865  0.0507661787737533  2.7413979022897568
  4.2617526365614005  1.4222275191583722  4.2608693231715842
  2.8485480975667881 -0.0003261438209459  5.6928992357174950
  4.2668187964766577  1.4263192301155942  7.1248830457423002
  2.8455251942195496  0.0027777362924033  8.5728496446497200
  4.2773491844728753  1.4327441605074827  9.9640794884562407
  2.7975673430758556  2.7413977844534165  0.0507557563733480
  4.2616292702564085  4.2607423390334125  1.4222163069537792
  2.8131022020110015  2.8067248726389038  2.8068710685336624
  4.2623833753629219  4.2678995421442876  4.2678465284894997
  2.8514950469010323  2.8467917813654569  5.6939166253222933
  4.2762686625719848  4.2778148068068171  7.1155641122162896
  2.8504845893275839  2.8586058496910591  8.5399728745224248
  4.2569629268919682  4.2598101274707627  9.9848057654480993
  2.8486598662279063  5.6928991721617228 -0.0002148078327490
  4.2671437346113450  7.1248204747850021  1.4261726688007728
  2.8515091607009220  5.6937740499264651  2.8468193019132246
  4.2763506441970938  7.1155345644444603  4.2778549698575432
  2.8467384929593353  5.6954189478930930  5.6954705118790603
  4.2735229289158720  7.1151111644439453  7.1151057880128628
  2.8475684066356934  5.6954342479845428  8.5487496720323719
  4.2660159151682961  7.1311817873991998  9.9754993729142338
  2.8455558217633494  8.5728495355811116  0.0028082681732852
  4.2775883407551936  9.9643187830342619  1.4327442594900264
  2.8505209330163095  8.5399432651465101  2.8583702801831774
  4.2568619449720000  9.9847049795778560  4.2598101715189713
  2.8476067336283641  8.5486772185256257  5.6953421004021649
  4.2661684862682154  9.9756519202294971  7.1311816529057754
  2.8471897402088002  8.5452110242703014  8.5452304579247738
  4.2465564308806369  9.9951115421668089  9.9951113336337816
  5.6688182594192265  0.0028082271598175  0.0027777814063541
  7.1180172335826812  1.4289988401460989  1.4288436950437373
  5.7016949766226750 -0.0021511887088968  2.8586061466962640
  7.1286774184836030  1.4285791884214367  4.2730060467882769
  5.6929182003954288  0.0007652191503163  5.6954344034847502
  7.1290879048807181  1.4309172757542341  7.1126221325042485
  5.6964374228795132  0.0011437807552171  8.5452109966643288
  7.1168472389088580  1.4261726621278319  9.9745240936555799
  5.7017246226467986  2.8583702437287952 -0.0021875141738715
  7.1287192122310419  4.2728321190660257  1.4285443535168829
  5.7162213342270700  2.8704841368637268  2.8705006618978040
  7.1301510461281019  4.2776097523188046  4.2776904517281142
  5.7011531763915819  2.8531772364250982  5.6939177939124432
  7.1279676953356867  4.2757721940940989  7.1137086729879062
  5.7074634025176056  2.8600447616821949  8.5341831039408067
  7.1261334800952687  4.2778549663219954  9.9653173714186671
  5.6929906623465580  5.6953420291870200  0.0007268452259200
  7.1290457767578053  7.1125797693390185  1.4309171001594718
  5.7011250552753365  5.6938521496512413  2.8531258716026056
  7.1279588734765698  7.1137005336955843  4.2757721240578013
  5.6898809355826403  5.6911095351577696  5.6911126050744203
  7.1260944526630663  7.1155733803188772  7.1155732838402468
  5.6932619689476516  5.6941442780147087  8.5483724944762542
  7.1265565636851802  7.1151058170426209  9.9681450516868679
  5.6964567606945922  8.5452304616877921  0.0011437772316486
  7.1167848241503444  9.9748491854568364  1.4263192499027797
  5.7074846272670907  8.5342045002244085  2.8600447638396775
  7.1261039474068602  9.9653991889311531  4.2778147773048349
  5.6932954925773371  8.5484057967933094  5.6941441003839337
  7.1265621581511533  9.9681449596498144  7.1151113653366229
  5.6952029674463294  8.5464649629254836  8.5464650119141208
  7.1104861816640170  9.9754992037459687  9.9756519130354118
  8.5487686968711394 -0.0002146448747927 -0.0003263011020347
  9.9297813109613244  1.4192125748372699  1.4193564785981736
  8.5477512503421949 -0.0031616590135839  2.8467917987295364
  9.9770116975733227  1.4279614470773068  4.2646047843131916
  8.5461974373566818  0.0015951482316596  5.6954192114537072
  9.9688357498932714  1.4285442427505677  7.1129489167059408
  8.5463259493405541  0.0007269062781416  8.5486773727976821
  9.9809256921145320  1.4222162859892478  9.9800385682877124
  8.5478939237542999  2.8468193027627704 -0.0031756975046736
  9.9770629941683300  4.2646561495039919  1.4279615064483351
  8.5465845648614156  2.8528516530462906  2.8529625788579285
  9.9851857033101652  4.2564823304100061  4.2564822694150255
  8.5464519150396487  2.8461975725722670  5.6953658843620216
  9.9640581745028367  4.2776906315343224  7.1115166073569318
  8.5478157796805956  2.8531257671455834  8.5405430050926139
  9.9737681155492766  4.2678464123664730  9.9792845905723304
  8.5462486683999188  5.6954703882024438  0.0015952456302650
  9.9686619552357509  7.1129903964536947  1.4285790506774303
  8.5463020513218133  5.6952162004643103  2.8461972735938894
  9.9639772141108480  7.1115168805739408  4.2776097582241164
  8.5528552234811439  5.6888124719159663  5.6888126488508970
  9.9658959357741921  7.1137086942029768  7.1137005948985745
  8.5505586725666483  5.6911125463507393  8.5517868798982573
  9.9638531794878915  7.1155641977389141  9.9653990316025460
  8.5462334637937172  8.5487496084192447  0.0007652296785852
  9.9807986039923140  9.9799154151154017  1.4222274103208916
  8.5477502355440809  8.5405147191321689  2.8531771549065454
  9.9738211490194004  9.9792845736305242  4.2678997684273501
  8.5505551898804093  8.5517870761864963  5.6911093920717510
  9.9638129420377801  9.9653174701267417  7.1155344268880327
  8.5475235840695909  8.5483723887544816  8.5484059740191221
  9.9818576537973165  9.9848057985682832  9.9847049910482664
  2.7996752123134412  0.0486583217180627  0.0486584686655888
