Fe Os
 1.0000000000000000
    11.4319436779294836    0.0000000000000000    0.0000000000000000
     0.0000000000000000   11.4319436712781641    0.0000000000000000
     0.0000000000000000    0.0000000000000000   11.4319436711843636
 Fe  Os 
 126   2
Cartesian
  0.0133629910258521 -0.0425804095024680 -0.0431599697264962
 -0.0095904891935190 -0.0100753874563156  2.8688733255021477
  1.4412003260409461  1.4179162473830980  4.1264160873129985
  0.0072458918935125  0.0107361104145097  5.7177631807673661
  1.4430077718822494  1.4148796625554423  7.1613556287722240
 -0.0000007844561449  0.0068634206874982  8.5835267353131108
  1.3858329337421769  1.4715734307684840 10.0163135704976014
 -0.0108875194032929  2.8675763691938685 -0.0100751969213038
  1.4400695679899702  4.1264159615636773  1.4167855934131084
 -0.0217308552228217  2.8797167166528612  2.8797166601557644
  1.4217243399692032  4.2907096280077326  4.2906498248450360
  0.0076204725676615  2.8507194948992325  5.7221019378596720
  1.4224856175537464  4.2948678224298202  7.1390510034997288
 -0.0110129539005636  2.8689708258753686  8.5541147554794783
  1.4358655082214613  4.2773543794164324 10.0033635584412774
  0.0071934133370127  5.7180116192145425  0.0102345158372923
  1.4431061581114408  7.1613556871094017  1.4149782207408763
  0.0072663453080006  5.7221018578431524  2.8503654211650846
  1.4223171624993172  7.1387264078356640  4.2949205946435853
 -0.0047246358749415  5.7168524541924413  5.7170280180447941
  1.4209801254291958  7.1406033629911025  7.1405702141004719
 -0.0079294551789475  5.7185691076572178  8.5682090121975705
  1.4392275486262018  7.1429250028254510 10.0101441919426666
  0.0004128345800108  8.5835823931019988  0.0068726012841108
  1.3864124819047012 10.0163136734278382  1.4721530775989358
 -0.0109848507915015  8.5541145330919601  2.8689986769561502
  1.4358562975063685 10.0029498642198433  4.2774099845311326
 -0.0078419076830797  8.5682801771886545  5.7186244351846911
  1.4397291032708115 10.0101965356831055  7.1431733308972616
 -0.0143247659150111  8.5618504512739477  8.5616740324534533
  1.4189177381783453  9.9933602621495883  9.9920633097490761
  4.2736159907027069  1.4721529139505329  1.4715734991563258
  2.9005662922788638 -0.0431598625769779  2.8446229189758121
  4.2865660532519749  1.4221203404402081  4.2773543690063383
  2.8438726452885716  0.0140148232316938  5.6995810149321118
  4.2797854589128974  1.4187584373110538  7.1429251756874876
  2.8469092277123758  0.0122073121886439  8.7345206096896550
  4.2978664539963249  1.4390682100096812  9.9933603021204078
  2.9011459617415545  2.8446229666194762 -0.0425803658738558
  4.2869795999110867  4.2774100167930973  1.4221295078490281
  2.8680611917640833  2.8688733027065867  2.8675762554692619
  4.3013036142486900  4.2992625431143097  4.2990861769744173
  2.8477514472162269  2.8507925163099022  5.7180115840000809
  4.2949082268863101  4.2927276257448801  7.1423674991977499
  2.8511133119199945  2.8575730174316023  8.5835823648798417
  4.2979917112175725  4.3068219910032655  9.9919659774294409
  2.8439710025140288  5.6995810052862357  0.0141132546359085
  4.2797330482187661  7.1431733332758460  1.4182568710412529
  2.8472497732642426  5.7177632052471639  2.8507400274070700
  4.2948208761231061  7.1423123336868111  4.2926563644593170
  2.8659988258811819  5.7203662950026546  5.7203333410699368
  4.2917034431463144  7.1439086606750513  7.1440841225881897
  2.8644932516570307  5.7218856431351490  8.5660688577692508
  4.2793583964113617  7.1388346750757252 10.0102170837894953
  2.8457787234207346  8.7345207541168044  0.0110765351844739
  4.2965692457302280  9.9920632714258488  1.4390681431593706
  2.8511225248926317  8.5835266802392454  2.8579865260163806
  4.2979637996808089  9.9919378896343787  4.3068220742689736
  2.8646618253354883  8.5660162685474912  5.7222103038755732
  4.2797124714630614 10.0105711416894039  7.1388348967238597
  2.8652545544597126  8.5702867600583303  8.5702269636349904
  4.3087096591474703  9.9812198657505515  9.9812198499441624
  5.5554089487330174  0.0110767055286117  0.0122073952855827
  7.1285739685263065  1.4149781450326335  1.4148797038147081
  5.7063472320217201  0.0068727112739851  2.8575730364106287
  7.1508785562329251  1.4355002882816679  4.2948677734810472
  5.7238606809468626 -0.0065073167030628  5.7218856205608644
  7.1493593189939162  1.4370058853451282  7.1406033720059474
  5.7197024782374335 -0.0072686528106168  8.5702867592617960
  7.1467562947711034  1.4182567145287137 10.0101966504159297
  5.7064028846670229  2.8579866291524985  0.0068633860934797
  7.1512031791163695  4.2949205268519677  1.4356687244306996
  5.7358149778776815  2.8689986670937859  2.8689708010432815
  7.1548075611428468  4.2926579678205963  4.2925418627529259
  5.7217206164999732  2.8659152985524088  5.7185692286382022
  7.1463807169331650  4.2860965286006074  7.1436202881370612
  5.7282554839951434  2.8723107232494143  8.5618503907045209
  7.1476172352734739  4.2926563644565778  9.9951088300028861
  5.7239135025061518  5.7222102202176863 -0.0066759400142270
  7.1493262203950572  7.1405703684543456  1.4370058345524099
  5.7216492785003847  5.7186243216082637  2.8658277884512886
  7.1463092533486208  7.1435487946833778  4.2860964509204535
  5.7150894325572370  5.7173877541956459  5.7173163935886979
  7.1477982824686723  7.1421313657101235  7.1421313593373954
  5.7216510854522866  5.7258145346057558  8.5683947088154753
  7.1460210261252231  7.1440842298314857  9.9982260453009779
  5.7196427911219123  8.5702269728590448 -0.0072686414836620
  7.1470047084199164 10.0101441749936750  1.4187583634509953
  5.7280791531004915  8.5616740580739421  2.8723106586682396
  7.1475620802796493  9.9950213369365262  4.2927276231955176
  5.7215349598038943  8.5682786899458527  5.7258145872033248
  7.1458454470164101  9.9982260347430589  7.1439086829136125
  5.7343249344174607  8.5556047226657981  8.5556046831204391
  7.1510948951749382 10.0102170421581214 10.0105711709511649
  8.5903485513825242  0.0141131388107859  0.0140149117671653
 10.1635134984125592  1.4167856369179386  1.4179161525652806
  8.5719179373475161  0.0102345088578036  2.8507924540603375
  9.9992797107049505  1.4362615808618184  4.2907096593757128
  8.5695962287908767 -0.0080127962925541  5.7203663278265866
  9.9950090959426507  1.4356687691779257  7.1387263488000539
  8.5677192821387305 -0.0066758173514128  8.5660161227569382
 10.0125196477061174  1.4221294720118904 10.0029500499295150
  8.5721662714196114  2.8507399999139276  0.0107360868268956
  9.9992199934953927  4.2906498942354920  1.4362615009669506
  8.5678276227463837  2.8503655629453308  2.8507195698348125
  9.9845976660096891  4.3053318918615089  4.3053319497502534
  8.5729016826554112  2.8627104919624586  5.7168525135327615
  9.9972715522766880  4.2925418713267600  7.1351220179000236
  8.5713052526854749  2.8658278129977992  8.5682802890488912
  9.9906669779401547  4.2990861969803209  9.9886259862161992
  8.5695633674687741  5.7203333112295969 -0.0080129185518213
  9.9950618090104975  7.1390510169788888  1.4355003361675820
  8.5730771151888963  5.7170279950713434  2.8627105620968210
  9.9973876880739745  7.1351220813915814  4.2926579362009960
  8.5711242842008009  5.7188052672759193  5.7188054199451868
 10.0038331520498947  7.1436202445648735  7.1435488797440199
  8.5725419045362745  5.7173164372846195  8.5748401774052159
  9.9972020219825470  7.1423674183173187  9.9950213420968268
  8.5680439613336432  8.5660689072166125 -0.0065073082761014
 10.0125752617237040 10.0033636270192723  1.4221203496879862
  8.5713604611575587  8.5682088987258567  2.8659153280199745
  9.9908434375797146  9.9886259497939438  4.2992626332712511
  8.5726133094993830  8.5748402042414220  5.7173877458228883
  9.9972732762337255  9.9951087223390918  7.1423122752237402
  8.5641149363260176  8.5683946940202862  8.5682786987563500
  9.9831075204507815  9.9919658391049655  9.9919378331424298
  2.8847373010985322 -0.0267515101359718 -0.0267514454820149
  1.4022415722397417  1.4557443081297154  1.4557444688935064
