Fe Ti
 1.0000000000000000
    11.3836178784647721    0.0000000000000000    0.0000000000000000
     0.0000000000000000   11.3836178790859197    0.0000000000000000
     0.0000000000000000    0.0000000000000000   11.3836178796321370
 Fe  Ti 
 126   2
Cartesian
  0.0121949161163203  0.0095621359605587  0.0092265166858035
  1.4229520504446147  1.4229521763354800  1.4229522009027091
  0.0095620831462992  0.0121949091134707  2.8366777932237421
  1.4597094879870358  1.3864749533133682  4.2848804170671242
  0.0020746913803720  0.0119901804577036  5.6822176726255202
  1.4228391352367973  1.4228393206326269  7.1147611271504054
  0.0119901156093564  0.0020747166329611  8.5473047814787595
  1.3864749924690332  1.4597095197626635  9.9446422138294128
  0.0092265252850095  2.8363422551486419  0.0121948499926846
  1.4594294496257667  4.2848802003322284  1.3861951152001679
  1.4622044743825859  4.3092114197570073  4.3091579169708778
 -0.0001330267999441  2.8459918578294370  5.6885067758160250
  1.4264959412789575  4.2693797745034434  7.1092825334370850
 -0.0215515180935116  2.8674206380286815  8.5132175455113259
  1.4229522371896874  4.2635964106056781  9.9659258448713395
  0.0020862231899161  5.6823934820339685  0.0118948251966124
  1.4230654030666723  7.1147612712537205  1.4230654378786929
 -0.0000874468384925  5.6885067612999602  2.8460376028597927
  1.4263696824172483  7.1092478047001997  4.2695258176278683
  0.0005086564260379  5.6842423580349255  5.6842881816314099
  1.4229523222223881  7.1147452016434709  7.1147772330816661
 -0.0015204975107540  5.6898951688059265  8.5363528588976187
  1.4194085329590089  7.1202399476150076  9.9601425436491269
  0.0118949872396802  8.5471289333443963  0.0020862088108594
  1.3861951937276640  9.9446421643376617  1.4594294377817540
 -0.0215161224984433  8.5132174499892272  2.8674560715241793
  1.4229521470363917  9.9657954321025191  4.2637269791315369
 -0.0015615914896641  8.5362671397602572  5.6899980223238291
  1.4195350179269519  9.9599963249979311  7.1202744310912252
 -0.0226041990782733  8.5149661371278746  8.5149992271167729
  1.3837001650544378  9.9203645907143976  9.9203110970622674
  4.2848804180897968  1.4594295294447126  1.4597094503139518
  2.8363423515028172  0.0092265525405785  2.8337097656192838
  4.2635963190137200  1.4229522841183806  4.2635964007223386
  2.8674208466811764 -0.0215516978596504  5.7163048389759181
  4.2693797001497913  1.4264960061036300  7.1202398412079955
  2.8459919764891701 -0.0001331336739300  8.5410155351221739
  4.3092113724506556  1.4622043687502007  9.9203644810820339
  2.8366778691338612  2.8337096615897379  0.0095621599760515
  4.2637268185874957  4.2637269701755853  1.4229521605592057
  2.8337096344034962  2.8366779494137084  2.8363420591724928
  4.2564639893017713  4.2678293289618949  4.2676946919228911
  2.8340096084643389  2.8438181834936866  5.6823935024796697
  4.2655939245268346  4.2655940390804616  7.1147611143698235
  2.8438182568030372  2.8340095327213572  8.5471288948868072
  4.2678294279376816  4.2564640974895180  9.9618278610947844
  2.8674560318472495  5.7163048381632775 -0.0215162205245982
  4.2695259645201187  7.1202745069713620  1.4263696163149855
  2.8339142349606776  5.6822177065563775  2.8438297338871585
  4.2654379788044823  7.1147611755003437  4.2654379991880367
  2.8685085724982584  5.7145233410683440  5.7145560521877483
  4.2700278169166639  7.1163661982704811  7.1164687802570095
  2.8474250784137283  5.6931694898402805  8.5396270702413730
  4.2701581055040796  7.1250186698810580  9.9592516762547447
  2.8460375897070005  8.5410156259508305 -0.0000874642345840
  4.3091579706776004  9.9203108622172245  1.4622042993870112
  2.8438297087872471  8.5473046659261289  2.8339141688630214
  4.2676945888446518  9.9616931348376205  4.2564640386997210
  2.8474660198657529  8.5395244357575386  5.6932552050729290
  4.2702706690393173  9.9593642375657030  7.1250187087885140
  2.8453957917168760  8.5452340363453700  8.5452799363110152
  4.3184402317793245  9.9110819722404155  9.9110819948402273
  5.6885067543203940 -0.0000876148234324 -0.0001331431363782
  7.1147612012843373  1.4230653463295293  1.4228390740869157
  5.6823933635200676  0.0020862123258579  2.8340095156463274
  7.1202398740769475  1.4194085784791375  4.2693797323730545
  5.6898952182378020 -0.0015206313954268  5.6931695113586933
  7.1147452085775189  1.4229521380183512  7.1147451852372603
  5.6842423753631435  0.0005086019321327  8.5452340389833772
  7.1092479517888840  1.4263694767463246  9.9599963781731731
  5.6822177337692521  2.8339142306237597  0.0020747295780596
  7.1202744318270961  4.2695260635620107  1.4195348359773665
  5.7163047036995982  2.8674559995494802  2.8674204621500867
  7.1250184810932788  4.2701582265567746  4.2702705936180605
  5.6931694921638858  2.8474251025225539  5.6898952268192309
  7.1163662050686032  4.2700277959932693  7.1130535988158865
  5.7145231786957895  2.8685085106618065  8.5149661506470977
  7.1147612582064319  4.2654380045213607  9.9640843727506354
  5.6899978590433689  5.6932550566956168 -0.0015615658849285
  7.1147770963698340  7.1147771669419795  1.4229521603901198
  5.6932551200044692  5.6899977670913753  2.8474660494061390
  7.1164688152017721  7.1131561762618052  4.2700278316313938
  5.6898939430331774  5.6913154976231217  5.6912132691179478
  7.1147610850535976  7.1147611112844400  7.1147611653334160
  5.6913154719819952  5.6898939936612107  8.5383090579733203
  7.1131561184956178  7.1164688115717736  9.9594945869366285
  5.6842882048748757  8.5452799732375162  0.0005086711261905
  7.1092824850073679  9.9601425325416137  1.4264958438290420
  5.7145561112522492  8.5149990749359841  2.8685085239683166
  7.1147611996355256  9.9639283282679081  4.2655941320611044
  5.6912133658092321  8.5382068198582690  5.6898939060690203
  7.1130536170749705  9.9594945886083757  7.1163662044032092
  5.7139934374005348  8.5155289201016657  8.5155288360920682
  7.1045037950268348  9.9592516988306734  9.9593643218986188
  8.5132176443587433 -0.0215161577264894 -0.0215515834606739
  9.9446422143666258  1.3861950624863832  1.3864749369024478
  8.5471288485681303  0.0118949189580381  2.8438182341904108
  9.9203645853121039  1.3837001121998529  4.3092114719809143
  8.5149660603954942 -0.0226041961166227  5.7145232384590852
  9.9599964483610872  1.4195349858622510  7.1092479250857288
  8.5362671102906500 -0.0015615152265268  8.5395245478668187
  9.9657954617077991  1.4229523209249000  9.9657954346298467
  8.5473046979511107  2.8438296451011920  0.0119902280170768
  9.9203108900656805  4.3091577764710367  1.3837000766219298
  8.5410155687928189  2.8460377204019567  2.8459919674084806
  9.9110821217169303  4.3184403665901048  4.3184403157828131
  8.5452341181351947  2.8453958478550607  5.6842424687848778
  9.9593642638240443  4.2702707921062570  7.1045038013248680
  8.5395244679169657  2.8474659449967326  8.5362671948221944
  9.9616930813694555  4.2676945563725193  9.9730583107877973
  8.5149991305911676  5.7145561681815753 -0.0226040795793543
  9.9601426219191787  7.1092824194471929  1.4194086487250523
  8.5452799786703775  5.6842883251727052  2.8453958424612278
  9.9592516321727853  7.1045038324583674  4.2701579799456217
  8.5155288362630301  5.7139934220824227  5.7139935536257509
  9.9594945482770427  7.1130535972083102  7.1131561217571271
  8.5382068422684156  5.6912133333875969  8.5396283593409930
  9.9639283472061031  7.1147611203254462  9.9639282675079421
  8.5363530316247083  8.5396271963171557 -0.0015204910687805
  9.9659257942617074  9.9659257942667239  1.4229522915722932
  8.5396272139173011  8.5363528815430101  2.8474250901854026
  9.9618278660253683  9.9730583582715422  4.2678293341116342
  8.5383090603219163  8.5396284791047510  5.6913155127427757
  9.9640842744599141  9.9640842942434489  7.1147612173218979
  8.5396284700824836  8.5383091122373393  8.5382068655386174
  9.9730582246257722  9.9618277762092546  9.9616929522836610
  2.8785966917326729 -0.0326923979359839 -0.0326922483122060
 -0.0326923589491035  2.8785968002390616  2.8785965982044428
