Fe Ni
 1.0000000000000000
    11.3848664869945910    0.0000000000000000    0.0000000000000000
     0.0000000000000000   11.3854520092050073    0.0000000000000000
     0.0000000000000000    0.0000000000000000   11.3848664865872156
 Fe  Ni 
 126   2
Cartesian
  0.0047512719201531 -0.0071274837121652 -0.0000548672009353
  1.4321474231727409  1.4231813703022869  1.4140691004919668
 -0.0155206515585321 -0.0116269013938853  2.8616856905389270
  1.4192633445273131  1.4231682578736848  4.2602043572095676
  0.0010781790240356  0.0006124516304284  5.6924450817255350
  1.4192633326271245  1.4231946929339285  7.1246620037431381
 -0.0154690612060396 -0.0116268243897832  8.5231293078310770
  1.4321473321594187  1.4231815283151947  9.9707972896614177
  0.0047512123547012  2.8534903586471336  0.0000548463104738
  1.4203710844123225  4.2632517102847753  1.4258243557121391
 -0.0154690565120649  2.8579897921789499  2.8617371776098919
  1.4187287364750480  4.2766880836557002  4.2707364764645535
  0.0010782514637836  2.8457505611200986  5.6924215796951891
  1.4187081282902065  4.2766396523470052  7.1141039314184678
 -0.0155206470879108  2.8579898407900028  8.5231807186366026
  1.4203921585533612  4.2632515748377404  9.9590208319967335
 -0.0035426993771419  5.6951349552269734  0.0000117593375618
  1.4174573283128971  7.1159074992030025  1.4287592851660764
 -0.0121242051103599  5.7041735527945807  2.8583379073257333
  1.4212657895126379  7.1159429741759324  4.2777747307276197
 -0.0018335954628683  5.6929183597201849  5.6924413552170918
  1.4212659351300745  7.1158719945977635  7.1070917331363770
 -0.0121213815352569  5.7041736134623733  8.5265256807680565
  1.4174572792313256  7.1159073852443875  9.9561071986995859
 -0.0035426175673370  8.5366800041723927 -0.0000117617152331
  1.4203921538898423  9.9685633765293193  1.4258455716373026
 -0.0121213789589625  8.5276413819139716  2.8583408652864626
  1.4187081286552350  9.9551754358872806  4.2707626217604151
 -0.0018335591938778  8.5388966400141300  5.6924250139639465
  1.4187286457738775  9.9551269174407384  7.1141300471643341
 -0.0121240962255488  8.5276413145035654  8.5265285309450469
  1.4203709735534760  9.9685633593616423  9.9590420212958168
  4.2602858281400326  1.4231815260869922  1.4140690652929262
  2.8461618856660205 -0.0071274212269579  2.8414651961263599
  4.2731699033747654  1.4231947684524393  4.2602044849685070
  2.8462165287662016 -0.0002853975541612  5.6924333028447505
  4.2731699749153753  1.4231684025826792  7.1246621052797829
  2.8462714463129899 -0.0071274454999106  8.5434012238400623
  4.2602857050455896  1.4231814493726802  9.9707973394436742
  4.2720411307248449  4.2632518064123728  1.4258456158901576
  2.8462713668414823  2.8534904551029605  2.8414653274974531
  4.2737251140473971  4.2766395770038654  4.2707624967927700
  2.8462166376493943  2.8466484514016042  5.6924333195397763
  4.2737044678792895  4.2766881059212540  7.1141300419321034
  2.8461617444542808  2.8534902968457594  8.5434012433970814
  4.2720622125272358  4.2632517210915761  9.9590420282549843
  2.8462166527568473  5.6799111350191387 -0.0000000645321931
  4.2749759812510417  7.1159074959137705  1.4287593453852567
  2.8462283117937615  5.6951350566418251  2.8497593031160133
  4.2711674562921802  7.1158719941686428  4.2777747764510607
  2.8462165902293095  5.6919861806399652  5.6924332670671687
  4.2711674774001782  7.1159429809642756  7.1070917431151379
  2.8462049498220288  5.6951349173285992  8.5351072177446881
  4.2749759664283093  7.1159075891556878  9.9561071011059692
  2.8462166439260468  8.5519038921407677  0.0000000126154391
  4.2720622416144840  9.9685633079250664  1.4258244362106711
  2.8462049261820961  8.5366800224751209  2.8497593406497828
  4.2737044820624881  9.9551269846879578  4.2707364536391594
  2.8462165913446045  8.5398288978578254  5.6924332823038064
  4.2737251474159343  9.9551754729860864  7.1141040003181368
  2.8462283284813998  8.5366799900474568  8.5351072341478105
  4.2720411123915953  9.9685632887689177  9.9590208194278382
  5.6876819186206209 -0.0071273902876168  0.0000548660646481
  7.1064210654020945  1.4231682819894926  1.4269533074925107
  5.7079023680285568 -0.0116268630106063  2.8617371712653115
  7.1225602216688788  1.4231814877865070  4.2763436068966039
  5.6913549530031373  0.0006124639823540  5.6924214712319667
  7.1225602149480522  1.4231814941005283  7.1085228195232109
  5.7079539336433429 -0.0116268507866336  8.5231807639981270
  7.1064210093516209  1.4231946837813247  9.9579132005033149
  5.6876819379562651  2.8534904810185102 -0.0000547133827503
  7.1169530515955790  4.2766880500167712  1.4274879696500222
  5.7079538876668163  2.8579897859841097  2.8616857265712090
  7.1233215594640598  4.2734596628109589  4.2770618637795996
  5.6913549355323187  2.8457506033859938  5.6924449935619990
  7.1232783616081345  4.2734595927554082  7.1077616519633615
  5.7079024011305934  2.8579899000039903  8.5231292329598851
  7.1169791880408475  4.2766395429369144  9.9573580458200830
  5.6959759413584496  5.6951350539530576 -0.0000117724746678
  7.1239913754957431  7.1159429545743063  1.4249507813701356
  5.7045546207402280  5.7041736741424574  2.8583408377245640
  7.1224648599826716  7.1159075499664670  4.2762482711924967
  5.6942667727142968  5.6929182196323946  5.6924252298547451
  7.1224648945165825  7.1159074678075909  7.1086182168708536
  5.7045574141777857  5.7041736339214033  8.5265284391842364
  7.1239913793472533  7.1158720869869638  9.9599156884250633
  5.6959759370915659  8.5366799619141460  0.0000117145419920
  7.1169791348364697  9.9551755001081528  1.4275083995329050
  5.7045574204131153  8.5276413848908383  2.8583379181073441
  7.1232785048687797  9.9583554160058583  4.2771049029470145
  5.6942667375282685  8.5388968230625153  5.6924413240687119
  7.1233215070594520  9.9583554394285265  7.1078046533359549
  5.7045545777152356  8.5276413585304667  8.5265257333211242
  7.1169530621331898  9.9551269354528227  9.9573785198600291
  8.5386499298459491 -0.0002854676667594 -0.0000000461624126
  9.9708787121562175  1.4231946679151093  1.4269532551920219
  8.5386615899770071  0.0006124856301183  2.8451383026440791
  9.9547395996327701  1.4231814814592620  4.2763435244481167
  8.5386499246998842 -0.0004374789602022  5.6924331906490035
  9.9547395329084107  1.4231813462183156  7.1085229215447656
  8.5386381678754777  0.0006125131681873  8.5397280443307668
  9.9708786591055425  1.4231682960997458  9.9579131685239037
  8.5386498718396204  2.8466484332204463  0.0000001409759248
  9.9603205594216657  4.2766395937912440  1.4275084718142059
  8.5386381172087376  2.8457504952353312  2.8451383405442368
  9.9540213930223658  4.2734596938380092  4.2771048228364323
  8.5386499679369372  2.8468005128380693  5.6924332146689132
  9.9539781166740386  4.2734596108155625  7.1078046231843199
  8.5386616324250166  2.8457504926050943  8.5397281685325428
  9.9603466401152154  4.2766880186980609  9.9573785972196607
  8.5386498576708973  5.6919861376213658  0.0000000104103487
  9.9533084559080862  7.1158720495583108  1.4249508297457267
  8.5386579712630333  5.6929183057830235  2.8480501878199402
  9.9548347985061945  7.1159075146676383  4.2762482459986408
  8.5386498211432986  5.6934980626387395  5.6924332078145872
  9.9548347783048055  7.1159074745137838  7.1086182088367380
  8.5386418070550931  5.6929181780150993  8.5368164948946337
  9.9533084473913682  7.1159429846138504  9.9599156189388811
  8.5386499522163994  8.5398288714328636 -0.0000000417835852
  9.9603467110099260  9.9551269180116631  1.4274878874683030
  8.5386418343477910  8.5388967099339581  2.8480501079002467
  9.9539781766228206  9.9583553847744408  4.2770618922215347
  8.5386498038717935  8.5383170006311992  5.6924332654724807
  9.9540212427866077  9.9583554064977626  7.1077616154998573
  8.5386579038472572  8.5388967513729028  8.5368162767866203
  9.9603204910472591  9.9551754463293332  9.9573579658420641
  2.8462166052051918 -0.0126805908402581  0.0000000371191868
  2.8462166289719324  2.8590436911006907  0.0000000393948403
