Fe Pd
 1.0000000000000000
    11.4295974647264504    0.0000000000000000    0.0000000000000000
     0.0000000000000000   11.4301590400743436    0.0000000000000000
     0.0000000000000000    0.0000000000000000   11.4295974553502049
 Fe  Pd 
 126   2
Cartesian
  0.0149865870691304 -0.0018462755536230 -0.0028652834706333
  1.4058522250972045  1.4930358154249530  1.4520442798005890
 -0.0052597793438103  0.0075978124309678  2.8628199716130851
  1.4286564953563297  1.4337115551011479  4.2917135790833951
 -0.0046994330295846 -0.0092795271711714  5.7211106569501791
  1.4220780191624187  1.4292155529575845  7.1437270354913460
 -0.0126055879182023 -0.0151366113943267  8.5522099292912852
  1.3873205253580494  1.4494446750752641  9.9590303571452043
 -0.0418673102530805  2.8368648762673230 -0.0413791535061869
 -0.0541681324282662  2.8405381923126867  2.9112860376168355
  1.4277066752269092  4.2935828830355511  4.2768599286082072
 -0.0094700930197750  2.8604803581357703  5.7070823543997600
  1.4233668373926107  4.2928744717509382  7.1332250912841575
 -0.0314153885984380  2.8756926422393265  8.5492289402087636
  1.4258342789562297  4.2881559764761796 10.0158843527909163
 -0.0259796447671886  5.7328077976924376 -0.0219224352076296
  1.4281159873299731  7.1465123886781390  1.4296630551467640
 -0.0262536154212776  5.7356644721847374  2.8835642763453895
  1.4246131514950009  7.1380623485210126  4.2991649654787443
  0.0024262440445708  5.7185787677642024  5.7062937707683403
  1.4231762204410323  7.1361113484461125  7.1345262935661840
 -0.0112309178456124  5.7156563313774322  8.5683304569215455
  1.4193214978195483  7.1480333002120835  9.9909171266205803
 -0.0099806906225801  8.5684354147898336 -0.0093782165891960
  1.4084743481813455  9.9869175114717059  1.4491392509831569
 -0.0222571575066109  8.5538402825052309  2.8796219519490451
  1.4277837263960658 10.0001884243008856  4.2857388287545035
 -0.0080246981491958  8.5773335423877271  5.7227278625345681
  1.4255827024724705  9.9992915684315022  7.1478214027553006
 -0.0224131813146046  8.5666400412214934  8.5444947602887158
  1.4067772353433963  9.9836608614340978  9.9749180658211003
  4.3283689196735304  1.4494448081382094  1.4695898425472751
  2.8604860701005244 -0.0014508759156143  2.8422861392203767
  4.3177422909530137  1.4105105091612689  4.3090050326352420
  2.8626018099139023 -0.0064492118542770  5.7251412459092172
  4.2952826783050364  1.4260423287238484  7.1511538623584769
  2.8582664430850362 -0.0072480956959664  8.5812606950230990
  4.3399858151390669  1.4457715733535019  9.9467297003761761
  2.8807440225804095  2.7932737185748855 -0.0228474715557189
  4.2709858467577124  4.2877604137040306  1.4317864745303881
  2.8982895077801953  2.8368649438636653  2.8996691876670244
  4.2987495373395470  4.3014846327148790  4.3058544506624257
  2.8636063408570278  2.8570016016555129  5.7145971808639242
  4.2907827908801748  4.2955545911602933  7.1370437590967111
  2.8577252128998101  2.8528686596534181  8.5664786350378250
  4.2915196447794557  4.2787117878329921  9.9956379996507341
  2.8778389939049225  5.7295510950320123 -0.0202251882026614
  4.2964122793649047  7.1481755233679056  1.4379929906543278
  2.8793646380133078  5.7326914241633888  2.8833339622959060
  4.3085950822295827  7.1498535734979543  4.3139071674599361
  2.8607160904906332  5.7169162865561338  5.7104552253409153
  4.2941248439994189  7.1391048350156456  7.1355444552246370
  2.8583025869527141  5.7165379454662757  8.5724987496787399
  4.3083215517450197  7.1626284199440420  9.9786406511928494
  2.8583626191640565  8.5699562772032465 -0.0005835011411412
  4.3120337489519827  9.9837772906192193  1.4506650454166308
  2.8666926543764002  8.5682931662877948  2.8677126987985164
  4.2971559923128666 10.0006975655355621  4.2900679166851097
  2.8629346694799374  8.5803451540626217  5.7237304085251228
  4.2837456886624192  9.9980658867463461  7.1520472639845609
  2.8615129541605993  8.5782770073193362  8.5591861342004965
  4.3122639159808287  9.9808041553449947  9.9746440759473884
  5.7055596793916354 -0.0072732691860611 -0.0009930145801161
  7.1432969564692046  1.4293080099219735  1.4349065956132254
  5.7345541316095243 -0.0151751266840523  2.8700498719485799
  7.1554207917523325  1.4272454499220901  4.3008600789351075
  5.7270459038780537 -0.0102178585726595  5.7248094818474851
  7.1541397720141724  1.4366215121236501  7.1328668936033113
  5.7294576796274423 -0.0112996135054056  8.5575692532824039
  7.1357819187954927  1.4258293822100054  9.9914276062861216
  5.7204131997145149  2.8525981135058815 -0.0000431083594312
  7.1538409100893743  4.2927586817407883  1.4339020485580487
  5.7377048162629460  2.8757991105345408  2.8890426979920951
  7.1535092642794691  4.2965275757814760  4.2983462913618027
  5.7295596224378009  2.8590642561726876  5.7267211858755687
  7.1533800742837022  4.2969732639833982  7.1335833887807611
  5.7458883644991801  2.8741942059774965  8.5411141931728292
  7.1498103798537880  4.2955889712022257  9.9961983134542987
  5.7144385101986082  5.7162803523388837 -0.0009158408883111
  7.1524299549991577  7.1361235741471614  1.4342351075031528
  5.7187675672055969  5.7157711396897026  2.8684563194209618
  7.1514736186292005  7.1401082364252755  4.2985725825838159
  5.7207884158156022  5.7204787739410756  5.7264137994245949
  7.1522738813732465  7.1320172364504257  7.1346919658010348
  5.7295136131240127  5.7192324762339188  8.5575050635067758
  7.1514275694490106  7.1391351716878564  9.9928730333228959
  5.7278645923788289  8.5784063862377984 -0.0040864986491196
  7.1391547379320475  9.9995523675490183  1.4320162506718375
  5.7426067027133563  8.5666151141999300  2.8798953136242975
  7.1551134577128002  9.9959898809845740  4.2920886986110061
  5.7272723403706545  8.5763603924886471  5.7227737938738761
  7.1522520441251665  9.9943002671262704  7.1346426392867972
  5.7400128227360980  8.5618972514191523  8.5469567033177274
  7.1349934131776012  9.9978901236150808 10.0033239782667120
  8.5619249399394111 -0.0065648062982733 -0.0053329077220224
  9.9951782975994892  1.4334409896600526  1.4290254116869965
  8.5657434179375773 -0.0092450267221595  2.8620831622479272
  9.9698138980669668  1.4121155672197532  4.3171885715998508
  8.5622830827386966 -0.0106636284085376  5.7246803306064864
  9.9861037015316096  1.4272731712516140  7.1315493579944533
  8.5621820152106984 -0.0102532245732909  8.5598849855947297
  9.9779287657074001  1.4106169590168878  9.9694822949992403
  8.5724268833432511  2.8570939922572300 -0.0066218010878574
 10.0099605338394735  4.2935575741741214  1.4295666986812789
  8.5798533287326819  2.8602672180250490  2.8665830009481024
  9.9862688822599672  4.2976092723582173  4.3007578913652296
  8.5615665521763855  2.8496880022552773  5.7254401308946488
  9.9885847332411526  4.2965627634657766  7.1334823007121155
  8.5602490092416588  2.8590363008362818  8.5574040633716724
  9.9809098322597514  4.3014462171795520  9.9882922406377066
  8.5765209915240810  5.7171771398699995 -0.0031168745036692
  9.9878857950054858  7.1381915974257133  1.4328131613638744
  8.5807469634276110  5.7184027701501225  2.8550457895937487
  9.9756562177207808  7.1545714658209487  4.3113130945528022
  8.5633424841631935  5.7221683048178038  5.7235524223510268
  9.9884071907458480  7.1401174443792392  7.1355215766653721
  8.5605949870632614  5.7205299223746149  8.5661658201324116
  9.9731945138458613  7.1498285292339201  9.9784846619619110
  8.5632261095764370  8.5803573390397148 -0.0055234923615361
 10.0011984270839314  9.9999308278826362  1.4296029143765294
  8.5642441471969146  8.5773639756671294  2.8654250834803889
  9.9862046271816443  9.9972362528090351  4.3008141232147938
  8.5633916310854659  8.5844515092120446  5.7235742937229697
  9.9948656388513690  9.9959387361769636  7.1318954129653651
  8.5642213772560201  8.5763512643017350  8.5597075716613418
  9.9970303378289405 10.0008123570714069  9.9896668720928776
  2.8677788571166074  0.0235756126589400 -0.0104385829149840
  1.4182610394557955  4.2627345117349664  1.4390795045650082
