Fe Re
 1.0000000000000000
    11.4094556984782756    0.0000000000000000    0.0000000000000000
     0.0000000000000000   11.4170626888442417    0.0000000000000000
     0.0000000000000000    0.0000000000000000   11.4094557009435018
 Fe  Re 
 126   2
Cartesian
  0.0539391767613410 -0.0036183383127713  0.0099090316018416
  1.4059670590829392  1.4890638213318772  1.4470051500512409
  0.0142945663149257 -0.0020007732786567  2.8382867830130039
  1.4314972840599718  1.4362834777807176  4.2608483256234386
 -0.0036130961021154  0.0051606313967985  5.7017195927994946
  1.4317300419909860  1.4231456570320213  7.1321576095236061
  0.0035529036352527  0.0013143674338133  8.5597973631954538
  1.3998530672047180  1.4381212102196881  9.9815204300727434
 -0.0017528009494603  2.8432766950032176 -0.0263281745527082
 -0.0116283648547132  2.8577384598773370  2.8640642760235879
  1.4235498632256809  4.2827475142616036  4.2494671990389250
  0.0078913618942727  2.8581635825766254  5.7073217851747975
  1.4260625643924754  4.2769239265196246  7.1360158004471543
  0.0052858474491392  2.8607113935491943  8.5630246969954911
  1.4360914247699283  4.2850168541029428 10.0372139724064144
 -0.0270960659710537  5.7372024282016305 -0.0146975849357737
  1.4330249893594831  7.1149191337838920  1.4195390481262482
 -0.0123672297550090  5.7247032619233140  2.8648737539730957
  1.4191560491571535  7.1246865338516070  4.2714308504390219
  0.0102525574132692  5.6985114237001664  5.7009237929858170
  1.4184900084911691  7.1370158194382336  7.1335673733201208
  0.0055630368634327  5.6991456547054726  8.5635773406186413
  1.4304369528714276  7.1366204984805730  9.9906897172411053
  0.0074164191964858  8.5618411768898408  0.0042558323161673
  1.4116129386908294  9.9609110666578928  1.4407191947162996
  0.0000629350952797  8.5515934508964762  2.8523585576782540
  1.4277026256193406  9.9930946319786855  4.2768981841130032
 -0.0068656394327288  8.5615706398338460  5.7037536320479045
  1.4309901161585015  9.9940442633661277  7.1324050543998307
 -0.0087918982280482  8.5621403014403779  8.5570078596703301
  1.4114845997168100  9.9612592555305888  9.9561779594552888
  4.2810216584445229  1.4375521499135255  1.4509580094561276
  2.8426622570338038 -0.0036302606290303  2.7979991917779192
  4.2731813021886476  1.4205386840120175  4.2721240184433364
  2.8525824694352870  0.0044932242378357  5.6997931739254470
  4.2705060676614677  1.4232353953852412  7.1282890881862908
  2.8546297151172721 -0.0012966421645656  8.5869287371070655
  4.2902466374052510  1.4236562447732291  9.9716452038379231
  2.8731825958117110  2.7923396455623699 -0.0202107942206530
  4.2241797900993872  4.2850287094665322  1.4164795375121053
  2.8771373857552098  2.8438476622424642  2.8548375459980360
  4.2746973632219865  4.2802330513993470  4.2758022725292868
  2.8466639642205318  2.8580047892215532  5.7037410195272829
  4.2820899592967390  4.2761921995685537  7.1339189203329578
  2.8473574660963830  2.8451383029692190  8.5749939045318477
  4.2644689663246815  4.2833998409424678  9.9975678824429330
  2.8668980531094097  5.7375462704628166 -0.0145658788125957
  4.2711768009721123  7.1366123638648347  1.4219941321222931
  2.8667337097307914  5.7368190884223500  2.8795052365363731
  4.2871870847386173  7.1364108964019479  4.2786687858239434
  2.8477460821271610  5.7043739685626447  5.7034373132814791
  4.2854560617753563  7.1369373430770828  7.1320354644365080
  2.8509080399429707  5.7055378490262338  8.5587603445471760
  4.2785417014205409  7.1468685266636154  9.9833351864158164
  2.8457209762978097  8.5835421772528289  0.0068433452937067
  4.3056881588582563  9.9616412965438883  1.4405527104298856
  2.8481757551386062  8.5618497509902820  2.8449942529557366
  4.2729979272074123  9.9990842503238486  4.2721390770030370
  2.8601306765028940  8.5615947019915630  5.7021364057450130
  4.2684104198010981 10.0002061204772517  7.1348889517926155
  2.8593370263556177  8.5738818192506052  8.5643479427582072
  4.2910542198163801  9.9737599300408579  9.9709077526877596
  5.6756486675197113 -0.0013490051313167 -0.0026324867920185
  7.1299225051057062  1.4233938617014990  1.4204822793208514
  5.7019840938454802  0.0011658729694052  2.8485150167000453
  7.1284126886861472  1.4352892465567422  4.2752370936416710
  5.7037110643256224  0.0039229186949059  5.7022516544068660
  7.1302724666365416  1.4360481583818285  7.1314963078232934
  5.6940748260193326  0.0012491929341879  8.5677887190467885
  7.1335040833021868  1.4232349030035170  9.9911651443871499
  5.6870314437053056  2.8451150218876942  0.0053158112029775
  7.1259749762082469  4.2769052863319690  1.4264002216834057
  5.6983056858679921  2.8608588253432115  2.8469991505164143
  7.1284336306788081  4.2774757611377865  4.2775289704804971
  5.7014195090592299  2.8461093543157743  5.7022306960670317
  7.1285849883922383  4.2726370141982963  7.1331560208258766
  5.6958131605086724  2.8469805995361939  8.5659426683648956
  7.1279012089798828  4.2762377069329887  9.9796605669642435
  5.7030809517821357  5.7053663900536487  0.0015203777627306
  7.1283183087665289  7.1368663715088703  1.4339485526593811
  5.6983213415534344  5.6993769727112777  2.8468160121600401
  7.1311181137277986  7.1311081399869538  4.2788661231831275
  5.7018930658155496  5.7095157612211853  5.7075659202750160
  7.1315477243064906  7.1341784905987025  7.1302789326642682
  5.7052502641092842  5.7126346168880060  8.5566386930622169
  7.1299358914765305  7.1368907215601380  9.9764082288950462
  5.6976130007207786  8.5737746481448323 -0.0070254092159151
  7.1296185785280342  9.9940872816846191  1.4215640721461771
  5.7048501946168679  8.5620508770125685  2.8610049485226945
  7.1337478382135346  9.9889452960594305  4.2757111404043115
  5.7050478325453264  8.5673532012170046  5.7049359414927192
  7.1324121434858192  9.9925133771547081  7.1292149139115137
  5.7068538986580499  8.5676014725298018  8.5550840050174397
  7.1271065337349473  9.9999499818857025  9.9935260551269423
  8.5621978355347803  0.0044744495561835 -0.0001200900029430
 10.0011765109863973  1.4362603227926347  1.4211757382140768
  8.5601003292059072  0.0052063700582603  2.8559079985648617
  9.9921250874687768  1.4344182896213584  4.2696307713905233
  8.5593377492443334  0.0087614043300446  5.7024035787671403
  9.9864417300269075  1.4352620348672076  7.1333022711934033
  8.5594016804091613  0.0038366418413194  8.5579875872721427
  9.9892065922799400  1.4206869221379850  9.9885595773148008
  8.5583402037802259  2.8582528331506900  0.0055481519210696
 10.0131101736124144  4.2826953430191033  1.4284468298427229
  8.5544712685494666  2.8581627969574654  2.8443238561971351
  9.9939709311816056  4.2801495984355657  4.2678928128937956
  8.5576782799742102  2.8453501980064009  5.7040905794224548
  9.9841696251814636  4.2775617041228049  7.1332197779868496
  8.5594839682450328  2.8461363332929746  8.5602597516860648
  9.9859791339763397  4.2800840572653271  9.9868267945217237
  8.5585872380917465  5.7044171211343890  0.0048084822901163
  9.9905298874279396  7.1245789526423495  1.4331550878821420
  8.5610715337121093  5.6982552194019025  2.8422285003414087
  9.9812659853776875  7.1308591283907816  4.2806714968575763
  8.5553970290611083  5.7059479596257034  5.7062299694953094
  9.9829088747964398  7.1310398299159354  7.1307143152874115
  8.5543026076069300  5.7094959697429246  8.5597727600228541
  9.9831896085903349  7.1363207060341027  9.9744818843482790
  8.5597491773557426  8.5614450881965674 -0.0076920744249777
  9.9849429731105399  9.9929233593201126  1.4247260002260576
  8.5582174763322492  8.5615235473053009  2.8592743510185237
  9.9828207344650615  9.9858261574344720  4.2790683802592673
  8.5564606778705148  8.5642823632573766  5.7053659472144185
  9.9859541831696301  9.9889656220319178  7.1281208653205068
  8.5568962173848178  8.5674215623746317  8.5567272344222722
  9.9897596758589433  9.9993158161699007  9.9888367567508585
  2.8432976684905165 -0.0052311179782648  0.0085104603786283
  1.4347022372512526  4.2866283707196828  1.4171112072871288
