Fe Mo
 1.0000000000000000
    11.3954912976624190    0.0000000000000000    0.0000000000000000
     0.0000000000000000   11.3968289037977399    0.0000000000000000
     0.0000000000000000    0.0000000000000000   11.3954912899970111
 Fe  Mo 
 126   2
Cartesian
 -0.0205804934597076 -0.0074891012670593 -0.0000647927827791
  1.3687249405989597  1.4246035805200552  1.4801479200953602
 -0.0168861155501727 -0.0061577486048591  2.8659941592924549
  1.4212390102804544  1.4246708467893447  4.2558377468616877
  0.0029578268623434 -0.0002063005688053  5.6977388676004974
  1.4212389458419001  1.4245363793984733  7.1396535835702313
 -0.0171212749858767 -0.0061577425560265  8.5297323059159886
  1.3687248354419246  1.4246037595033916  9.9153434495917008
 -0.0205805148702854  2.8566963157856295  0.0000648431418917
  1.3812419784289236  4.2971934521950237  1.4677246057816347
 -0.0171213275051629  2.8553649054276189  2.8657588510204239
  1.4218976306573134  4.2750637895806252  4.2682988488146547
  0.0029577939967893  2.8494134586123474  5.6977523229508025
  1.4218535135252708  4.2750965152681202  7.1271218267793346
 -0.0168860299244490  2.8553648495571409  8.5294971938000241
  1.3811480052573692  4.2971936469428069  9.9278603737391844
  0.0043681462635847  5.7067261404390877 -0.0000115485098387
  1.4208867110356984  7.1230181549821427  1.4279861992724545
 -0.0156388272554262  5.7119701857455212  2.8644640942721575
  1.4238120898939848  7.1229821520929963  4.2713638063289272
  0.0002821502919873  5.7028349726932719  5.6977121637678358
  1.4238120539123815  7.1230538209651408  7.1241274847049851
 -0.0155913521626861  5.7119702554753795  8.5309796438911079
  1.4208865945197535  7.1230180206060103  9.9675052071410857
  0.0043680528652479  8.5393099650647386  0.0000115251257328
  1.3811481415732221  9.9488426496717430  1.4676309286585250
 -0.0155913169291253  8.5340659091255109  2.8645116841066511
  1.4218534986153031  9.9709397223590255  4.2683695372484083
  0.0002821037914412  8.5432012691627790  5.6977791075509616
  1.4218977512954667  9.9709724312471426  7.1271924432270533
 -0.0156387461141997  8.5340659376241135  8.5310271927111039
  1.3812418152941839  9.9488425416155284  9.9277665850119714
  4.3290205432086992  1.4246035747911070  1.4801477398967897
  2.8488078986196665 -0.0074890674045500  2.8694533102904831
  4.2765066456018550  1.4245363931953710  4.2558376550002741
  2.8488728294453907  0.0088970203407772  5.6977456856637412
  4.2765066041790742  1.4246708364643050  7.1396536005079803
  2.8489377294311367 -0.0074890562396265  8.5260380300055871
  4.3290207805185981  1.4246034550567179  9.9153435170417961
  4.3165974887823486  4.2971936082720097  1.4676309688133593
  2.8489377077517091  2.8566963413869209  2.8694532280436236
  4.2758922135563386  4.2750965019040637  4.2683693831771805
  2.8488728116934250  2.8403102104044513  5.6977456135149733
  4.2758479390476403  4.2750637651386727  7.1271924919613383
  2.8488080330262009  2.8566963252989974  8.5260379839224107
  4.3165037688190111  4.2971935208049743  9.9277666408159000
  2.8488728531537313  5.7164094292988237 -0.0000000729442520
  4.2768589403499737  7.1230180748776055  1.4279861056134997
  2.8488614244271209  5.7067261994003413  2.8445047093264928
  4.2739336577617939  7.1230539317197321  4.2713637416127836
  2.8488727982603712  5.6946747071901891  5.6977455232530287
  4.2739336645327226  7.1229823570252018  7.1241275238260497
  2.8488843342984649  5.7067261333447128  8.5509865136407406
  4.2768589777380619  7.1230180224646613  9.9675050334697239
  2.8488728501949336  8.5296266384942285  0.0000000235713500
  4.3165037639384600  9.9488427150217795  1.4677246786614897
  2.8488842951068385  8.5393099203074279  2.8445046538566490
  4.2758479855277258  9.9709723784060120  4.2682988304194573
  2.8488728940746197  8.5513613023283703  5.6977456717938013
  4.2758922202604781  9.9709395332977824  7.1271217517032870
  2.8488613918103836  8.5393099413897318  8.5509865875533038
  4.3165974970811956  9.9488425905211262  9.9278603328203801
  5.7183261599651019 -0.0074890737750046  0.0000648105566784
  7.1047105506887833  1.4246707549368773  1.4276338023233528
  5.7148669886191383 -0.0061577524568031  2.8657588113374501
  7.1205927024461255  1.4246035555179939  4.2717199720759940
  5.6947879442788425 -0.0002062702132570  5.6977521891815828
  7.1205927964596931  1.4246035989688544  7.1237712852067085
  5.7146317037508618 -0.0061575651081992  8.5294972400646660
  7.1047105671355721  1.4245364608627571  9.9678574663345909
  5.7183260258799526  2.8566963802904044 -0.0000649126104962
  7.1171717337136160  4.2750638127216956  1.4269752513095832
  5.7146317632094288  2.8553649340430773  2.8659941333182801
  7.1248947877510247  4.2784358965750497  4.2760606341005216
  5.6947878140708506  2.8494135051267238  5.6977389907112599
  7.1249335449557014  4.2784359082932051  7.1194694195758643
  5.7148669758552364  2.8553649435391777  8.5297322780874829
  7.1172422659890842  4.2750965207577751  9.9684719614572650
  5.6933776460767582  5.7067261770831905  0.0000114425626354
  7.1202365695491743  7.1229821729362586  1.4250608076103883
  5.7133369630684090  5.7119702194113966  2.8645116394044843
  7.1339198724609219  7.1230181219935105  4.2850470313499338
  5.6974635395085107  5.7028349870174742  5.6977789984577836
  7.1339198891076494  7.1230181615657697  7.1104442170878546
  5.7133844453793348  5.7119702046802523  8.5310270839717433
  7.1202366311302612  7.1230538744689582  9.9704305743951220
  5.6933775846269796  8.5393098650428740 -0.0000114500251016
  7.1172422864543332  9.9709395785960613  1.4270193432641503
  5.7133844226022488  8.5340657578204322  2.8644642371744120
  7.1249333916003881  9.9676000669015128  4.2760219582874042
  5.6974635290906974  8.5432011521558309  5.6977120548744224
  7.1248946676802776  9.9676002419408185  7.1194307175121683
  5.7133369991621326  8.5340658484376952  8.5309797076553302
  7.1171717474312990  9.9709722799147222  9.9685161177770762
  8.5466184215309724  0.0088970930475016  0.0000000067681563
  9.9885264456040463  1.4245363245617446  1.4276338477988324
  8.5466117679286171 -0.0002062460451377  2.8459149746101060
  9.9726441598325426  1.4246035976162263  4.2717199076399783
  8.5466184917292800  0.0012564873639054  5.6977455980205169
  9.9726441236356216  1.4246035627053597  7.1237713486564322
  8.5466251106701794 -0.0002062582401012  8.5495762223257064
  9.9885264721920244  1.4246707720870886  9.9678574541248821
  8.5466184160680356  2.8403102488753906 -0.0000001155249960
  9.9759947016788342  4.2750964891635261  1.4270193615443263
  8.5466252398798019  2.8494135758145562  2.8459150417211729
  9.9683036166404975  4.2784359459657342  4.2760218558932648
  8.5466184747639407  2.8479507977105807  5.6977455949504003
  9.9683422082084370  4.2784359453574501  7.1194305800998787
  8.5466116822010783  2.8494135364526039  8.5495763385088992
  9.9760652878469553  4.2750638288564824  9.9685161260935828
  8.5466185269808950  5.6946746549944018 -0.0000000567813558
  9.9730003395686868  7.1230538936131067  1.4250607592324680
  8.5465849729842613  5.7028349822202307  2.8485907422208481
  9.9593169877875436  7.1230180374909535  4.2850470329867241
  8.5466186197220502  5.6922850680394053  5.6977457018970821
  9.9593170469096624  7.1230181078255521  7.1104442291129972
  8.5466519498541409  5.7028349800704259  8.5469006343451177
  9.9730003644848200  7.1229822494560642  9.9704305650343041
  8.5466183738382870  8.5513613619544682 -0.0000000603847168
  9.9760653211195667  9.9709724018690764  1.4269750638355747
  8.5466519658660491  8.5432012247959612  2.8485907970504449
  9.9683420931379949  9.9676001153595131  4.2760606549880489
  8.5466184634763405  8.5537509011087920  5.6977455829095787
  9.9683036637646953  9.9676001323691281  7.1194693606755894
  8.5465849533080682  8.5432012196783393  8.5469006325689509
  9.9759946100225410  9.9709395909616223  9.9684719315592432
  2.8488729562022148 -0.0639833514583520  0.0000000739832931
  2.8488728213580310  2.9131907263147268  0.0000000492608644
