Fe Os
 1.0000000000000000
    11.4643250571641904    0.0000000000000000    0.0000000000000000
     0.0000000000000000   11.3831388627666392    0.0000000000000000
     0.0000000000000000    0.0000000000000000   11.4643250788988968
 Fe  Os 
 126   2
Cartesian
  0.0601352269901724 -0.0000003619170996  0.0601347870109085
  1.4330384660898650  1.4034339398641478  1.4330424080504041
  1.4514811446103844  1.3934289465886531  4.3170429887868860
 -0.0188932325208053  0.0001421000642168  5.6880827744858342
  1.4330406088651386  1.4037147100114775  7.1652029257656684
 -0.0169753809608491  0.0000658154086334  8.5765253364134697
  1.4146009693011758  1.3934281210568824 10.0133638414833541
  0.0128225076552975  2.8278466331646173  0.0131178855978567
  1.4330406698560418  4.2545951412049208  1.4330404489989343
 -0.0053505147670224  2.7594963142315221  2.8713929893058858
  1.4192841384256036  4.2649206609690316  4.2887829162781284
  0.0037560165432537  2.8434470540444661  5.7335086645828941
  1.4330407843061614  4.2759944499040632  7.1652032356770849
 -0.0032117670633980  2.8514472616858670  8.5939102309611872
  1.4467970359800171  4.2649206155951935 10.0416231752667287
  0.0038814601132013  5.6915697379473729  0.0038817073009078
  1.4330406569599357  7.1285398144857437  1.4330404411132702
  0.0077244899955279  5.6915699734696910  2.8583568297811928
  1.4194686000555456  7.1178253157692302  4.2886473715205309
  0.0046361006610993  5.6914867107789133  5.7294100384600197
  1.4330408711922866  7.1070189437755857  7.1652030583799151
  0.0040456963663606  5.6914356816792475  8.6053401177455857
  1.4466128700448380  7.1178247129633840 10.0417592181818218
  0.0131157012988451  8.5552917742872712  0.0128218496510196
  1.4330397597921003  9.9797219350574728  1.4330414749610116
 -0.0053136988917193  8.6236458714334869  2.8714347652240440
  1.4511118153884335  9.9891707604227147  4.3176906873137852
  0.0036420025824865  8.5394565918385670  5.7336801567011744
  1.4330405351160782  9.9791857956292347  7.1652029304061990
 -0.0031207655737886  8.5314712033509572  8.5937560288788628
  1.4149714949143453  9.9891722486656036 10.0127172151662265
  4.3177023811186785  1.3939777210570143  1.4511236058173147
  2.8059462626333715 -0.0000003699888376  2.8059466210435118
  4.2946776320549418  1.4061524655416797  4.2944056406852322
  2.8830562321248250  0.0000658745095102  5.7538817944092857
  4.3052317913476754  1.4315195284706237  7.1712887051888368
  2.8849747898275533  0.0001418738858815  8.6423241592864386
  4.3440579123891325  1.4436142682698172  9.9866201207446341
  2.8714325881613925  2.7594966624201378 -0.0053117448237575
  4.2886465113181682  4.2653121367715574  1.4194685130157385
  2.8532589488382487  2.8278460283803448  2.8529634105415935
  4.3006552345088709  4.2728550061673864  4.3004796048720797
  2.8692928538636582  2.8514466270137087  5.7364961314794281
  4.3003282629694031  4.2751379497016986  7.1624236163835953
  2.8623255423911833  2.8434472272890781  8.5968976138902828
  4.2890574393273937  4.2636471504024289 10.0415318276800445
  2.8583568563852033  5.6915704776797904  0.0077240229242109
  4.2887836504643069  7.1182174751471967  1.4192848019120357
  2.8621998777419830  5.6915698629538269  2.8621994933194466
  4.3004802533551603  7.1102843250644572  4.3006555726059057
  2.8620356741787085  5.6914362748527321  5.7250663872055965
  4.3003630873184964  7.1077608700691446  7.1624824705822139
  2.8614453174949546  5.6914864016884810  8.6009961741375154
  4.2888745388730829  7.1194910132816034 10.0413487471457454
  2.8713952008113810  8.6236453855246804 -0.0053535642894869
  4.3170432693434231  9.9897106659274755  1.4514808162926547
  2.8529655770344688  8.5552921305850056  2.8532600843803912
  4.2944062470508362  9.9769855829590632  4.2946766075551688
  2.8692016252695289  8.5314715841786306  5.7366500419682085
  4.3053738728260456  9.9518652027790164  7.1712238398242452
  2.8624393161212245  8.5394562239213130  8.5967260247752559
  4.3437795860334534  9.9395284453967037  9.9863544545481204
  5.6880837335375869 -0.0001421852185578 -0.0188927181971352
  7.1652030118720278  1.4039527261483427  1.4330404896024247
  5.7538799443431072 -0.0000653953836949  2.8830556260221787
  7.1712245895059921  1.4312734974473371  4.3053746747209534
  5.7414806649030670  0.0000000447922718  5.7414809770792186
  7.1652032298027963  1.4501045015654788  7.1652029773141548
  5.7428014458257550  0.0000009856435137  8.5876050160094035
  7.1591819869512827  1.4312732452736647 10.0250319942614876
  5.7336795597402404  2.8436813731413948  0.0036432505391649
  7.1652032157224328  4.2761194509677107  1.4330405672862154
  5.7366478908909047  2.8516648941951321  2.8691997190205312
  7.1624830976655822  4.2753780105963912  4.3003639685172983
  5.7322003441547542  2.8578404492102991  5.7321179304291361
  7.1652030621293257  4.2848201598052542  7.1652033968185993
  5.7402233445131001  2.8659463041637880  8.5902663456804973
  7.1679230504821305  4.2753780487063411 10.0300426027221885
  5.7294101549417311  5.6916528817428862  0.0046364036437874
  7.1652031646232217  7.1071448813303828  1.4330406376137328
  5.7250653077965934  5.6917043684045634  2.8620353292041472
  7.1624231750347152  7.1080013675352944  4.3003285607363964
  5.7247576075741895  5.6915697044223270  5.7247579420063168
  7.1652030777928220  7.0983190263661040  7.1652035800950129
  5.7256940250019044  5.6915693436346118  8.6047117801361974
  7.1679830455254239  7.1080012799419547 10.0300775648219584
  5.7335092010304542  8.5396916430697623  0.0037564686749434
  7.1652028721088099  9.9794240523323179  1.4330404340575491
  5.7364961040733240  8.5316919768672541  2.8692933507551621
  7.1712887716472471  9.9516182337982038  4.3052316936623090
  5.7321179091763996  8.5252978639143908  5.7322002929375602
  7.1652033234664323  9.9330337670272311  7.1652031219025636
  5.7401412706868324  8.5171916892299695  8.5901820619839224
  7.1591175366376092  9.9516185580871728 10.0251750200633829
  8.5765259297331351 -0.0000656931305460 -0.0169748108150123
 10.0127062991662221  1.3939755084121586  1.4149603687107104
  8.6423225227520284 -0.0001418322639286  2.8849741807377991
  9.9863481850882128  1.4436147775938530  4.3437868214830484
  8.5876051204058665  0.0000005446946068  5.7428015930123664
 10.0251744255150186  1.4315193091022389  7.1591171755508611
  8.5889256829088438  0.0000001777405807  8.5889255770530681
 10.0357284188071390  1.4061526310436177 10.0360000461037142
  8.5937575733105245  2.8516659026869173 -0.0031185924114008
 10.0417596377828087  4.2653126939089958  1.4466128306007131
  8.5967266518092682  2.8436814745381613  2.8624385129424019
 10.0413490592859507  4.2636474640551683  4.2888749788197646
  8.5901832467556201  2.8659463274757506  5.7401400576503843
 10.0300779051468503  4.2751382053236044  7.1679825782464155
  8.5982059305054221  2.8578405434322129  8.5982881713010659
 10.0297511640845620  4.2728548487428339 10.0299263235423588
  8.6053408877806081  5.6917043608698092  0.0040460741787475
 10.0416223758349492  7.1182175709400672  1.4467963941426925
  8.6009962739088177  5.6916529007867531  2.8614450773545572
 10.0415315317792171  7.1194911084569412  4.2890578903662275
  8.6047123844574731  5.6915691399800314  5.7256942646602598
 10.0300429912514257  7.1077608226668074  7.1679238357968176
  8.6056484876291446  5.6915699758076777  8.6056486298857209
 10.0299260726629154  7.1102843040031809 10.0297509405014615
  8.5939096488456510  8.5316916109509702 -0.0032120141175220
 10.0133644218413806  9.9897115260537266  1.4146020081330168
  8.5968970721913500  8.5396913964227341  2.8623252781114359
  9.9866256853760227  9.9395271865955603  4.3440532217249128
  8.5902653568626803  8.5171919405210659  5.7402240359638590
 10.0250318762116208  9.9518650870902778  7.1591823228147131
  8.5982883495415496  8.5252975805997515  8.5982060649309968
 10.0359998372276014  9.9769857236719250 10.0357292450426296
  2.9019424471097515 -0.0000213251007962 -0.0358846768044749
 -0.0358634729747000 -0.0000182795174250  2.9019572030962215
