Fe Hf
 1.0000000000000000
    11.3993930588441561    0.0000000000000000    0.0000000000000000
     0.0000000000000000   11.3993930631380920    0.0000000000000000
     0.0000000000000000    0.0000000000000000   11.3993930631219502
 Fe  Hf 
 126   2
Cartesian
 -0.0556455976215596 -0.0804881196540962 -0.0807525367002697
 -0.0871058469964361 -0.1121605552449780  2.9374653373813095
  1.4245397088066409  1.4255877060894317  4.3112349834526880
 -0.0062074217345748 -0.0020319198735551  5.6888970785796218
  1.4215772203044068  1.4281454541343248  7.1287937609495211
  0.0105455206755478  0.0064272114687913  8.5710787898836109
  1.3441714689749438  1.5054122502839349  9.9188233313605938
 -0.0876172459004833  2.9369542374408044 -0.1121607714364698
  1.4242605596857585  4.3112350079221438  1.4253085624160544
 -0.1518447806332064  3.0016929174238354  3.0016930556897292
  1.4296416646218644  4.2607125418048613  4.2608277020511300
 -0.0098683466993553  2.8596601422258168  5.6831567535256378
  1.4258644803316651  4.2781359974437629  7.1245318922542173
 -0.0272804620106692  2.8770316317496829  8.5378622290777315
  1.4312554217733862  4.2531568406432347  9.9851616130895344
 -0.0060956746596781  5.6890410005932228 -0.0020581320049095
  1.4217028195199588  7.1287937252203770  1.4282709283782369
 -0.0098118439113099  5.6831567589894449  2.8597165634592061
  1.4258648675093577  7.1244613906223595  4.2782640475203610
 -0.0000439930789484  5.6973546692331611  5.6974960830362926
  1.4254663717034075  7.1231419850101805  7.1231817882407684
 -0.0040675142349320  5.6981754625537526  8.5413678511345044
  1.4228661126720517  7.1352761022760580  9.9683732954027438
  0.0106927331097674  8.5711603688039730  0.0063312512722793
  1.3444360922998020  9.9188233767849567  1.5056766883099471
 -0.0271833482987002  8.5378622204682610  2.8771286930339457
  1.4313513202656880  9.9850143909485762  4.2532383965258385
 -0.0040183621488538  8.5413447471690542  5.6982574429018831
  1.4228921919532611  9.9682614217616603  7.1354201195577733
 -0.0306726444791713  8.5168193121598019  8.5168494972264757
  1.3127635126615045  9.8873631064056653  9.8868517917343617
  4.3304180379873998  1.5056767386987482  1.5054123636976420
  2.9303362120429255 -0.0807525452538471  2.9054938246321660
  4.2640796669662846  1.4185928601759010  4.2531568286984163
  2.8530695194548761 -0.0033468573971407  5.6955234785374946
  4.2808680707063589  1.4269821260662463  7.1352761829216194
  2.8505117804578730 -0.0003844568759447  8.5130821758702773
  4.3623895835061273  1.5370847080373462  9.8873630396140548
  2.9306009291914870  2.9054938094844780 -0.0804880465514696
  4.2642269303490830  4.2532383639152087  1.4184969890192982
  2.9620089160560235  2.9374654424796680  2.9369541648164668
  4.3054451089436947  4.3074677325996422  4.3074979216033347
  2.8519063143674139  2.8559439538663800  5.6890410693300488
  4.2788399085340600  4.2829493105584113  7.1261417737262640
  2.8435169905901336  2.8391554992254431  8.5711603277975090
  4.3020527493133089  4.2864549438335011  9.9472855930622153
  2.8531951540226381  5.6955233276761090 -0.0032212632226982
  4.2809798381943418  7.1354200851113356  1.4269560541670396
  2.8518802056082313  5.6888971109071944  2.8560556757299498
  4.2787906823596034  7.1260596942616132  4.2829724108225529
  2.8493060149990885  5.7011354232308875  5.7011752778290514
  4.2748163966566599  7.1268210684101518  7.1269625405458576
  2.8489078728229322  5.6997852863966010  8.5461811776576990
  4.2846407277716336  7.1411603372066583  9.9646570933897038
  2.8502327403269230  8.5130821733554303 -0.0006635900677030
  4.3618781867826879  9.8868517387485380  1.5370847402796197
  2.8434209848148386  8.5710787827432178  2.8393027780574047
  4.3019556636248115  9.9471885189363842  4.2864549322621182
  2.8489075508048676  8.5460531555622570  5.6998558377289728
  4.2845842504097185  9.9646005891192395  7.1411604469268086
  2.8451307959745793  8.5634894044285481  8.5636047081448403
  4.4266170216559591  9.8226243363729022  9.8226243210369599
  5.7361591705216757 -0.0006636738961744 -0.0003844238878997
  7.1204475555916886  1.4282709411880394  1.4281453885989017
  5.6780809863723114  0.0063311572174642  2.8391555123220376
  7.1247094316781654  1.4239836862966475  4.2781360270615600
  5.7030600411041226  0.0009402720520641  5.6997853240108514
  7.1260594654166454  1.4243818708738436  7.1231419332935912
  5.6856367195317414  0.0047174481219781  8.5634894377017172
  7.1138212079584795  1.4269560464677851  9.9682615363963833
  5.6781624700912516  2.8393027812555238  0.0064272273629705
  7.1247800377602504  4.2782639751967366  1.4239833780020645
  5.7113791563314749  2.8771286450689257  2.8770315968714542
  7.1372306190580286  4.2896531249670868  4.2896131926319407
  5.7078734846457992  2.8539157452528214  5.6981754045728543
  7.1355289754616340  4.2863529974801180  7.1137629403247038
  5.7323917576225982  2.8805208936902527  8.5168193336142242
  7.1231816310560392  4.2829724048636884  9.9704506179826886
  5.7031882119213293  5.6998557859141110  0.0009407314894945
  7.1260994385747178  7.1231817940222895  1.4243818364277736
  5.7078965850273846  5.6982574861175115  2.8538665431442887
  7.1354784005672576  7.1137123206182507  4.2863530388598523
  5.7112771734761933  5.7106048641442504  5.7105542883939853
  7.1366981776071654  7.1125431230135163  7.1125431190095698
  5.7145772547512870  5.7123064131858170  8.5347040458654746
  7.1224202670616910  7.1269625886183912  9.9744248919351133
  5.6857518872989115  8.5636046662266914  0.0047175333737276
  7.1139651993537756  9.9683732221684060  1.4269821471957223
  5.7324220418026366  8.5168494391672755  2.8805209070155824
  7.1230995230643916  9.9704014323172672  4.2829493284689795
  5.7145372542589765  8.5346640506011990  5.7123064440107658
  7.1222787292008300  9.9744248203198858  7.1268210310465845
  5.7498835229433087  8.4993577902258313  8.4993578240176735
  7.1080809473961448  9.9646570279736313  9.9646005879542461
  8.5537179357978008 -0.0032213667531087 -0.0033469044674380
  9.9380062341729616  1.4253085652572690  1.4255876518573904
  8.5602002807944277 -0.0020580862527171  2.8559439434398901
  9.9884135565687462  1.4202065406830664  4.2607125798688559
  8.5480659774964742  0.0005422118089562  5.7011354771051375
  9.9709772804472880  1.4239833819759513  7.1244613369765819
  8.5493854647426311  0.0009407097285315  8.5460531412721323
  9.9960029508417936  1.4184968940108087  9.9850143844430530
  8.5603442679542390  2.8560557118561820 -0.0020319871008514
  9.9885288278535338  4.2608277666534962  1.4202066050992581
  8.5660845769933882  2.8597165072034989  2.8596601409567235
  9.9242818708710789  4.3249594741362536  4.3249594352085010
  8.5517452379780980  2.8498922549463361  5.6973546657619343
  9.9595882029417293  4.2896131886669613  7.1120107096964373
  8.5509838708961219  2.8538665343511616  8.5413447812422572
  9.9417735435508980  4.3074979532298885  9.9437962046095283
  8.5481059491002238  5.7011753086923695  0.0005422286063439
  9.9711054199355118  7.1245318672705400  1.4239837644196738
  8.5518866824662361  5.6974960894403628  2.8498922500450607
  9.9596281185608273  7.1120107318005266  4.2896531128342152
  8.5374671998120810  5.7117741271941451  5.7117741234960588
  9.9628883077837358  7.1137629695554221  7.1137123020373707
  8.5386364593238344  5.7105542878549311  8.5379641326321032
  9.9662919642638723  7.1261418303599955  9.9704013895920252
  8.5494560300695444  8.5461812358091471  0.0009403578391496
  9.9960844597625265  9.9851616507339838  1.4185929152704340
  8.5510659340671840  8.5413678429167579  2.8539157528355998
  9.9417434093454400  9.9437962832261420  4.3074677591963546
  8.5386870577464116  8.5379641626930223  5.7106048507942067
  9.9662688976946718  9.9704506597906022  7.1260597390435976
  8.5369348932224245  8.5347040125936484  8.5346640100709958
  9.9627863934194369  9.9472856148927278  9.9471884727225053
  3.0036254869006198 -0.1537770889087352 -0.1537771394332627
  1.2711467692219285  1.5787016419767732  1.5787013038558162
