Fe V 
 1.0000000000000000
    11.3699276235673548    0.0000000000000000    0.0000000000000000
     0.0000000000000000   11.3709020075443110    0.0000000000000000
     0.0000000000000000    0.0000000000000000   11.3699340347347118
 Fe  V  
 126   1
Cartesian
  0.0188446930715808 -0.0009472041662193 -0.0017681148102433
  1.4121568082967215  1.3962286448159893  1.4301742647633788
  0.0026435102402947 -0.0029086446112150  2.8398397320657520
  1.4219360599321900  1.4328828561915810  4.2512356933539461
  0.0021754171136037  0.0012336372814663  5.6840612741460266
  1.4223693862455236  1.4283747120296653  7.1111135066953750
  0.0042452520423627  0.0002266695308230  8.5328328318571280
  1.4123231097209286  1.4441341281992370  9.9497171892626373
  0.0607847486983564  2.8873689469621309  0.0559476209348282
  0.0536101867509006  2.8993656574409465  2.7889395567713815
  1.4224231627159210  4.2673987943230545  4.3045050396710360
 -0.0008973536214177  2.8408266115686218  5.6864473957194663
  1.4222342791415046  4.2664832674431921  7.1052178633248966
 -0.0058736248107444  2.8454750749050266  8.5209786641520804
  1.4237597616334630  4.2600972630102065  9.9103215797393549
  0.0543321629991089  5.6331261648303750  0.0521120273507875
  1.4211740646358451  7.1533795690306885  1.4215682306123716
  0.0507717705256952  5.6347352622805467  2.7917947660553626
  1.4211482398856021  7.0929089978408619  4.2558223773288066
  0.0006232953063439  5.6868110740217341  5.6870401871165077
  1.4214429529232977  7.0952662252838836  7.1040810249540849
 -0.0018048060859849  5.6863663032867704  8.5266712863573009
  1.4208663076927230  7.0995392646710060  9.9594043317515197
  0.0000554490124470  8.5351915797467637 -0.0025766125794312
  1.4090417885325290  9.9408127004949005  1.4334156669642224
 -0.0092348208677980  8.5243131784239630  2.8516595699000580
  1.4213059551049367  9.9497848768504458  4.2512124945495726
  0.0001269679105693  8.5275082427201543  5.6854813470402830
  1.4216099769262425  9.9507485197494852  7.1087623348707680
 -0.0042217135912161  8.5237823557494661  8.5221616420801443
  1.4082939527448279  9.9394473149785512  9.9435598690993103
  4.2627010287860259  1.4440261908337806  1.4301456835631716
  2.8441627209178573 -0.0008647706504502  2.8234626585257705
  4.2453447568478104  1.4390655914594261  4.2427361304163265
  2.8415790919743791  0.0010440359864002  5.6814548029211345
  4.2576749303927155  1.4255035533468261  7.1111945237461143
  2.8417966660613310 -0.0000281057774007  8.5458195954605269
  4.2580826942286603  1.4521577660187892  9.9542507304426948
  2.7864456790365240  2.8656827107291458  0.0560063541158549
  4.3019733288901048  4.2602299264421770  1.4190313652720774
  2.7864209984404291  2.8874590633443811  2.7814858056755085
  4.2490048020638298  4.2650681797639276  4.2518615417777506
  2.8432693455365854  2.8397166879130107  5.6851584274825111
  4.2532837527152667  4.2655713262636796  7.1053376042181595
  2.8447168294710559  2.8336559970905566  8.5314352730275207
  4.2485826633901986  4.2588723394369481  9.9640011942491835
  2.7908186803720092  5.6355565113698871  0.0517365992460510
  4.2532139027341485  7.0996622789205635  1.4213894588057934
  2.7904704361194947  5.6333022472019145  2.7883057246701966
  4.2468645709634920  7.0871282376363895  4.2485511781019172
  2.8451420054747958  5.6873220660711139  5.6870792173210560
  4.2594370038757656  7.0998085440409717  7.1050104656617208
  2.8443536886468483  5.6874097135133637  8.5276492795611532
  4.2461914493337556  7.0934885209408307  9.9661133991004043
  2.8442575158655021  8.5487981621928668 -0.0017649318680847
  4.2687808419577289  9.9393778619336075  1.4341654242122668
  2.8451063822238205  8.5352708515036486  2.8425581533916735
  4.2592109943039942  9.9501146366975632  4.2554984738406967
  2.8417426281029345  8.5284301832812073  5.6850732150762893
  4.2608677888168378  9.9510548693104823  7.1082773919082980
  2.8417538808223561  8.5319294879419321  8.5306612007217044
  4.2717337020909376  9.9397444092198235  9.9406512660679720
  5.6665661821529802 -0.0001203908883704  0.0005181413226949
  7.1013607988430687  1.4285137168965358  1.4198971916517482
  5.6795794912911637  0.0002845633911865  2.8381706994045612
  7.1086484943178778  1.4266114490342814  4.2611516725114686
  5.6755938147146763  0.0088690845647278  5.6767561739240460
  7.1089390254242222  1.4246361520656301  7.1034022260383995
  5.6745202769635146  0.0080782569730883  8.5378531151130712
  7.1011808015657554  1.4253825707428034  9.9545284460387666
  5.6808934532510698  2.8335971015903834 -0.0019656636483551
  7.1071496737687614  4.2665134427847056  1.4203078744445965
  5.6914454146189124  2.8454807146645869  2.8484864487834489
  7.1048474678267768  4.2632317002090581  4.2542963395447622
  5.6834522978217752  2.8437553480353768  5.6848667564855599
  7.1051722014705136  4.2632315750533625  7.1072369609469437
  5.6884172644622675  2.8477980702862022  8.5240180649423340
  7.1071128891373325  4.2655018926498887  9.9591420703298628
  5.6847936870580078  5.6872693438162845 -0.0019399511191836
  7.1083595536276611  7.0953272006392938  1.4210696376710892
  5.6857440212066761  5.6865154478386666  2.8442903212258583
  7.1046901735823420  7.1013477916840824  4.2595632300169415
  5.6796467470339058  5.6831951530716571  5.6842412119314831
  7.1053842290114737  7.1036797864137169  7.1070207344803364
  5.6837368187429274  5.6831899871314127  8.5286605577764050
  7.1073557179487521  7.0997478241016578  9.9530147982424459
  5.6818169419482167  8.5319007875313453  0.0007350712626488
  7.1036610041211370  9.9509121976720021  1.4210143542358806
  5.6902240677648308  8.5238926989029693  2.8467355739618068
  7.1090617526836146  9.9501758346964486  4.2646345222517343
  5.6771163756138581  8.5206742235883688  5.6776274642776619
  7.1089465444459590  9.9500003066653147  7.1035203350767926
  5.6816510970395377  8.5170174870401834  8.5307736958502058
  7.1041706807731559  9.9508791819585642  9.9516522910505447
  8.5309221381375462  0.0010792476853659  0.0008964444477502
  9.9612198888371264  1.4327646278467447  1.4205517116475679
  8.5284269884567951  0.0012234590546545  2.8403146728042579
  9.9642744273709791  1.4407401971538745  4.2481940817631578
  8.5350944562712616  0.0094217236869012  5.6773351186003289
  9.9511925662350080  1.4266375373203761  7.1038306002409133
  8.5356305125100835  0.0088232741940872  8.5367875290465811
  9.9696400249325521  1.4391973701229288  9.9671391461205268
  8.5272736944009004  2.8397833160024879 -0.0009545567508665
  9.9078843082552517  4.2672952701745359  1.4200946168390640
  8.5259652367834562  2.8407220590462159  2.8432371660379374
  9.9616233534416772  4.2633678708443306  4.2507751472125284
  8.5284091024188982  2.8414704997656468  5.6839395090131246
  9.9581026007855264  4.2632654113720232  7.1075535870641948
  8.5275684929118380  2.8437705181585278  8.5288604741640590
  9.9606264814038834  4.2651159689640457  9.9633773181319345
  8.5253622073907582  5.6873461481875198 -0.0025453751473647
  9.9567115961011776  7.0927759816390976  1.4213188128884997
  8.5253760941291681  5.6867311989113727  2.8419503788120100
  9.9655733861621396  7.0890239013214842  4.2468463235765919
  8.5279623050307691  5.6830074049038579  5.6844887742069687
  9.9528705590034132  7.1013153588100311  7.1077469703682707
  8.5281254235835444  5.6831795086787142  8.5328261741460985
  9.9638853455033232  7.0871130148116865  9.9655964539561950
  8.5273922972025815  8.5284348890345356  0.0007438407656893
  9.9611790704537722  9.9496042853944413  1.4210055411278513
  8.5268949443235140  8.5274519338432384  2.8423389446056402
  9.9499003876628862  9.9506821158699772  4.2624645573084559
  8.5346284785887345  8.5225682186965770  5.6778103489308425
  9.9478200978536417  9.9501220906258236  7.1033250311201792
  8.5347866680438074  8.5206215231871543  8.5353054751996424
  9.9569213184299965  9.9501576945002341  9.9530504192484557
  2.8509712847623274 -0.0010019971827289 -0.0084939206968910
