Fe Ti
 1.0000000000000000
    11.3884228862886783    0.0000000000000000    0.0000000000000000
     0.0000000000000000   11.3769552476504110    0.0000000000000000
     0.0000000000000000    0.0000000000000000   11.3884229041486016
 Fe  Ti 
 126   2
Cartesian
  0.0031356115594433  0.0132224963983648  0.0016605634583723
  1.3681379815237282  1.4533726098272706  1.4789466300164966
  0.0037247428164369  0.0072967581800812  2.8433945769722011
  1.4226487731262318  1.4329859381367860  4.2580780408827721
  0.0032066734607925 -0.0004790448646942  5.6934259202897772
  1.4229507355699318  1.4239373515569476  7.1221248054830966
  0.0107904982411590 -0.0009828092368694  8.5440931960002597
  1.3784823174428538  1.4742766628661048  9.9377729119655545
 -0.0271047777945681  2.7920742732809982 -0.0450768243250559
 -0.0643816792053297  2.8375064375012009  2.9115534383402868
  1.4303202976528904  4.2661757648590877  4.2709021976532986
 -0.0031315083820484  2.8481623907906357  5.6901897901892360
  1.4287385712128551  4.2653106494758690  7.1175023623406934
 -0.0263244897742095  2.8679563466318325  8.5204661984890802
  1.4252148748039266  4.2531402744698124  9.9680041220216182
 -0.0306890724631262  5.7178827772414538 -0.0363720416309839
  1.4279769326283291  7.1083922810101869  1.4191186596310876
 -0.0365968832256664  5.7196287247788824  2.8837055122350459
  1.4284161463194773  7.0978357726827452  4.2599149302111226
  0.0032788583359569  5.6869602406584505  5.6891536352091014
  1.4272726996203668  7.1078354018242793  7.1187731293666365
 -0.0001888242320440  5.6871710287488062  8.5462470573949965
  1.4256721940821535  7.1079564435372493  9.9763297956573442
  0.0114600360732326  8.5353600010503410  0.0021200587595443
  1.3898753819722627  9.9295804838182971  1.4573226513440545
 -0.0190544927623130  8.5044429959303418  2.8660725241786666
  1.4235098718362922  9.9576000963070221  4.2612559276162223
  0.0017854160344507  8.5305682942279155  5.6936031961991764
  1.4236403266687876  9.9558885163963033  7.1223072705813113
 -0.0171889433372921  8.5122097632690625  8.5214039138438764
  1.3871781339536000  9.9254291293969068  9.9341789358001211
  4.2977206280354672  1.4743960929099236  1.4687549061613425
  2.8454813902152458  0.0131266534465134  2.8436277094534139
  4.2971271071792740  1.3981855936898491  4.2915158368703770
  2.8419557460370020  0.0010357242562082  5.6944778194714161
  4.2737177878317132  1.4182647069699743  7.1217213763079279
  2.8404124164281388  0.0002312663716947  8.5411893679543986
  4.3350980525192178  1.4288486815201045  9.9004956299176960
  2.9025042550929792  2.8129749203313246 -0.0554197699794159
  4.2671798059910424  4.2532364398925786  1.4219282575308883
  2.8923112593463363  2.7919571783916588  2.8741726601314888
  4.2596956241781658  4.2672981427142380  4.2678444296459057
  2.8476229840302549  2.8423101899577601  5.6898916274058333
  4.2674913407293600  4.2669230500262261  7.1185196378776130
  2.8482294695484254  2.8334275534328990  8.5538339446517568
  4.2669469210305628  4.2590623042266778  9.9685947781537827
  2.8808720936098728  5.7137275620201322 -0.0336730352207535
  4.2593004087818089  7.1080353067459878  1.4213205250103138
  2.8832864688991298  5.7180963976880550  2.8778211734797008
  4.2878887490897313  7.1311409420864589  4.2905875757555147
  2.8471589022939616  5.6874189765505703  5.6897262510861006
  4.2688360646636205  7.1128154254570504  7.1184074762413161
  2.8469297719558671  5.6858908429987061  8.5507303715703031
  4.2896284702369316  7.1388730382880317  9.9458129679955238
  2.8426703968841567  8.5349185982851967  0.0044233784974442
  4.3013781978297860  9.9252141053537049  1.4597370752210830
  2.8448723634556257  8.5352796315312460  2.8357462659712493
  4.2707297512239659  9.9560094273451458  4.2657495615023402
  2.8433253422551283  8.5354738154683965  5.6932634523781678
  4.2675048481265172  9.9564336935030084  7.1228589911433735
  2.8422093744241592  8.5455781658507100  8.5520804382622213
  4.3072605506980777  9.9236839522153826  9.9282694154991145
  5.6944539661017437  0.0001853347173637  0.0067676326647432
  7.1134448900350735  1.4240463992326551  1.4240697170365808
  5.6913966549008403 -0.0009401180969994  2.8361425437593715
  7.1202019603382913  1.4173222198227717  4.2752200739025072
  5.6975266092367756 -0.0056135062563206  5.6976507341484179
  7.1204321743545966  1.4177299476355227  7.1150703998330940
  5.6946909820095977 -0.0084067797601116  8.5409078655180242
  7.1137427634285251  1.4181963480862387  9.9617406973245188
  5.6816316284553254  2.8333709971879095 -0.0009053701163007
  7.1180312186411046  4.2653237756019111  1.4184030928678959
  5.7150717271455402  2.8681735428199877  2.8735782597978345
  7.1212044438350199  4.2719696895987900  4.2739730545490158
  5.6987744777791409  2.8490371039594597  5.6966499190259645
  7.1214365021255013  4.2730029018143627  7.1140794349090122
  5.7196407793135311  2.8686952688366212  8.5158423882874317
  7.1169793748363563  4.2668358756281419  9.9680760468107152
  5.6848089249586868  5.6857125195171916 -0.0000418998144347
  7.1168161933031060  7.1078397973905334  1.4197729030762967
  5.6893023618280543  5.6873048856051254  2.8471762552054622
  7.1199023012119076  7.1089681789359558  4.2740095260632254
  5.6937976576132341  5.6875406021795056  5.6952988284330388
  7.1204507511726538  7.1097753822778786  7.1151209927894330
  5.6975877038256693  5.6879378562752700  8.5379093265237263
  7.1171545738515780  7.1127467112391169  9.9666549039881076
  5.6834681643998248  8.5454777245633640  0.0048631352765226
  7.1132790335309011  9.9558930792666533  1.4236065348412976
  5.7141384723956934  8.5121731137403120  2.8643329371752948
  7.1188526597719246  9.9557743638710186  4.2702467743608192
  5.6975619262286665  8.5343445804932987  5.6963503090953065
  7.1205831799712094  9.9528553637733719  7.1149909781400673
  5.7182677498023278  8.5177676520727825  8.5172997399773589
  7.1127071603780454  9.9563530931321367  9.9681474066963336
  8.5410554686491391  0.0010486060520183  0.0051863737209758
  9.9773871508746979  1.4329298613085331  1.4246748338273763
  8.5420724175052651 -0.0005647953108943  2.8439389625097218
  9.9393981438669794  1.3976663048180502  4.2960840349873983
  8.5376310345145736 -0.0066483692462496  5.6978835087786610
  9.9603016154192456  1.4173789609787633  7.1153102948884648
  8.5378854439612208 -0.0055527554450474  8.5380219822243255
  9.9440220722420829  1.3984052376791380  9.9385510107120538
  8.5456785597975049  2.8424202620843158 -0.0006035318756858
  9.9647393309904970  4.2661301684785311  1.4168589941606233
  8.5452748488058266  2.8480939464738704  2.8501677603246542
  9.9644597670679165  4.2747626195386683  4.2711384730756849
  8.5386230682736617  2.8486299823635646  5.6968800554456749
  9.9615747996612587  4.2719079759195191  7.1143336480323347
  8.5388625836936569  2.8489819896268336  8.5367472117476417
  9.9676454241853971  4.2673394217157146  9.9756592433076143
  8.5458612616107974  5.6874228403569953  0.0000890158258137
  9.9756327489234824  7.0977345368722959  1.4186562967600478
  8.5464124093535769  5.6868787630068462  2.8439507914597457
  9.9408511782663727  7.1255443626999142  4.2947168543102299
  8.5385452089869656  5.6904578586170675  5.6970284938526676
  9.9615438586248821  7.1089641037370974  7.1156793446981528
  8.5402373385412780  5.6874954236488975  8.5417398244497793
  9.9449560893257356  7.1311035554681377  9.9476793817467080
  8.5423255720434135  8.5354786481700859  0.0037206302100941
  9.9742838177381419  9.9574207153823870  1.4233766584904710
  8.5419593283354622  8.5304982837049277  2.8452811471464736
  9.9614620369804125  9.9553769138501682  4.2740366364504476
  8.5386735792698136  8.5335403228503601  5.6968992984910001
  9.9652915896963226  9.9558174777931754  7.1166835307700405
  8.5392319043924498  8.5343502036193097  8.5379904004335181
  9.9698000450399960  9.9561422794974472  9.9646801968025631
  2.8470087813453175  0.0265686778980241 -0.0000050387846551
  1.4235510690438440  4.2398082296159441  1.4234570975766978
