Fe Ir
 1.0000000000000000
    11.3963360600285561    0.0000000000000000    0.0000000000000000
     0.0000000000000000   11.3936357040527287    0.0000000000000000
     0.0000000000000000    0.0000000000000000   11.3963360686668818
 Fe  Ir 
 126   1
Cartesian
  0.0249096428117734 -0.0001045413807594 -0.0297422539629589
  1.3582788108563262  1.3901252169677172  1.4901373983898500
  1.3815863150079901  1.3741856948393496  4.2301250533806565
  0.0019341011980969 -0.0000018623450478  5.7361010325546733
  1.4213633417021778  1.4303867888679558  7.1250001296173471
 -0.0080708054990947  0.0000125636620124  8.5374785832153197
  1.4100863228923921  1.4440598139721770  9.9481693065372703
 -0.0074091016276280  2.8477485364063395  0.0104882930271644
  1.4254271105580418  4.2751805093892639  1.4234727836424390
 -0.0204407428409626  2.9025618350133313  2.8694301664675748
  1.4214330596995874  4.2817323055052148  4.2845480945024823
 -0.0043312984893946  2.8403614442149330  5.6862724824730915
  1.4169928680254831  4.2802351294309542  7.1149680209006272
 -0.0195446116844321  2.8630574637118369  8.5287718584043866
  1.4201885989857026  4.2723499461254928  9.9670381752319130
  0.0034552150449229  5.6968554898333039  0.0066795796382074
  1.4256112001084718  7.1184551714068300  1.4236566176723886
 -0.0057103685703806  5.6968178931433391  2.8547942718271377
  1.4215156847258372  7.1116414175495724  4.2843602509858467
  0.0009215436612305  5.6967922951009475  5.6911163540011760
  1.4169738955830258  7.1134033463646729  7.1147792318694831
 -0.0071022862940807  5.6968589903432054  8.5417711343710927
  1.4199915230742268  7.1213525496275851  9.9672499098377436
 -0.0074876059103500  8.5460489494790597  0.0105142661653027
  1.3589464864792342 10.0035104006789730  1.4908054929823735
 -0.0203460973540453  8.4910738234708170  2.8695246646121695
  1.3812810127296733 10.0196390507406736  4.2301472704308685
 -0.0043614451543419  8.5532980290487206  5.6862036583700393
  1.4215462345955261  9.9629328600811569  7.1250377498444353
 -0.0195400383777314  8.5306278739636134  8.5287595455620728
  1.4101935002273032  9.9497113857032868  9.9479963360587433
  4.2974237886886062  1.4439244261197002  1.4388905238657654
  2.8788260651062729  0.0001046052334004  2.8241742847265350
  4.2766717483933068  1.4283470390499284  4.2712978301015374
  2.8383767430840110 -0.0000543157412572  5.6919636784562364
  4.2778899300216802  1.4278215734597508  7.1204446493515734
  2.8481507299973106  0.0000753736485970  8.5735384249829973
  4.2815769268892678  1.4295877794593241  9.9639905530449759
  2.8346670290965887  2.8091999423671496  0.0144721639194048
  4.2781700634707258  4.2722833238424025  1.4290927506124449
  2.8385698688358736  2.8475867685470257  2.8565716726136432
  4.2802115633814681  4.2804548468353740  4.2813735643152997
  2.8337070158906394  2.8306094461158642  5.6859713624953665
  4.2746780811771474  4.2738431356332853  7.1087099502301045
  2.8455821130791414  2.8513524369354837  8.5411237809187082
  4.2700581178000965  4.2663641939327555  9.9755380553260409
  2.8478502991237797  5.6968178853660030  0.0012337182929995
  4.2783820174113494  7.1212859608403525  1.4288953739849943
  2.8424043578141198  5.6967801030577956  2.8456289076972192
  4.2802962312690029  7.1132299767828746  4.2814727096267413
  2.8470939365502792  5.6968194806439145  5.6949718105428699
  4.2747717462551016  7.1196859246507627  7.1086944363336446
  2.8471287282487738  5.6968143204728854  8.5523598454844940
  4.2698820294264941  7.1272716358972215  9.9753621791838043
  2.8346118467673009  8.5844355825740291  0.0144166809822779
  4.2972508246474996  9.9495757968114820  1.4389977787767889
  2.8385956258453304  8.5458870791321111  2.8564930349410904
  4.2764357142880600  9.9651640252571472  4.2713162164532612
  2.8336346662244480  8.5629850074484235  5.6859684189758832
  4.2780710780596145  9.9660733468498357  7.1204678483613737
  2.8456157272109732  8.5421854978914453  8.5410107988668464
  4.2814294987179800  9.9640476335844088  9.9638431255262248
  5.6718818305704541 -0.0000752466034090  0.0009332198863868
  7.1203821986298506  1.4307025978308672  1.4275380191863014
  5.7079416692870071 -0.0000126757083535  2.8571546804560128
  7.1278128637542038  1.4337491836260470  4.2830419979666861
  5.6941767231953397  0.0000094562585522  5.6890352003110900
  7.1306828207483299  1.4297432864191555  7.1149000668173583
  5.7041751502627545  0.0000001813778354  8.5412450241771651
  7.1249522190932142  1.4275622414298530  9.9673491068469318
  5.7044092948282179  2.8514500664971028  0.0034682677657025
  7.1306407501258215  4.2802323483130484  1.4321101554117006
  5.7166605865318205  2.8630076147134922  2.8686239655449559
  7.1311440994659767  4.2795306417163026  4.2806834347522837
  5.7008030234646894  2.8484757828659895  5.6928916296497825
  7.1362528225068846  4.2690493366432714  7.1092016509095455
  5.7135766614448640  2.8625669064580541  8.5318424757438507
  7.1367255871197814  4.2739496590756971  9.9706483996588489
  5.6930601547864281  5.6968213768453939  0.0019551731430524
  7.1304520249532928  7.1134006753927572  1.4320913323490669
  5.7036490669475803  5.6967765978300058  2.8561862507297717
  7.1311246782759188  7.1140294308691923  4.2806994104876050
  5.6997156469825274  5.6967579513908850  5.6958983299711310
  7.1362182585284408  7.1245863418367774  7.1091671358271773
  5.7036215062980222  5.6968178835901178  8.5417985638094756
  7.1367099623457015  7.1197924234547845  9.9707420510745202
  5.7042965134281509  8.5422830338850808  0.0035019534726892
  7.1204200204657599  9.9632488670965476  1.4277207053992238
  5.7166483644309372  8.5305782186865162  2.8686287050460058
  7.1278471593663735  9.9598310292409273  4.2828292325665549
  5.7007661804300600  8.5451498631482092  5.6928473716708874
  7.1305198981731550  9.9638922472451927  7.1147373607672204
  5.7135775189592986  8.5310688089899926  8.5318432384032974
  7.1249754640119090  9.9658143161215698  9.9675300574385908
  8.5534564046178367  0.0000541096139991  0.0107071017612547
 10.0152729217486041  1.3739967719105544  1.4678031860622813
  8.5093190126032443  0.0000019301591774  2.8471499134738334
 10.0143515303001376  1.3787802258912054  4.2311239077553298
  8.5592885402118242 -0.0000000124029324  5.6861315215650503
  9.9625908143793129  1.4338047776163343  7.1175729198329574
  8.5563850911746648 -0.0000093150491262  8.5512435167040994
  9.9741037269494139  1.4284718522133280  9.9689842273953477
  8.5594514712524230  2.8306507759709283  0.0154495704386503
  9.9610598679363527  4.2819943234036630  1.4275683153946115
  8.5592165570952581  2.8403379016182786  2.8534456297991753
  9.9614358160059773  4.2834611133597651  4.2839097295896131
  8.5649215662385814  2.8316848319249486  5.6805343806780071
  9.9647205029570891  4.2796061381828006  7.1142954051549090
  8.5525727195199135  2.8484859486544218  8.5446539640494610
  9.9639471322313913  4.2804058936068996  9.9651239984262787
  8.5504483597316412  5.6968163187070573  0.0019900483871578
  9.9608718513582719  7.1119032562638509  1.4276510797524824
  8.5543038749295786  5.6968433290983267  2.8481624199637423
  9.9615105193701456  7.1101743151998482  4.2839841919141302
  8.5478136497508022  5.6968178249087220  5.6976064266306237
  9.9647366994901354  7.1141050723468737  7.1142759528375006
  8.5495218426490318  5.6968777576320013  8.5457044020163409
  9.9640465832836078  7.1131806600755452  9.9652086434079141
  8.5594487705877622  8.5630264295651077  0.0153770593892959
 10.0152949059181289 10.0194498712666409  1.4674976232199757
  8.5591473407650760  8.5532744458538605  2.8534151822138671
 10.0142962994304376 10.0148555214491211  4.2310685521249658
  8.5648857664152391  8.5619507324044584  5.6804984246983619
  9.9623780805542648  9.9598866750228154  7.1176073346967845
  8.5525285710504750  8.5451600055310646  8.5446168913601532
  9.9741220514630253  9.9652887680076816  9.9687482746920928
  2.8352431914334972  0.0000001646333863  0.0138405045379350
