Fe Tc
 1.0000000000000000
    11.3803846623311316    0.0000000000000000    0.0000000000000000
     0.0000000000000000   11.4145743360631471    0.0000000000000000
     0.0000000000000000    0.0000000000000000   11.3803846577843313
 Fe  Tc 
 126   1
Cartesian
  0.0758164222316332  0.0012162739249691  0.0002140994940678
  1.4467207468595240  1.4976699659254671  1.3989046551034023
  0.0399511828293345  0.0124108094818370  2.8053029749916996
  1.4342597016159435  1.4180121998605675  4.2559337442684253
  0.0115750869245326  0.0073700896967629  5.6902625579921047
  1.4344063839063286  1.4179172232716113  7.1246905077690030
  0.0397930467301708  0.0124108005244767  8.5752394821098434
  1.4461915987703540  1.4976699732334600  9.9820091470625698
 -0.0267973664442350  2.8509278321251159 -0.0002330473381754
  1.4736362034980159  4.2365407360278473  1.3711911773808316
  0.0060224869111738  2.8646254658991728  2.8391004420752846
  1.4175118491697629  4.2863151776063120  4.2667279649943106
  0.0114412303923327  2.8506153099513813  5.6902721422150693
  1.4175604437524425  4.2861994339504834  7.1136097423158793
  0.0059959179633473  2.8646254460288305  8.5413109121110065
  1.4739049228708074  4.2365406079289487 10.0089247631803779
  0.0139081957651476  5.7055207155127654 -0.0000185708031190
  1.4199620301882279  7.1523112079021027  1.4252631633016097
  0.0118865083740506  5.6975295261707846  2.8331652948347417
  1.4170733216762403  7.1337208788174475  4.2749657867543283
  0.0065143867265848  5.6995744741532617  5.6901976567890875
  1.4170627295255105  7.1336387969286035  7.1053316912813349
  0.0119309441160379  5.6975293856867841  8.5471749687203467
  1.4198328346447024  7.1523113546442509  9.9552505915197198
  0.0150819068873773  8.5768215800767109  0.0000151521754496
  1.3798525616977322  9.9156327366808927  1.4652220534486291
 -0.0140170071498879  8.5512783729892554  2.8590809002425215
  1.4289757679714876  9.9931030583564695  4.2571262974189539
 -0.0012932707553329  8.5662118074869245  5.6901201049037979
  1.4289450827031336  9.9929618226017389  7.1232126198342680
 -0.0139847073406408  8.5512783727966557  8.5212714373042466
  1.3798740001234509  9.9156327037868035  9.9151409739973033
  4.2440009578501448  1.4976700222706876  1.3983754669993285
  2.8453102342935384  0.0012163807888325  2.7692796364934416
  4.2557859853756934  1.4179172400918585  4.2556942833381113
  2.8450961725844435  0.0025340207429862  5.6901923659329521
  4.2559325235095402  1.4180122141242186  7.1244510047088516
  2.8448821754732188  0.0012162434701812  8.6111048337442995
  4.2434717091302154  1.4976702308721466  9.9814798714989941
  4.2162875026012578  4.2365408425260087  1.3714599202789723
  2.8448631334536327  2.8509278319091580  2.8718935785236326
  4.2726319213359218  4.2861995768349272  4.2667750940088034
  2.8450960311312947  2.8525349032780656  5.6901922939816423
  4.2726805270370329  4.2863151113921667  7.1136567004927462
  2.8453292933723477  2.8509278009384245  8.5084909631255510
  4.2165560452787672  4.2365405092381998 10.0091935334257478
  2.8450962264571125  5.7683736268889243  0.0000001296744962
  4.2703594233167896  7.1523112544217193  1.4251341721586930
  2.8450776900700507  5.7055205919745839  2.8311879265104118
  4.2731296064436188  7.1336387353342836  4.2750529172596758
  2.8450962265004986  5.7002436977330326  5.6901923852031402
  4.2731189555575844  7.1337208137481039  7.1054189083662225
  2.8451147117642650  5.7055206534260750  8.5491967790538492
  4.2702303325338908  7.1523113461084451  9.9551214276547650
  2.8450962472075347  8.6270358964509359  0.0000000612889080
  4.3103183649657977  9.9156328798530353  1.4652436656950398
  2.8451112231290430  8.5768217061099552  2.8300142754172142
  4.2612471859858276  9.9929618411390635  4.2571722653482666
  2.8450960679118320  8.5690145378556402  5.6901924578138381
  4.2612165677523812  9.9931031548359162  7.1232583994101359
  2.8450809978161882  8.5768216098271282  8.5503703661610224
  4.3103398844270542  9.9156327468098091  9.9151623447560784
  5.6143761334091247  0.0012163091750909 -0.0002139975239703
  7.1010297463467662  1.4180122509556139  1.4108366041198934
  5.6503990362661529  0.0124108545448820  2.8051450849930948
  7.1108573948404015  1.4313081939831096  4.2658060795765413
  5.6786171492522453  0.0073699204846940  5.6901221560652671
  7.1109022546274083  1.4313081868322450  7.1146235277489511
  5.6502413050108942  0.0124106970072635  8.5750816749291587
  7.1007903464210527  1.4179174321701644  9.9696948326745698
  5.7169897454013014  2.8509278474783391  0.0002330367580725
  7.1118241561549143  4.2863151182579529  1.4275844526824402
  5.6841963879823956  2.8646252925956146  2.8390735812776526
  7.1127947128644973  4.2759929336572480  4.2676976779319533
  5.6787511545288591  2.8506153355809629  5.6901126437785789
  7.1127937779801460  4.2759928971060548  7.1126861038528206
  5.6841698886548100  2.8646254450191986  8.5412845957895716
  7.1118711897116453  4.2861994254919749  9.9528489078941114
  5.6762840195066397  5.7055207430205712  0.0000182196666686
  7.1200617120053060  7.1337209647089326  1.4280228996663482
  5.6782614279384731  5.6975295405244113  2.8332095446240433
  7.1152280579246403  7.1234019989503130  4.2701426751791756
  5.6836777725890704  5.6995743205742118  5.6901872195820973
  7.1152388371347355  7.1234018000940438  7.1102528143790176
  5.6783058435497136  5.6975294585432072  8.5472195011138616
  7.1201491110495301  7.1336387608749545  9.9523512869437685
  5.6751105205744006  8.5768216563925019 -0.0000152082248899
  7.1022224817725474  9.9931030751281842  1.4161204298587600
  5.7041772622510099  8.5512782998495815  2.8591132271916289
  7.1069032880080112 10.0004464476708250  4.2618489825900649
  5.6914857094741489  8.5662118883494109  5.6902648022007485
  7.1069450868692607 10.0004464773225372  7.1185774927117214
  5.7042093882900469  8.5512784106494770  8.5213038131159458
  7.1022682419173178  9.9929616469157132  9.9642334932976411
  8.5352885650571206  0.0025339107486913  0.0000000159910139
  9.9697865170791573  1.4179173365922078  1.4106897288785039
  8.5353586055522577  0.0073699112984933  2.8335210596028384
  9.9596746547060633  1.4313082367781591  4.2657613011923896
  8.5352884236360325  0.0071203215291887  5.6901923732213104
  9.9597196418272578  1.4313080998878027  7.1145785445086798
  8.5352182971068693  0.0073698552095510  8.5468636048400004
  9.9695472556462779  1.4180123000510865  9.9695482243721365
  8.5352884601190766  2.8525348711009548 -0.0000001010248870
  9.9587056780674601  4.2861993448727000  1.4275357295975881
  8.5353682321158999  2.8506152713949366  2.8336549887705567
  9.9577832608875347  4.2759928892456784  4.2676983746950441
  8.5352885250612189  2.8449929975242760  5.6901922353843162
  9.9577822916214807  4.2759928670692089  7.1126870867664103
  8.5352088738572292  2.8506152245941516  8.5467296583774850
  9.9587529268759045  4.2863150454272905  9.9528003431317398
  8.5352885142287871  5.7002436801383709 -0.0000000490110876
  9.9504279622014451  7.1336386341338400  1.4280336014250763
  8.5352937344336599  5.6995743369411977  2.8385817569099787
  9.9553381391284201  7.1234019157443509  4.2701319106182076
  8.5352884687333113  5.6931759687813575  5.6901924745934602
  9.9553489005389686  7.1234019136750870  7.1102418209259231
  8.5352833497302107  5.6995743493830675  8.5418028659018539
  9.9505152523469551  7.1337206311198900  9.9523618191703598
  8.5352883802202228  8.5690146331965931 -0.0000000763639641
  9.9683087171860691  9.9929617120061884  1.4161510907543162
  8.5352160737385674  8.5662118563082998  2.8463895541693085
  9.9636318560284618 10.0004463361294178  4.2618069861909653
  8.5352886191742208  8.5778770941030373  5.6901923893780477
  9.9636737709917362 10.0004464951608032  7.1185356548644192
  8.5353608257333384  8.5662118084497880  8.5339952723066244
  9.9683545679661876  9.9931031166998654  9.9642642080149901
  2.8450960324260222 -0.1218107833093513  0.0000002399681610
