Fe Cu
 1.0000000000000000
    11.3704892657010763    0.0000000000000000    0.0000000000000000
     0.0000000000000000   11.3704892729532556    0.0000000000000000
     0.0000000000000000    0.0000000000000000   11.3704892689352057
 Fe  Cu 
 126   1
Cartesian
  0.0132179910304719  0.0115543774027443  0.0116122853915630
  1.3746292353511707  1.4679930616164274  1.4679930942018999
 -0.0098605313568424 -0.0419191023608423  2.8523913901521922
  1.3614995108008145  1.4808450333790621  4.1946236296824111
 -0.0012320557995310  0.0110437258254407  5.6746636207709482
  1.4211929229282916  1.4214342238498265  7.1214860032030352
 -0.0129578262552134  0.0094892266545506  8.5180554744146395
  1.4345910825683328  1.4081284224618413  9.9596776990658320
 -0.0097690319452515  2.8524828631197159 -0.0419191578434296
  1.3617773339836594  4.1946236227259206  1.4811227930195532
  1.3662959382743445  4.2137502856120967  4.2136159542427034
  0.0044773408575940  2.8382117084141210  5.7286719760714675
  1.4208381729459258  4.2728489926972166  7.1020779658986504
 -0.0094515586795018  2.8521501383850496  8.5187439045339151
  1.4200441196760594  4.2522675952626772  9.9459665253387790
 -0.0011069416211611  5.6746738638257028  0.0111872867902048
  1.4211880820706233  7.1214859717284691  1.4214294265555110
  0.0044105762010511  5.7286718870573923  2.8381449924252036
  1.4206917432215012  7.1021791391395439  4.2729244773059705
 -0.0027040776946055  5.6715371205814940  5.6715138374026770
  1.4173204273242026  7.0975896237492524  7.0976471682939835
  0.0056346393076427  5.6747665871512192  8.5334707448476621
  1.4205539701387095  7.1176089457030951  9.9515907288724001
 -0.0129143623883298  8.5178390308204364  0.0094922976637654
  1.4344939442050721  9.9596776902710449  1.4080312670157851
 -0.0095278715198173  8.5187439013564319  2.8520738134944499
  1.4202895605045285  9.9458551399355883  4.2520519199508886
  0.0055968960331456  8.5334871933797274  5.6747380363726547
  1.4202813437307997  9.9517637673279697  7.1176469893853174
 -0.0067793772284771  8.5203447383340887  8.5203821948702085
  1.4332223381586500  9.9617009216914347  9.9617099708835255
  4.2534338429932115  1.4080312037473877  1.4081283958756152
  2.8310679613944831  0.0116122106572679  2.8294043903958794
  4.2671451107735150  1.4225781531885082  4.2522675648844066
  2.8202776429161704  0.0222014441211245  5.6598137475477532
  4.2615209074042477  1.4220682985468622  7.1176090157876599
  2.8380884965224022  0.0045079331167079  8.5355115549964875
  4.2514016309140059  1.4093998724004460  9.9617008845753805
  2.8310100592520939  2.8294043964612512  0.0115543749639257
  4.2672563813913200  4.2520519078148036  1.4223327467768134
  2.8845414635728606  2.8523913550865028  2.8524828614306310
  4.2680907869644473  4.2714849966356399  4.2715290780848205
  2.8314350450456893  2.8437292083191203  5.6746738795349900
  4.2662061413019998  4.2714500235674402  7.0996347216273259
  2.8331300224280840  2.8555366741792367  8.5178390149898995
  4.2652924226928377  4.2544050632843557  9.9475074386382047
  2.8204208849864041  5.6598137848615604  0.0223447004225636
  4.2613478294877964  7.1176469641454059  1.4223409638732392
  2.8315785411880459  5.6746636048836612  2.8438543835335808
  4.2661851493017817  7.0997010272169785  4.2713889291053606
  2.8244422869014745  5.6663502059353377  5.6662866024437832
  4.2553456773767779  7.0920004212076755  7.0919233115869842
  2.8362708433447366  5.6801786548629378  8.5279503454461008
  4.2560845756265930  7.1090685479842861  9.9572185309390449
  2.8381143037882399  8.5355115944110196  0.0045337619378205
  4.2514106103226972  9.9617099719472471  1.4093999867720064
  2.8331330563203223  8.5180554260842705  2.8555801749457728
  4.2656040986631210  9.9478191918226972  4.2544050187918456
  2.8362166266005819  8.5280213618413452  5.6801429186392713
  4.2558930442117946  9.9570269002002938  7.1090685330449519
  2.8370150616574379  8.5148894988688344  8.5148649385019812
  4.2468721893537262  9.9662393823414650  9.9662393884115605
  5.6775999682756577  0.0045337379820812  0.0045080227910502
  7.0916256558427291  1.4214293968262670  1.4214342252116090
  5.6952726217153620  0.0094922498597794  2.8555367125700730
  7.1110336545519548  1.4217841502285702  4.2728489879087199
  5.6851613015409246  0.0063514098796263  5.6801787140620768
  7.1154643784923559  1.4253018163145648  7.0975896705741901
  5.6982466240116754  0.0056071315404870  8.5148893904004268
  7.0954645986021490  1.4223410300690262  9.9517637586464307
  5.6950561182148993  2.8555801508802419  0.0094892427284221
  7.1109324421075746  4.2729245365575519  1.4219305331807759
  5.6943677246930502  2.8520738305702675  2.8521501332434318
  7.1025265236063602  4.2656315244304084  4.2657485709211329
  5.6796408387639099  2.8369876145439625  5.6747666034749447
  7.1057405352559817  4.2605132419726433  7.1073836982003176
  5.6927293174594293  2.8494016749182096  8.5203446976316961
  7.1134105338417628  4.2713889971918269  9.9469263583326839
  5.6850900840809491  5.6801429002571142  0.0064057157708186
  7.1155218619476548  7.0976471988419858  1.4253018510710622
  5.6796242911932975  5.6747380335231021  2.8370254364742724
  7.1057279131648485  7.1073710154960015  4.2605132421725624
  5.6866175620298511  5.6805195672994993  5.6805086744563704
  7.1146173893272442  7.0984942476610016  7.0984942541732821
  5.6810821330585171  5.6852672100291635  8.5319915636824302
  7.1211111253223462  7.0919234083341589  9.9577658679274688
  5.6982221080014739  8.5148649198421644  0.0056071603900659
  7.0955026008891240  9.9515906618836354  1.4220683258308311
  5.6927668768389772  8.5203822530131461  2.8494017291564981
  7.1134769161476683  9.9469053572918007  4.2714500034450023
  5.6811199552456504  8.5320294288268670  5.6852672528205890
  7.1211882365272032  9.9577658925695669  7.0920004314545873
  5.6933640261967398  8.5197476299565054  8.5197475851218520
  7.1040430787292808  9.9572185824942157  9.9570269156956730
  8.5532977849956566  0.0223447280267623  0.0222014902668685
 10.0184880092919393  1.4811229216109345  1.4808449787958664
  8.5384377465627477  0.0111873205086187  2.8437292931606573
  9.9994956923350919  1.4763264322891794  4.2137502811983989
  8.5468249175294613  0.0181801015683939  5.6663502086141495
  9.9401871335444341  1.4219305439230541  7.1021791631415878
  8.5329686748226212  0.0064057419601965  8.5280214283225408
  9.9610596506503164  1.4223327829158467  9.9458551703357294
  8.5384478702859212  2.8438544175405451  0.0110437169058599
  9.9993612476167737  4.2136160037859032  1.4763263301164169
  8.4844396314209227  2.8381450461856659  2.8382117340862942
 10.0115671100941093  4.2015444833247333  4.2015445398747753
  8.5415977324679098  2.8453263912047428  5.6715371654388118
  9.9474800912354358  4.2657485443085106  7.1105850333925575
  8.5383735247304458  2.8370254559816717  8.5334872094614145
  9.9416265612187029  4.2715290551492817  9.9450207928054422
  8.5467613840334256  5.6662866551477764  0.0181800182793705
  9.9402625846007222  7.1020779758568722  1.4217841454898805
  8.5415744896103831  5.6715139332424735  2.8453264163504048
  9.9473630388909680  7.1105850599426219  4.2656315762680590
  8.5487465092124548  5.6643650575254201  5.6643650829286170
  9.9525983749128155  7.1073836800238563  7.1073710401224428
  8.5325920896345941  5.6805086931156650  8.5264939882145434
  9.9416616009794510  7.0996347611259187  9.9469053747387335
  8.5329328815097210  8.5279503317752852  0.0063514342646377
  9.9608440180951270  9.9459665731785236  1.4225781412130611
  8.5383450723892764  8.5334707501691440  2.8369877077552470
  9.9415825717201436  9.9450208171610868  4.2714850627761907
  8.5326029044779510  8.5264939388204084  5.6805195215994440
  9.9417226437111399  9.9469263886102990  7.0997010415321755
  8.5278444147344423  8.5319916490727028  8.5320294639499163
  9.9587065411473663  9.9475075449414074  9.9478191641226097
  2.8224795357658348  0.0201427596806997  0.0201428165439151
