Fe Pd
 1.0000000000000000
    11.4000972099510136    0.0000000000000000    0.0000000000000000
     0.0000000000000000   11.3945920182283658    0.0000000000000000
     0.0000000000000000    0.0000000000000000   11.4000972149371727
 Fe  Pd 
 126   1
Cartesian
  0.0174185319011404  0.0000374310671812 -0.0200331017226345
  1.3533096536156435  1.3885156913285224  1.4964185122772389
  1.3804534118490330  1.3732462320678644  4.2320797175811906
 -0.0032866090477545 -0.0000277280242415  5.7396242369636976
  1.4212271759250115  1.4294048613277233  7.1334772858522548
 -0.0056935670386943 -0.0000071879032895  8.5488787815718918
  1.3963682598496174  1.4590660966444471  9.9419672734641313
 -0.0063956251337939  2.8444363207674503  0.0124545566226421
  1.4257641317948064  4.2686762053249527  1.4241548458852145
 -0.0181181067353052  2.9001537357110538  2.8681266486658186
  1.4215656974051005  4.2814877806436415  4.2879673035271004
 -0.0074058283834143  2.8409832902258798  5.6883778884145100
  1.4187089942316262  4.2818362141739357  7.1154716560744919
 -0.0242992942395393  2.8653922903816982  8.5301838695885284
  1.4183113821922380  4.2684372287053174  9.9704755307272563
 -0.0017441999901096  5.6972924163604359  0.0092610554698522
  1.4258693128634816  7.1259156448092131  1.4242603605721820
 -0.0048080375186960  5.6972957107190272  2.8548321650988129
  1.4216017903677072  7.1129038620310467  4.2877898977909021
  0.0070927698956789  5.6972734181821396  5.6925001497166452
  1.4186424842098218  7.1127823118883082  7.1153100816316046
 -0.0090741480216879  5.6973369010639265  8.5438752906822195
  1.4181693241440076  7.1261778896620704  9.9706774014442701
 -0.0064738365745382  8.5502167886763338  0.0124790950710844
  1.3536065244940620 10.0060767837554749  1.4967145301905580
 -0.0181023038913308  8.4944386254266977  2.8681423460634274
  1.3801993609131966 10.0215698645923830  4.2320242884841095
 -0.0074135480036813  8.5536439679303964  5.6883532163384833
  1.4213941422460530  9.9647154090716334  7.1335373548957799
 -0.0243678197739290  8.5292373121276963  8.5302445994648401
  1.3964430752391601  9.9356144340787953  9.9419915367684606
  4.3081304770673752  1.4589782514813119  1.4535815480222167
  2.8700569040878676 -0.0000376478741708  2.8326056540431934
  4.2778812054309592  1.4288474601419525  4.2707085779661789
  2.8415589970138315 -0.0000398468296231  5.6988848263903353
  4.2795258072542453  1.4292224363797550  7.1298620188939692
  2.8489744966737600  0.0000040003242060  8.5749644436036920
  4.3044084817465196  1.4546716427497899  9.9458500906710832
  2.8374614299776688  2.8177946059711374  0.0126056100897357
  4.2794441796673528  4.2684141720437987  1.4318548270079956
  2.8375448649531920  2.8443752081930649  2.8564979164119126
  4.2777728337685232  4.2818057656774542  4.2855028551283425
  2.8337762536368585  2.8350595353573249  5.6879788934909481
  4.2722876491961559  4.2780864913471532  7.1087574854854090
  2.8463838042903160  2.8505594451779133  8.5469674915843772
  4.2751197722265575  4.2643185534497627  9.9751486664723288
  2.8498987334817949  5.6972959208658240  0.0001257066507942
  4.2796458591268465  7.1261545593790716  1.4317133301477445
  2.8407635803905475  5.6972998543070652  2.8517683402061591
  4.2778542700576292  7.1128759268791200  4.2855328904069596
  2.8450829108248890  5.6973430323041301  5.6960510328709342
  4.2723446452768634  7.1164457379448161  7.1087584436153186
  2.8458822384301334  5.6972979861951156  8.5511712509889968
  4.2749725629026507  7.1302733646150571  9.9750017694723034
  2.8374189526143634  8.5767975179479290  0.0125629654459592
  4.3081541097149261  9.9355265944046636  1.4536552556465929
  2.8375692484816311  8.5501554780483939  2.8564199238657579
  4.2777184539287756  9.9656284650897611  4.2707617996356868
  2.8337009713812602  8.5595373337568006  5.6878858048199383
  4.2797049181943638  9.9655102117854515  7.1299042151011536
  2.8463634057009166  8.5439228981733528  8.5469069840308602
  4.3042710688267745  9.9399207493945543  9.9457133607077406
  5.6751570740911665 -0.0000038501827264  0.0010504051403133
  7.1165839278470875  1.4298767815659139  1.4286298809602536
  5.7012428636278392  0.0000072591167752  2.8557177919664349
  7.1299001704545653  1.4300622938301351  4.2871389478076560
  5.6991922270745912  0.0000064724964998  5.6934116958524079
  7.1363501339030728  1.4262669731537352  7.1139275517200886
  5.7036230835758692 -0.0000002911821957  8.5464983584170824
  7.1202177766042283  1.4290819123482601  9.9704167821576029
  5.7032145277949953  2.8506689444036537  0.0036612862209676
  7.1348114591220746  4.2818097334771386  1.4313818509259548
  5.7198770073137792  2.8653547540324071  2.8743921175473912
  7.1370021499816962  4.2835647776198060  4.2862550091546492
  5.7042225411547758  2.8502831767130217  5.6962305787935996
  7.1456951780104578  4.2747685667505833  7.1044588977643510
  5.7231187074643364  2.8698888657280772  8.5269829604013143
  7.1413631815697522  4.2781465126401601  9.9777770170311957
  5.6989503878194956  5.6972939929727140  0.0041422030470128
  7.1346498383179222  7.1127561361505185  1.4313155163158178
  5.7062460566705688  5.6972555284423532  2.8590984630255094
  7.1370030450768818  7.1109504890160933  4.2862492541536765
  5.6949129444054902  5.6972695899795518  5.6970999243894962
  7.1456626342268423  7.1198233042898629  7.1044262361406316
  5.7094099542410399  5.6972960647199322  8.5407113378351589
  7.1413641054645121  7.1165059724448065  9.9778336033085679
  5.7031540665892901  8.5440329893443749  0.0036406547728504
  7.1166441327737662  9.9651873036341581  1.4287969057459264
  5.7199378477873921  8.5291992221823865  2.8743233868126357
  7.1299167592619606  9.9644767251638768  4.2869638886854258
  5.7042225272173273  8.5442637337994540  5.6961955744720534
  7.1361940114918170  9.9683254030248616  7.1137714735091322
  5.7231382889784870  8.5247031876944490  8.5270024872023189
  7.1202596088201044  9.9653697146040852  9.9705958317475005
  8.5512365228602345  0.0000402643571048  0.0084655241607652
 10.0180971757649075  1.3730221968014797  1.4698248428635077
  8.5104969277588562  0.0000279360087764  2.8533113694047021
 10.0217991605050010  1.3736166163436627  4.2284014792620885
  8.5633245768815254  0.0000002050913487  5.6867965770387316
  9.9631578475844833  1.4301153235104835  7.1202050831573613
  8.5567096750979754 -0.0000066098216439  8.5509291775635887
  9.9793601096300435  1.4289633496879472  9.9724033541088239
  8.5622353543713245  2.8350547113638851  0.0163232670614750
  9.9623313409780074  4.2816884909910398  1.4284229193381435
  8.5617683768970263  2.8409478565157404  2.8574374769493263
  9.9645492214385687  4.2851797013557027  4.2855213414592184
  8.5695332163114610  2.8228240759422620  5.6806357202517761
  9.9638723195029399  4.2836412125319168  7.1131186024189779
  8.5539262595133803  2.8503280754924214  8.5458989578573679
  9.9645885168905615  4.2817159307560759  9.9722673311035841
  8.5540706096099424  5.6972489021972317  0.0049417560823418
  9.9621541708203516  7.1131041956968710  1.4284583646058988
  8.5576213933721714  5.6973188384000641  2.8429314970385207
  9.9646002967903406  7.1094125252078273  4.2855723781559112
  8.5554634812630947  5.6972960521678040  5.6946581222319308
  9.9638663938663079  7.1110271483756016  7.1131198759349674
  8.5530215925929252  5.6973225508949588  8.5552085539892051
  9.9646188462965402  7.1127866525215815  9.9723484375042570
  8.5621426131292395  8.5595325462560208  0.0162482780378377
 10.0180421333715639 10.0213454879014261  1.4695707081371487
  8.5617440388161761  8.5536090591749527  2.8574299317275687
 10.0217201486760974 10.0209752318016871  4.2283220515346196
  8.5694853270124440  8.5717679824654258  5.6805880339711674
  9.9629822524472473  9.9645292637681777  7.1202215640650159
  8.5538909869577413  8.5443087245699161  8.5458990377912318
  9.9794128564898372  9.9657445066180141  9.9722404231986008
  2.8597466358596724 -0.0000007698902005 -0.0097222834054598
