Fe Mn
 1.0000000000000000
    11.3606207290505647    0.0000000000000000    0.0000000000000000
     0.0000000000000000   11.3606207244875002    0.0000000000000000
     0.0000000000000000    0.0000000000000000   11.3606207197339657
 Fe  Mn 
 126   1
Cartesian
  0.0897724291559662  0.0601398417668621  0.0597317390567335
  0.0684748416343018  0.0497816694187329  2.7717828137859395
  1.4239502828206734  1.4161824297294745  4.2952334346434240
 -0.0015358357307945 -0.0035051377045841  5.6781970951319929
  1.4229378988231713  1.4171708225942323  7.1079804206987003
  0.0055753838134802 -0.0047065373647296  8.5254757354335808
  1.4392698425597148  1.4011648187562700  9.8943092299795463
  0.0683724152486184  2.7716801106678317  0.0497815923432885
  1.4239728109909171  4.2952335613401447  1.4162047583397401
  0.0616064081564214  2.7785487152683306  2.7785487469620422
  1.4203898207806964  4.2491084971092343  4.2491021215123803
  0.0012237865930175  2.8389837254627990  5.6814454671759229
  1.4213572655008206  4.2541108424507295  7.0953987040751478
 -0.0011652311255329  2.8411462242075589  8.5211618869071373
  1.4280439421018283  4.2336935344160027  9.9567937397467041
 -0.0014790835443658  5.6781074812873040 -0.0034432245873840
  1.4229844777279463  7.1079802542006503  1.4172173308472344
  0.0011714622275121  5.6814454094486670  2.8389312619262803
  1.4213190853781028  7.0954263723974496  4.2541620593623399
  0.0036472299505325  5.6802296148003855  5.6802601215565245
  1.4212082325036040  7.0982506416698632  7.0984115727877839
  0.0074304766990446  5.6753344892824105  8.5249240554543544
  1.4258783557881296  7.1083040156347312  9.9522495520176371
  0.0053681026048382  8.5252779699537538 -0.0047353431891894
  1.4389903338311831  9.8943091941036112  1.4008853750792531
 -0.0009911380892642  8.5211619243712136  2.8413204015265308
  1.4278375375848984  9.9565354373220192  4.2338826297811938
  0.0074331140939348  8.5248489779636873  5.6754676012226373
  1.4259727009036225  9.9521720176369541  7.1084417262677002
  0.0095385417384622  8.5301325356641513  8.5302775714377788
  1.4500110481668826  9.9765370839538363  9.9768061744966641
  4.3064665783574307  1.4008851889404914  1.4011649420615451
  2.7800154506430146  0.0597318001316069  2.7503828811197302
  4.2439821480785893  1.4121111957053043  4.2336933417407572
  2.8404626918261116 -0.0005174127893182  5.6728585206424222
  4.2485263157074495  1.4142769027432347  7.1083040440294347
  2.8425922583404346 -0.0025000531686704  8.5336123179559582
  4.2239697289262166  1.3901440012852382  9.9765370919794591
  2.7804234942685686  2.7503828613224575  0.0601397322904770
  4.2442404377207446  4.2338825916087943  1.4123175449998830
  2.7903735367130040  2.7717826848729579  2.7716802140100607
  4.2416575905058966  4.2431663479084278  4.2431399248600181
  2.8435984275699280  2.8416345233711011  5.6781074594654433
  4.2587065468937109  4.2578008007353088  7.0949760523209271
  2.8448905677053911  2.8347871021215880  8.5252778651966565
  4.2313657209734883  4.2224260885204536  9.9694783589953033
  2.8406726445045773  5.6728585629474466 -0.0003075700982463
  4.2486039549700845  7.1084417273950651  1.4141825418148057
  2.8436602636148187  5.6781970698234190  2.8416908230153468
  4.2585726984905614  7.0949899657982556  4.2577000438674864
  2.8405345232789356  5.6800629520431043  5.6801185890694716
  4.2592359784766973  7.0995504780633905  7.0995195982066770
  2.8407973016403698  5.6769076418593585  8.5198351832931021
  4.2488912747610597  7.1110144501461177  9.9518760332170064
  2.8426551047634758  8.5336124062468208 -0.0024370973481581
  4.2242387321017061  9.9768062245197875  1.3901441434483079
  2.8448617750083178  8.5254758203494987  2.8345799072015092
  4.2312975393014787  9.9694102951705474  4.2224260158673426
  2.8408599718242873  8.5197243580939901  5.6769469119611866
  4.2488998408891945  9.9518846747236172  7.1110144866800047
  2.8416944816657415  8.5300467921001513  8.5300794141448915
  4.2007275931428731 10.0000484093616926 10.0000483453374791
  5.6671634550108596 -0.0024371020310595 -0.0024999416786451
  7.0927954985276696  1.4172172963941339  1.4171706979493484
  5.6754978508604434 -0.0047352982665864  2.8347869531366583
  7.1053770990339018  1.4187980467304337  4.2541107748794369
  5.6809407255779121 -0.0006422338922556  5.6769075723351676
  7.1023642847094877  1.4189470680360665  7.0982506335646320
  5.6706964581958372 -0.0015392804124362  8.5300468275984151
  7.0923341818626024  1.4141824362227007  9.9521720169738082
  5.6753002016607699  2.8345797983771317 -0.0047065205866228
  7.1053494355089040  4.2541620270008300  1.4188359023423485
  5.6796139962522174  2.8413202519715419  2.8411462127561729
  7.0987235277781213  4.2533119669178605  4.2532617638736330
  5.6758517903843133  2.8327247803012257  5.6753345252293705
  7.0941881233309454  4.2513024094320855  7.1064406883418796
  5.6704983159668725  2.8306165248384634  8.5301324803981800
  7.1057860068188834  4.2577001170189712  9.9422033172194073
  5.6810514881231438  5.6769468883217700 -0.0007047115894056
  7.1025252515466368  7.0984115718273060  1.4189470808626077
  5.6759269785874871  5.6754677138411944  2.8327219404687067
  7.0943353347149776  7.1065877639960071  4.2513024085410454
  5.6725256598078326  5.6731745580459911  5.6730614161686290
  7.0906294417387894  7.1101464186366137  7.1101464851572613
  5.6636866979108884  5.6688296217830088  8.5371172325911449
  7.1012254510643347  7.0995195969039218  9.9415398738603482
  5.6707290688790373  8.5300795123778652 -0.0015393201409249
  7.0924719217740133  9.9522495459485611  1.4142767792814530
  5.6706433736890949  8.5302775057323643  2.8306166145576666
  7.1057999135308298  9.9420691606706093  4.2578008666436089
  5.6636587031770853  8.5370892647729431  5.6688296434772552
  7.1012562513048669  9.9415399165946354  7.0995505182877201
  5.6570906283260038  8.5436855180936604  8.5436853150364520
  7.0897614360423802  9.9518760015694721  9.9518846528732734
  8.5279173849132022 -0.0003074452961879 -0.0005173777197517
  9.9055424350749881  1.4162048235536853  1.4161823689243795
  8.5226685191554701 -0.0034432983465519  2.8416344515341647
  9.9516737203122627  1.4197654038677046  4.2491083946491468
  8.5206574445866696 -0.0003794192487154  5.6800629666319766
  9.9466138680754845  1.4188361001457406  7.0954263585568613
  8.5238289563550769 -0.0007046785920165  8.5197243691166982
  9.9668935236148943  1.4123175044766769  9.9565355527830519
  8.5225787799170796  2.8416909033027014 -0.0035051751511991
  9.9516675343356837  4.2491020793860104  1.4197654052076174
  8.5193305432030950  2.8389314157250887  2.8389836782570748
  9.9613455684729857  4.2394302082066613  4.2394302230345362
  8.5205157042639517  2.8365079849220671  5.6802297329472475
  9.9474638178257688  4.2532617904179011  7.1020523914013598
  8.5253082684540722  2.8327218896043371  8.5248489540213459
  9.9576094861377449  4.2431398964112486  9.9591183315581464
  8.5207129119251519  5.6801184493354091 -0.0003793743177045
  9.9466651327728357  7.0953987441814306  1.4187980336646140
  8.5205462749798500  5.6802601521838172  2.8365079636068957
  9.9475140639343103  7.1020523119768857  4.2533120082305205
  8.5241479551868302  5.6766279143647163  5.6766279449533670
  9.9494733902363404  7.1064405591897017  7.1065878228176755
  8.5276013558513135  5.6730614426748120  8.5282502959875224
  9.9429752032150738  7.0949761814000949  9.9420692031437099
  8.5238684126415780  8.5198351233148717 -0.0006421993171815
  9.9670825206443965  9.9567936408908562  1.4121112561772555
  8.5254413769348041  8.5249239400818304  2.8327247540699378
  9.9576360131897168  9.9591182883181535  4.2431663338524288
  8.5277144216751228  8.5282502527803974  5.6731745868068320
  9.9430758289171735  9.9422033313019025  7.0949899113209769
  8.5319463227270536  8.5371172030067228  8.5370892960852895
  9.9783500090914519  9.9694782504195079  9.9694102441566184
  2.7264758848775896  0.1136792387726243  0.1136792450792035
