Fe Co
 1.0000000000000000
    11.3760677396768788    0.0000000000000000    0.0000000000000000
     0.0000000000000000   11.3760677338991485    0.0000000000000000
     0.0000000000000000    0.0000000000000000   11.3760677451928753
 Fe  Co 
 127   1
Cartesian
  0.0454821862036484  0.0000000288115228 -0.0000000225371280
  1.4289110887979288  1.4151058781179953  1.4151058601044568
  0.0029305112416062  0.0000000897111464  2.8410863956455068
  1.4242855446247544  1.4197173207189606  4.2577191284012610
  0.0008776912029914  0.0000000499474435  5.6880338311922749
  1.4242995890419941  1.4197313527226310  7.1183485962042301
  0.0029306004901277  0.0000000203811808  8.5349812987449436
  1.4289110174958426  1.4151058219055375  9.9609619087908907
  0.0029304898064515  2.8410865891188641 -0.0000000175025788
  1.4242996037761941  4.2577189939386342  1.4197314296448571
 -0.0056412747990572  2.8496582323742499  2.8496583775108890
  1.4206670821939600  4.2683126619217457  4.2682649174855278
  0.0030671624484770  2.8409497429244657  5.6880338803932489
  1.4206671138015068  4.2682648907807392  7.1077550495173023
 -0.0056413080020030  2.8496583388077323  8.5264095187974220
  1.4242856853107562  4.2577190542785610  9.9563504181298192
  0.0008777348031036  5.6880338811926450 -0.0000000298890931
  1.4242856876734917  7.1183486519100345  1.4197173796773370
  0.0030672143690588  5.6880338555280918  2.8409497655193481
  1.4206671356255420  7.1078028886477487  4.2683126474538620
 -0.0003523367474137  5.6880339120047685  5.6880338607662644
  1.4206671164474607  7.1077550440560362  7.1078028368448871
  0.0030672709025082  5.6880338927053282  8.5351179957434979
  1.4242996242408039  7.1183487280212079  9.9563364011680999
  0.0029304672677845  8.5349811669245916  0.0000000342732897
  1.4289111371493359  9.9609619049786176  1.4151058455075012
 -0.0056413776236042  8.5264094520367948  2.8496582463408413
  1.4242996421489764  9.9563363945223902  4.2577192412918992
  0.0030671005610368  8.5351179278949907  5.6880338829880657
  1.4242856256154075  9.9563504704553445  7.1183485229112833
 -0.0056413369580859  8.5264094918517213  8.5264094339740062
  1.4289110934520135  9.9609618355479341  9.9609620283140519
  4.2591228858633121  1.4151057102458100  1.4151058463435984
  2.8440169210092341 -0.0000000092430431  2.7985349453101787
  4.2637343218440265  1.4197313223333081  4.2577190973634860
  2.8440169075837476  0.0000000486567564  5.6880339262980222
  4.2637482270972473  1.4197173731557478  7.1183485706680862
  2.8440170033620178 -0.0000000122707381  8.5775328916193860
  4.2591227898450787  1.4151058553836260  9.9609619099460751
  2.8440169555985335  2.7985348610181808  0.0000000081015888
  4.2637481928200600  4.2577191364512768  1.4197173608253391
  2.8440169870060368  2.8410863482197670  2.8410865033021846
  4.2673668092710395  4.2682648781023387  4.2683126516801098
  2.8440169675335767  2.8431392855036171  5.6880338297768454
  4.2673666240272121  4.2683126848735418  7.1078030101441447
  2.8440169533431638  2.8410863763017460  8.5349814184405624
  4.2637342845708854  4.2577191918724973  9.9563364366848273
  2.8440169168353644  5.6880338547861786  0.0000000273740700
  4.2637342261729501  7.1183487314341818  1.4197313090917891
  2.8440169785684222  5.6880337788608220  2.8431393605511794
  4.2673668069947430  7.1077549859973290  4.2682648458294663
  2.8440170031994114  5.6880338590874162  5.6880338578077918
  4.2673667946747038  7.1078029246946723  7.1077551679934210
  2.8440169072933887  5.6880339466935492  8.5329284864081707
  4.2637482459178528  7.1183486240505642  9.9563505026388981
  2.8440168526784824  8.5775328250482783 -0.0000000097192523
  4.2591226507811646  9.9609618924831480  1.4151058871263371
  2.8440170004360095  8.5349812507513665  2.8410866092811835
  4.2637482815785264  9.9563504224530881  4.2577191818495281
  2.8440170271475265  8.5329283186954559  5.6880338888892501
  4.2637342938613099  9.9563362792247982  7.1183487240890742
  2.8440169069687831  8.5349811819208039  8.5349812219992813
  4.2591226877789046  9.9609617946772602  9.9609619832736858
  5.6425518429652817  0.0000000222732562  0.0000000722046158
  7.1017361960423644  1.4197173234224707  1.4197313620344034
  5.6851033131297433  0.0000000528612692  2.8410864721401650
  7.1123295753324776  1.4233498096239530  4.2682648851979792
  5.6871561956616121  0.0000000116830837  5.6880338115843152
  7.1122817241131262  1.4233497454867723  7.1077551107178154
  5.6851032951724498 -0.0000000079404737  8.5349813854655956
  7.1017361421252296  1.4197313226751549  9.9563504106925791
  5.6851033653891276  2.8410865262847702 -0.0000000510483821
  7.1122818436222719  4.2683127007064403  1.4233498373532198
  5.6936752072746835  2.8496582850358458  2.8496582055944089
  7.1101018374995126  4.2660850097163481  4.2660848880868985
  5.6849667174418714  2.8409497765509348  5.6880338725440254
  7.1101019485335426  4.2660850033705877  7.1099827305817156
  5.6936751834080477  2.8496582613152244  8.5264094873229990
  7.1123297087782635  4.2682648271040957  9.9527178317041223
  5.6871562661738020  5.6880339333376622 -0.0000000015032995
  7.1123296240312177  7.1078028253055177  1.4233498069339909
  5.6849667263004759  5.6880339047270736  2.8409497634583221
  7.1101019524180282  7.1099827462630945  4.2660849123075018
  5.6883861699783003  5.6880338101469228  5.6880338768039058
  7.1101018613511675  7.1099826947736933  7.1099827366991466
  5.6849666508004457  5.6880338969042583  8.5351180110483238
  7.1122817474897815  7.1077549487954528  9.9527179628667586
  5.6851034290153786  8.5349813887168171  0.0000000342064122
  7.1017359902552446  9.9563363913703089  1.4197173357735435
  5.6936751299431316  8.5264094647353872  2.8496583216533464
  7.1122818023662413  9.9527179566058344  4.2683125630153178
  5.6849667739777461  8.5351179084600979  5.6880338121811391
  7.1123295696020010  9.9527180079044779  7.1078028273517111
  5.6936752429154609  8.5264094650220343  8.5264094960208201
  7.1017359448465784  9.9563503702275629  9.9563364414300857
  8.5320507765980533 -0.0000000543706828 -0.0000000299795091
  9.9623655575013874  1.4197314681772935  1.4197172227442671
  8.5320507734926405  0.0000000194019286  2.8431391821545007
  9.9518198071948394  1.4233497940312312  4.2683126438074250
  8.5320507965580532  0.0000000114272942  5.6880339674532934
  9.9517719909690783  1.4233499043254441  7.1078029720754108
  8.5320508037655838 -0.0000001661409976  8.5329284448515779
  9.9623654648500484  1.4197173773496510  9.9563363733358230
  8.5320508177326850  2.8431394552744909 -0.0000000573529728
  9.9517720441357014  4.2682648402944556  1.4233498772623148
  8.5320508743727803  2.8409498109703453  2.8409498872798067
  9.9539996808699662  4.2660850259810905  4.2660849276418498
  8.5320507934559231  2.8443692695934746  5.6880339307458412
  9.9539996965811675  4.2660849652305117  7.1099826592505320
  8.5320508402729889  2.8409497578611975  8.5351179623795073
  9.9518198365846260  4.2683126851191471  9.9527178377249399
  8.5320508780915230  5.6880337893946340 -0.0000000413522393
  9.9518198836131937  7.1077550243704017  1.4233497754734492
  8.5320508208464432  5.6880339518463439  2.8443692410307198
  9.9539997862045091  7.1099827132659978  4.2660849087507007
  8.5320508098654866  5.6880338553794054  5.6880337514416794
  9.9539996614345796  7.1099826834137723  7.1099828348010821
  8.5320508977103415  5.6880338875571557  8.5316983091919649
  9.9517720261972311  7.1078028995629028  9.9527179005616571
  8.5320507677574255  8.5329282369355184 -0.0000000921296636
  9.9623655484092080  9.9563503827702764  1.4197311980112377
  8.5320508979820175  8.5351178954373808  2.8409497111396615
  9.9517719584623929  9.9527179400927057  4.2682647893235748
  8.5320508036269125  8.5316984172864725  5.6880339174654164
  9.9518198397180306  9.9527179232656486  7.1077550345192186
  8.5320507830814929  8.5351180046188126  8.5351179702854107
  9.9623655901074830  9.9563364107918417  9.9563505028904640
  2.8440168881222481 -0.0000000936255471 -0.0000000233320896
