Fe Pt
 1.0000000000000000
    11.4149698582244881    0.0000000000000000    0.0000000000000000
     0.0000000000000000   11.4149698557238697    0.0000000000000000
     0.0000000000000000    0.0000000000000000   11.4149698562394928
 Fe  Pt 
 127   1
Cartesian
  0.0121458261587717  0.0000000793590458  0.0000000362249736
  1.4017776341125912  1.4519648071664635  1.4519647888023011
 -0.0113129927092658 -0.0000000312353096  2.8650555515053915
  1.4226710334540167  1.4313031361743034  4.2805056748848855
  0.0008620687074624 -0.0000000020695255  5.7074849223071613
  1.4224394947248791  1.4310713116778699  7.1344639266811933
 -0.0113130570650332  0.0000000803906235  8.5499143687261316
  1.4017777669647933  1.4519648573015980  9.9630049989130676
 -0.0113130997608924  2.8650555627259857  0.0000000784688792
  1.4224392832172064  4.2805059006616935  1.4310714101724662
 -0.0242799482711605  2.8780224874365454  2.8780226184454154
  1.4215832551107139  4.2911713652617447  4.2912675317428421
 -0.0058964962699553  2.8596391677223192  5.7074849216176551
  1.4215832984649015  4.2912675882428548  7.1237985268250030
 -0.0242800893894148  2.8780224418091893  8.5369472229959804
  1.4226709436304363  4.2805059033635056  9.9836668436741700
  0.0008622086240071  5.7074848688470006 -0.0000001355375913
  1.4226710287737419  7.1344640597660165  1.4313031913605530
 -0.0058965810022999  5.7074848770733499  2.8596390441227855
  1.4215832996132902  7.1237024011246399  4.2911712159356519
  0.0017596217934325  5.7074848248033021  5.7074849921104880
  1.4215833971335508  7.1237986405124811  7.1237022456920878
 -0.0058967937253347  5.7074849487935859  8.5553308341131622
  1.4224393411417378  7.1344640211054484  9.9838983558094494
 -0.0113130322962121  8.5499144743616018  0.0000000121367440
  1.4017776266163207  9.9630050849208125  1.4519647534197333
 -0.0242800788028805  8.5369473854768447  2.8780225041987646
  1.4224394392263782  9.9838984538663809  4.2805058635235431
 -0.0058965594398756  8.5553307589985632  5.7074848366084190
  1.4226712043115226  9.9836667565608650  7.1344639937965644
 -0.0242798760039118  8.5369473195720040  8.5369473995763681
  1.4017776376751228  9.9630048843963710  9.9630048597230871
  4.3057073334275664  1.4519648102072560  1.4519648864363628
  2.8537426220761293 -0.0000000376749655  2.8415966737070466
  4.2850454915964349  1.4310715112023087  4.2805057446647146
  2.8537423497269123  0.0000001026993806  5.7074849155889087
  4.2848137788640202  1.4313030329922591  7.1344639586026979
  2.8537424817879860  0.0000000425865409  8.5733732367898448
  4.3057072888318331  1.4519648869366155  9.9630050010976863
  2.8537425132895473  2.8415967100088988 -0.0000000427869589
  4.2848140149517056  4.2805058126877107  1.4313032114939124
  2.8537424619787828  2.8650554547598284  2.8650555023632993
  4.2859016416594695  4.2912674737409144  4.2911712495520060
  2.8537425454842427  2.8528803457598149  5.7074849350664465
  4.2859015101992108  4.2911711643263866  7.1237022749979584
  2.8537425934584242  2.8650554719809640  8.5499145251965061
  4.2850455684435627  4.2805058651426400  9.9838984557364192
  2.8537423848159444  5.7074849492355204  0.0000000878161732
  4.2850456105812658  7.1344638354383108  1.4310714957950474
  2.8537424399611329  5.7074848886079419  2.8528802575957797
  4.2859015705412400  7.1237985344675803  4.2912675427097957
  2.8537424508724651  5.7074849743270448  5.7074850326200801
  4.2859016243381758  7.1237022563555810  7.1237985159294954
  2.8537424645522984  5.7074849033899850  8.5620895883126753
  4.2848141108991280  7.1344641237086650  9.9836666941822241
  2.8537424650427088  8.5733732159413485 -0.0000000829705462
  4.3057073241186519  9.9630049579136841  1.4519648589396141
  2.8537423377868874  8.5499144602930333  2.8650554453605803
  4.2848138884889906  9.9836666088707560  4.2805058278704546
  2.8537424244637584  8.5620895770555769  5.7074849617467507
  4.2850454159653442  9.9838984427588908  7.1344641181189994
  2.8537423736854217  8.5499144423236295  8.5499144394238638
  4.3057072957757390  9.9630049016612539  9.9630048651188208
  5.6953390348460102  0.0000000703948617  0.0000001558178168
  7.1342481387572407  1.4313032304514324  1.4310714365739980
  5.7187978487197721  0.0000000159874147  2.8650553957451339
  7.1449137116566988  1.4321590184276656  4.2912675231835768
  5.7066228192115087 -0.0000001090045625  5.7074849821369478
  7.1450100980442341  1.4321589808424453  7.1237985852745691
  5.7187978510166815  0.0000000263228226  8.5499145501096852
  7.1342482210341682  1.4310715090708594  9.9836669416393544
  5.7187979237522848  2.8650554451090979  0.0000000523287744
  7.1450100130049536  4.2911711772526235  1.4321590008810989
  5.7317649385106231  2.8780225600742422  2.8780224701997015
  7.1442510481111956  4.2905085513066741  4.2905086983208234
  5.7133815033367998  2.8596391436427542  5.7074849801294194
  7.1442510555892191  4.2905085508201681  7.1244613021588794
  5.7317648800195924  2.8780226237096547  8.5369472515452980
  7.1449137023270755  4.2912675448919657  9.9828107898674467
  5.7066226773383901  5.7074848405178225 -0.0000000820669091
  7.1449137515625871  7.1237023095118461  1.4321591571313481
  5.7133815192938373  5.7074848858559131  2.8596391504251675
  7.1442510118873166  7.1244611417213584  4.2905086900504852
  5.7057253728199724  5.7074850088948441  5.7074848585808473
  7.1442510110770012  7.1244614238848394  7.1244612571366810
  5.7133815713496965  5.7074849025818128  8.5553307296863608
  7.1450100067473761  7.1237985716632579  9.9828108331813663
  5.7187979096315287  8.5499143607460226 -0.0000000194346937
  7.1342484986575521  9.9838984326842120  1.4313029550823155
  5.7317651823166713  8.5369472949008216  2.8780225909200627
  7.1450102177797872  9.9828107029196858  4.2911713587164586
  5.7133815739249725  8.5553305966333877  5.7074848904976951
  7.1449136404090154  9.9828109014027575  7.1237023977780289
  5.7317648483634427  8.5369473681507646  8.5369474006840047
  7.1342481634970580  9.9836668338146719  9.9838985254424202
  8.5612272717482671  0.0000000159295561  0.0000000933451512
  9.9882064467929030  1.4310714618409788  1.4313030783059244
  8.5612274944102502 -0.0000000363697202  2.8528804423160730
  9.9774448288803299  1.4321588695964111  4.2911711202094631
  8.5612273650457347  0.0000000600783915  5.7074849367934668
  9.9775410621377443  1.4321590373576603  7.1237022134903762
  8.5612273090725601 -0.0000000377987273  8.5620894536268501
  9.9882065105273465  1.4313030792130550  9.9838983465670452
  8.5612273312166813  2.8528803027280585 -0.0000001159973647
  9.9775410204636330  4.2912675610869551  1.4321590699287883
  8.5612273370024869  2.8596391418740277  2.8596391156768379
  9.9782037773596759  4.2905086076803096  4.2905086284380500
  8.5612275245556457  2.8519828579347295  5.7074848814163541
  9.9782036379707932  4.2905084618400222  7.1244611705480496
  8.5612274236201493  2.8596391890185249  8.5553307789671962
  9.9774446978455718  4.2911713300727330  9.9828108557506443
  8.5612273927568232  5.7074848700566427 -0.0000000706734721
  9.9774448501059201  7.1237986810454297  1.4321590620787075
  8.5612273798085141  5.7074849201590725  2.8519829184500805
  9.9782036946695190  7.1244613988351695  4.2905085933930041
  8.5612274352714905  5.7074850065080458  5.7074849749191969
  9.9782037868009699  7.1244612765794821  7.1244611330387615
  8.5612274790630902  5.7074849825305609  8.5629869841474449
  9.9775411056386947  7.1237022355368405  9.9828106159142571
  8.5612273669998640  8.5620896300426139  0.0000000687769584
  9.9882065430179789  9.9836666584079570  1.4310714669158604
  8.5612272757553551  8.5553306488002310  2.8596391142642350
  9.9775409735809308  9.9828107294394179  4.2912675467049981
  8.5612274599923879  8.5629869501044240  5.7074848917776153
  9.9774447857485598  9.9828108371539379  7.1237986219625169
  8.5612274926579666  8.5553306245489029  8.5553307143933335
  9.9882066033951062  9.9838984890432876  9.9836667684616689
  2.8537425816896800 -0.0000002137627546  0.0000000648820581
