Fe Ag
 1.0000000000000000
    11.4365008522075478    0.0000000000000000    0.0000000000000000
     0.0000000000000000   11.4348749937705456    0.0000000000000000
     0.0000000000000000    0.0000000000000000   11.4365008440205109
 Fe  Ag 
 126   2
Cartesian
 -0.0389697465587709 -0.0464175583439626 -0.0001199514791346
  1.3570594569241552  1.4293593502901811  1.5020657912427955
 -0.0548599293343583 -0.0157311777781996  2.9137865021433775
  1.4193900225262597  1.4294083969022164  4.2951720974423644
 -0.0199878868023093 -0.0074227091249738  5.7182302215484313
  1.4193900644158970  1.4293103793755177  7.1413287064077959
 -0.0546613154437237 -0.0157311442386878  8.5225156579972232
  1.3570594057930674  1.4293593583710049  9.9344349998591976
 -0.0389697640409731  2.9051362758244337  0.0001199366038071
  1.3858123932245239  4.3235491800988504  1.4730372919108332
 -0.0546613040039338  2.8744499231528291  2.9139851565310764
  1.4061033844398185  4.3058472462730721  4.3023547680654870
 -0.0199879038894071  2.8661415151038017  5.7182706437380659
  1.4060623352277037  4.3060594821867522  7.1340253528365754
 -0.0548599608951232  2.8744499147372080  8.5227143056873906
  1.3860878860818535  4.3235491850438947  9.9631880142896545
 -0.0462224020698961  5.7436908846178731  0.0001456189083334
  1.4110106909351978  7.1467968952166583  1.4481145637709123
 -0.0388428962682696  5.7422262784760658  2.8979037294058889
  1.4104207887150164  7.1467223574596792  4.3121031923078039
 -0.0095843451111776  5.7240655022405056  5.7182356853011598
  1.4104208102648761  7.1468714061683931  7.1243976550145627
 -0.0387785491253050  5.7422262739445209  8.5385327577541030
  1.4110106566598408  7.1467968589383970  9.9883862824497882
 -0.0462223951900189  8.5499028574199514 -0.0001455768569618
  1.3860879184697852  9.9700445687961068  1.4733128645148712
 -0.0387785675887189  8.5513674995722226  2.8979681050134274
  1.4060623187739405  9.9875342551577049  4.3024754833198688
 -0.0095843206316476  8.5695282343317523  5.7182651571616923
  1.4061033828139629  9.9877464771957545  7.1341460186716805
 -0.0388428768592360  8.5513674978581360  8.5385971008305397
  1.3858123815592092  9.9700445614685993  9.9634635294220981
  4.3611909609706707  1.4293593642810658  1.5020658307981793
  2.8590053144664362 -0.0464176036872302  2.8980949907808875
  4.2988604451306633  1.4293103713596240  4.2951721068583044
  2.8591252012330810 -0.0152840615111706  5.7182503945449206
  4.2988604002233997  1.4294084112552050  7.1413287082719537
  2.8592451551580531 -0.0464175592995173  8.5384058555481541
  4.3611910298217920  1.4293593183810149  9.9344350087499596
  4.3321625334475797  4.3235492027569782  1.4733128392203541
  2.8592451709487636  2.9051363167902222  2.8980950207311360
  4.3121880840823890  4.3060595127469137  4.3024754916265486
  2.8591252100664373  2.8740027988708032  5.7182504042910169
  4.3121470104828559  4.3058472658232132  7.1341459968824541
  2.8590052587586827  2.9051363356680127  8.5384058701543903
  4.3324380879628714  4.3235492286428370  9.9634635388276180
  2.8591252051110896  5.7090887053344570 -0.0000000094939283
  4.3072397618881109  7.1467968290177444  1.4481145491794616
  2.8592708207602331  5.7436908881013977  2.9053475761717666
  4.3078296530845392  7.1468713689676608  4.3121032026155941
  2.8591252123152633  5.7225079933378016  5.7182504335088842
  4.3078295960160276  7.1467223095435823  7.1243976625845793
  2.8589796412556248  5.7436909074223994  8.5311532125275420
  4.3072397689423534  7.1467968694337722  9.9883863180943369
  2.8591252345331939  8.5845050631849880 -0.0000000241460124
  4.3324380600089967  9.9700445562259556  1.4730372921510184
  2.8589796348322820  8.5499028459281803  2.9053476551965596
  4.3121470506774591  9.9877464672626743  4.3023548248346479
  2.8591252240957701  8.5710857455465863  5.7182504174382496
  4.3121880869137792  9.9875342506673999  7.1340253666887410
  2.8592708155635340  8.5499028555699255  8.5311532265067207
  4.3321625727040738  9.9700445538493092  9.9631880184928878
  5.7572201890420640 -0.0464175749252209  0.0001199755845286
  7.1542973062118902  1.4294083698508806  1.4397352412595701
  5.7729117583958125 -0.0157311814163258  2.9139851746049619
  7.1673974717040130  1.4293594031871895  4.3082722694838509
  5.7382382998810781 -0.0074227315421748  5.7182706284915374
  7.1673974542841137  1.4293593897579391  7.1282286203457303
  5.7731103747399946 -0.0157312010814687  8.5227143024744407
  7.1542973355798596  1.4293103349845748  9.9967656695538096
  5.7572201997210124  2.9051362864331343 -0.0001199753432194
  7.1614800430574483  4.3058472782619646  1.4530218312825316
  5.7731103749382413  2.8744499343185312  2.9137865225440192
  7.1769424539442976  4.3075382056047395  4.3177918812451201
  5.7382383154893244  2.8661415754812869  5.7182302404939742
  7.1769171517217307  4.3075382129570965  7.1186836432001277
  5.7729117312544034  2.8744499125310643  8.5225157140883354
  7.1616007507106456  4.3060594666973646  9.9834379891784923
  5.7644728408454018  5.7436909035566739 -0.0001456136697101
  7.1712284313314596  7.1467223396421460  1.4487044502724415
  5.7570289855857748  5.7422262933136006  2.8979681156050536
  7.1736036746218854  7.1467969021542999  4.3144784917649988
  5.7278347537300300  5.7240654843922467  5.7182651880754731
  7.1736037335405047  7.1467968485016247  7.1220224242877155
  5.7570933611873487  5.7422262977231453  8.5385971059100960
  7.1712284425269850  7.1468714022032032  9.9877964175797693
  5.7644728518125463  8.5499028504672676  0.0001455883875375
  7.1616007095874075  9.9875342765934843  1.4530629261363761
  5.7570933316356436  8.5513674625326086  2.8979037825662108
  7.1769170721989113  9.9860554999607327  4.3178172710741896
  5.7278347315549105  8.5695282101656147  5.7182357035226454
  7.1769424591076048  9.9860555787604124  7.1187089401052326
  5.7570289925698024  8.5513674687187624  8.5385327347277755
  7.1614800766043327  9.9877464832509784  9.9834790433755263
  8.5773756118369135 -0.0152839967345565 -0.0000000108124522
 10.0004539556646854  1.4293103056481764  1.4397352509661756
  8.5773554173315816 -0.0074227680038323  2.8791131542529591
  9.9873538282774934  1.4293593864841541  4.3082722798376683
  8.5773756370373508  0.0063335269870090  5.7182504515039323
  9.9873537846957277  1.4293593240903431  7.1282285978865154
  8.5773958281206433 -0.0074227875642097  8.5573876938359579
 10.0004539497695912  1.4294084076491356  9.9967656502751225
  8.5773756400958288  2.8740027487548927  0.0000000633363173
  9.9931505750639698  4.3060594681828581  1.4530628851608329
  8.5773958124028393  2.8661415062490740  2.8791131068708347
  9.9778341630322007  4.3075382340838555  4.3178172417286769
  8.5773756295334085  2.8523852423371254  5.7182504420404348
  9.9778087993612861  4.3075382128379802  7.1187089508368668
  8.5773554543712489  2.8661415212650390  8.5573877457424317
  9.9932712475696892  4.3058472402058738  9.9834790572518664
  8.5773756378350487  5.7225080032560420  0.0000000200202415
  9.9835229028700994  7.1468714016468891  1.4487044164836258
  8.5773608648749686  5.7240655324081757  2.8687095477561821
  9.9811475777155803  7.1467968534706037  4.3144785059736588
  8.5773756398091159  5.7157106366515622  5.7182504605269031
  9.9811475928483677  7.1467968540709599  7.1220223874359405
  8.5773903941540439  5.7240654978515471  8.5677913060397923
  9.9835228760577461  7.1467223665854300  9.9877964534291941
  8.5773756776289183  8.5710857637459110  0.0000000173418136
  9.9932712383976856  9.9877465438902622  1.4530218357833822
  8.5773903400066871  8.5695282632473404  2.8687095654370531
  9.9778088196357508  9.9860554995723962  4.3177919176883996
  8.5773756614155694  8.5778830554559171  5.7182504399613681
  9.9778341717498478  9.9860555938741786  7.1186835817473275
  8.5773609012490883  8.5695282548139513  8.5677912999152941
  9.9931506016949179  9.9875342616614287  9.9834379474928774
  2.8591252632315833 -0.0348787828747098  0.0000000061542887
  2.8591252224182702  2.8935975033915939 -0.0000000302431461
