Fe Re
 1.0000000000000000
    11.4269932413317203    0.0000000000000000    0.0000000000000000
     0.0000000000000000   11.3967118756792551    0.0000000000000000
     0.0000000000000000    0.0000000000000000   11.4269932462453934
 Fe  Re 
 126   2
Cartesian
  0.0287336131791732  0.0173485590576840  0.0000026228482874
  1.3230638419842389  1.4245889613769491  1.5336845693325190
 -0.0168550684283792 -0.0032143081939607  2.8739356193364740
  1.4200741750579997  1.4247502184334611  4.2762450502423714
 -0.0106761054210032 -0.0039613585897581  5.7135241836846911
  1.4200740189531258  1.4244275325194697  7.1507480716554710
 -0.0171871210093316 -0.0032143042695046  8.5533896760581740
  1.3230637866393249  1.4245890208533651  9.8933088176606265
  0.0287334453988318  2.8318294068102765 -0.0000026953446951
  1.4311283970482453  4.2500192710341773  1.4258162728446140
 -0.0171870906532548  2.8523922355040607  2.8736036129778966
  1.4286219963742948  4.2676582380400854  4.2854418688669345
 -0.0106761578589100  2.8531394155307361  5.7134689880210336
  1.4284684176042108  4.2677712386028466  7.1417259442890257
 -0.0168551148587448  2.8523921116790261  8.5530577490080724
  1.4309319604259294  4.2500193983294654 10.0013736278378200
  0.0147521052800022  5.6851281338494575 -0.0000302000285577
  1.4308417265387887  7.1229449919198995  1.4259066388896602
  0.0040857578846749  5.6917718776309165  2.8527541341106568
  1.4202774977144559  7.1229207458845449  4.2819009399106358
  0.0072839138945342  5.7036054538369543  5.7134934371241997
  1.4202775216751016  7.1229691922913325  7.1450920223849250
  0.0039942260930653  5.6917717961444350  8.5743307417968779
  1.4308415565618806  7.1229448471842023 10.0010865624108352
  0.0147522935373281  8.5607617631032404  0.0000303313576886
  1.4309318297129114  9.9958705087595678  1.4256197212899151
  0.0039941979263238  8.5541181692926962  2.8526624542587227
  1.4284683665814586  9.9781187976112626  4.2852673578856493
  0.0072836310666873  8.5422841417622273  5.7134996467697388
  1.4286218362478642  9.9782318797891882  7.1415512382050776
  0.0040860212062421  8.5541179136127905  8.5742391058852494
  1.4311285881219227  9.9958703404391667 10.0011768147204059
  4.3904328454661377  1.4245888582847552  1.5336843984444894
  2.8567510426684972  0.0173484719654760  2.8280147604028278
  4.2934227149856357  1.4244275227777701  4.2762451246567643
  2.8567482758938376  0.0104004833981989  5.7134966590749166
  4.2934227742907352  1.4247504193581280  7.1507479891107231
  2.8567456375672431  0.0173485652215532  8.5989783954876255
  4.3904328017555398  1.4245887788136011  9.8933087368131698
  4.2825646965386781  4.2500193493092846  1.4256198552853068
  2.8567457693917522  2.8318294927138945  2.8280147549333825
  4.2850283885972269  4.2677710879309299  4.2852672698804541
  2.8567482007849594  2.8387771697705260  5.7134964764322218
  4.2848746423647350  4.2676580391911010  7.1415512216578962
  2.8567511248276545  2.8318295407571310  8.5989785280243094
  4.2823681248839041  4.2500194784299383 10.0011767809159231
  2.8567482424012782  5.6791460342741686  0.0000000561329764
  4.2826550439297169  7.1229449595615026  1.4259066958471613
  2.8567178324780045  5.6851281294563316  2.8419959122631071
  4.2932193229311242  7.1229691683565095  4.2819008403352781
  2.8567484443575464  5.7065126682878420  5.7134963989705483
  4.2932192593832834  7.1229206279042714  7.1450921944561063
  2.8567787134118814  5.6851279984205032  8.5849973006181486
  4.2826550400093018  7.1229449122134163 10.0010865365190860
  2.8567482066455652  8.5667439174231514  0.0000000014477249
  4.2823681394090158  9.9958704087309993  1.4258165038602579
  2.8567787608113280  8.5607619490722247  2.8419958570216735
  4.2848748442480797  9.9782319172527512  4.2854420738807972
  2.8567484715988063  8.5393770833707432  5.7134966419009992
  4.2850284219648991  9.9781188975837196  7.1417260478729148
  2.8567180286830389  8.5607618496654716  8.5849972369015823
  4.2825644077807006  9.9958705439254629 10.0013734024000556
  5.6847632393019909  0.0173482191485455 -0.0000026426942232
  7.1329936225391712  1.4247502379141403  1.4366744820237594
  5.7306837926223633 -0.0032145471138396  2.8736036179654372
  7.1500255181642824  1.4245888686693406  4.2932772313542316
  5.7241728083157613 -0.0039613712571818  5.7134691286983736
  7.1500254503663374  1.4245890362445133  7.1337161284295432
  5.7303519558700478 -0.0032143071914284  8.5530576690350859
  7.1329934608180654  1.4244274799516650  9.9903189525538725
  5.6847629702927529  2.8318295058059473  0.0000027694471275
  7.1421900532258782  4.2676581964083917  1.4281264029122063
  5.7303517708412235  2.8523921647939332  2.8739354069810163
  7.1516975348705811  4.2970277712201304  4.2949236871669756
  5.7241727398497710  2.8531392550504355  5.7135240179641000
  7.1516721154004479  4.2970278042531724  7.1320439719119895
  5.7306837802407911  2.8523921957495029  8.5533898960396684
  7.1420156887755981  4.2677711459417234  9.9987132313276295
  5.6987444205110389  5.6851280097462009  0.0000305088924711
  7.1386493690487720  7.1229207456608741  1.4364709662966488
  5.7095024792441667  5.6917717559070198  2.8526623742847157
  7.1303325605079655  7.1229448973076925  4.2735841122089937
  5.7062129033312727  5.7036055544035387  5.7134997297418675
  7.1303325073369681  7.1229447944438604  7.1534089698015864
  5.7094107230230229  5.6917715568524088  8.5742391952776114
  7.1386495124062428  7.1229690200515634  9.9905222505049984
  5.6987442365268368  8.5607618797573846 -0.0000305859189576
  7.1420155995266379  9.9781188654772528  1.4282800928840824
  5.7094108294773438  8.5541181383823393  2.8527541822080411
  7.1516721020738627  9.9488619306324164  4.2949493745559106
  5.7062127801177622  8.5422842006971944  5.7134933203008123
  7.1516976153064586  9.9488619595821870  7.1320693696470352
  5.7095024670599646  8.5541180522603870  8.5743308558153046
  7.1421904927497843  9.9782317357905654  9.9988667009927550
  8.5702450816812092  0.0104005228057996 -0.0000000049780493
 10.0074963660694856  1.4244274221767799  1.4366745725590115
  8.5702724352421420 -0.0039612433972074  2.8674244183706281
  9.9904645458954153  1.4245890107862083  4.2932772557484862
  8.5702450275817448 -0.0070532296296861  5.7134965448545545
  9.9904643577088148  1.4245889277346970  7.1337160033309601
  8.5702172735953024 -0.0039614428098813  8.5595688159219616
 10.0074962459594321  1.4247503134330817  9.9903187950710404
  8.5702448182257598  2.8387772565962894  0.0000000143866766
  9.9984743164908778  4.2677710017568957  1.4282800271311433
  8.5702174744090964  2.8531394635704062  2.8674244600257213
  9.9888178639373937  4.2970278890533349  4.2949492785178078
  8.5702449169058994  2.8562312850361100  5.7134965214543563
  9.9887922811259919  4.2970276457454855  7.1320693551270118
  8.5702723111537598  2.8531393151043973  8.5595689200049598
  9.9982997028955456  4.2676579422780883  9.9988668306264916
  8.5702447277978546  5.7065126023089672  0.0000001410848306
 10.0018405454258037  7.1229688851084978  1.4364707208082221
  8.5702419121076545  5.7036055500266833  2.8494645566651164
 10.0101571691825111  7.1229449865565204  4.2735841750212105
  8.5702448855244757  5.7273479939484906  5.7134966532788267
 10.0101573558419190  7.1229449720765663  7.1534089659500326
  8.5702480301165735  5.7036056311812215  8.5775286283608914
 10.0018404916551429  7.1229205884694489  9.9905225003029852
  8.5702450213453236  8.5393770615049291  0.0000001489595977
  9.9982994272428165  9.9782318850026908  1.4281264060586878
  8.5702481842701861  8.5422843003313691  2.8494643881861261
  9.9887922854555047  9.9488620446963925  4.2949238175889644
  8.5702449548057569  8.5185417872143887  5.7134965746845534
  9.9888178658972624  9.9488621207114356  7.1320440538641368
  8.5702419022577327  8.5422841997187451  8.5775286298154256
  9.9984742586936832  9.9781188780043202  9.9987130701737570
  2.8567481998184552  0.0806510927698049 -0.0000000352831556
  2.8567484746362704  2.7685267361721126  0.0000001452972692
