Fe Cu
 1.0000000000000000
    11.3828482917864307    0.0000000000000000    0.0000000000000000
     0.0000000000000000   11.3828482908821389    0.0000000000000000
     0.0000000000000000    0.0000000000000000   11.3828482919381031
 Fe  Cu 
 126   2
Cartesian
  0.0111076796463793 -0.0238969022980205 -0.0239050491076581
  1.4228559644925252  1.4228560479042338  1.4228560708783939
 -0.0238969108737994  0.0111076140973580  2.8696171478151791
  1.4171806291053595  1.4282180155139759  4.2466120972404395
 -0.0035661115310545 -0.0146986282609248  5.7037478097360124
  1.4230530079413708  1.4230530109409185  7.1142801734959944
 -0.0146985530679341 -0.0035660430643741  8.5248126000126287
  1.4282180108017501  1.4171805811229670  9.9819482280232297
 -0.0239050311989000  2.8696089709559645  0.0111076469443375
  1.4174941259413316  4.2466121146013398  1.4285314842828909
  1.4070197717815225  4.2570710425573104  4.2568864437376543
  0.0058515470181463  2.8398567931068528  5.6759025217831054
  1.4199817958910042  4.2742968326276820  7.0952308791019609
 -0.0087092310302969  2.8543714108531955  8.5316739660945036
  1.4228559989200418  4.2593534301417746  9.9692070130184938
 -0.0035756907286667  5.7037655043738846 -0.0146448247173363
  1.4226590501621870  7.1142801421472788  1.4226590107693506
  0.0058554168801859  5.6759024709746537  2.8398606311811596
  1.4201687411958506  7.0952307990091805  4.2741845722223966
  0.0002692415225286  5.7022530236067617  5.7022635968743689
  1.4228560523401683  7.1141953474605160  7.1143651166993989
  0.0054852033928149  5.6923966495978897  8.5405098736264513
  1.4257301977530317  7.1333295168092601  9.9542635157238024
 -0.0146448799146752  8.5247948154761826 -0.0035757388871561
  1.4285314758360410  9.9819482046359305  1.4174941476603402
 -0.0086592718627718  8.5316739494896101  2.8544212329224017
  1.4228560154665721  9.9690373807898922  4.2595229725436132
  0.0055362543542190  8.5404826431518917  5.6924301095583862
  1.4255433681485818  9.9543758894985270  7.1333295088593296
 -0.0050513463174027  8.5303522005145620  8.5303634034244453
  1.4386922930876518  9.9716739461396475  9.9714893050270845
  4.2466120997044667  1.4174940903419011  1.4171806475441451
  2.8696089240288281 -0.0239050707842754  2.8346044604758274
  4.2593534229240033  1.4228559955152411  4.2593534464320788
  2.8543712998535700 -0.0087092237361232  5.6968863382893380
  4.2742967949077553  1.4199817332606002  7.1333295253558608
  2.8398566640274612  0.0058515433828254  8.5526578347652009
  4.2570709230851742  1.4070196926360927  9.9716738865414403
  2.8696171222232327  2.8346044496557754 -0.0238969143754103
  4.2595230007677083  4.2595230451321928  1.4228559475207785
  2.8346044126733640  2.8696171509806394  2.8696090089537258
  4.2678894681672084  4.2822670888247067  4.2825369891302429
  2.8603569186034967  2.8492877558001384  5.7037655003008769
  4.2804868405993011  4.2804868131847797  7.1142801647184504
  2.8492877407828541  2.8603569696268241  8.5247948205653863
  4.2822671210609915  4.2678893568193059  9.9460233085013954
  2.8544213004477670  5.6968864252488052 -0.0086593043429445
  4.2741845194086805  7.1333295268470023  1.4201687000354903
  2.8604106809871022  5.7037477711143998  2.8492781611687441
  4.2804175667098008  7.1142801726937215  4.2804175877062001
  2.8507633894401985  5.6981970706305969  5.6982081668475271
  4.2685542924912481  7.1053916820669816  7.1053410263581593
  2.8402268884235773  5.6880505194083284  8.5361636511751087
  4.2665265329118638  7.1266717562617377  9.9622673289693768
  2.8398606174676813  8.5526577856795427  0.0058554673170749
  4.2568864169597695  9.9714894499385149  1.4070197812878837
  2.8492781386164951  8.5248126061618805  2.8604107727475689
  4.2825369946005498  9.9462932082504079  4.2678894148409148
  2.8401757765585844  8.5361302398245584  5.6880777461250389
  4.2662929575240431  9.9620339449962518  7.1266717339588403
  2.8454428110354448  8.5262967941761332  8.5263072243565148
  4.2532775463860792  9.9752828557170972  9.9752829158362726
  5.6759025097378641  0.0058553603387004  0.0058514726658509
  7.1142802379104300  1.4226590551008886  1.4230529681553308
  5.7037655194744845 -0.0035756979511082  2.8603568681538234
  7.1333294751474838  1.4257303187179664  4.2742968224194104
  5.6923967297051661  0.0054851473949581  5.6880505725635988
  7.1141952558763863  1.4228559782308392  7.1141952994102491
  5.7022531509449514  0.0002692070217932  8.5262967866603887
  7.0952309048338549  1.4201686774973927  9.9543758327554883
  5.7037478069283765  2.8604107763477025 -0.0035661522881492
  7.1333295004928541  4.2741845523881707  1.4255432904607022
  5.6968863110004540  2.8544213428816452  2.8543712796484919
  7.1266717491192573  4.2665264995001193  4.2662929635523863
  5.6880504443870450  2.8402268028286199  5.6923967128420729
  7.1053915913680576  4.2685544038136731  7.1232194034925005
  5.6981970135198132  2.8507633917102937  8.5303522378935597
  7.1142802106018967  4.2804175851858304  9.9481428318689513
  5.6924300563699930  5.6880776924635699  0.0055362934311782
  7.1143651028705470  7.1143650843373054  1.4228560533987176
  5.6880776936643320  5.6924301320277841  2.8401757800792167
  7.1053410603379676  7.1231687216061399  4.2685543498534138
  5.6966019154199152  5.6877358510006184  5.6877255283304056
  7.1142802406515049  7.1142802226500974  7.1142801787058554
  5.6877358217341447  5.6966018600554564  8.5408347965383822
  7.1231687361318077  7.1053410583172649  9.9600060682558880
  5.7022636492113987  8.5263072757313481  0.0002692277014576
  7.0952308566922762  9.9542635722517581  1.4199817312456293
  5.6982081035180210  8.5303633194281954  2.8507634174321907
  7.1142802225617183  9.9480734913613347  4.2804868944018972
  5.6877255203703951  8.5408245100051783  5.6966019024376973
  7.1232193403408575  9.9600060249592861  7.1053916070627210
  5.6962412304135963  8.5323190110864466  8.5323191283310287
  7.1018886624526578  9.9622673429689517  9.9620338450214323
  8.5316739290943229 -0.0086592486895633 -0.0087091457114705
  9.9819482668777688  1.4285314582145472  1.4282179724278208
  8.5247947939954400 -0.0146448719513096  2.8492877588178422
  9.9716739586853098  1.4386923697936020  4.2570709746517492
  8.5303521655581758 -0.0050514196211624  5.6981970081201876
  9.9543758969070595  1.4255433865418328  7.0952308533800714
  8.5404826989056843  0.0055362020817688  8.5361301850260549
  9.9690373579872578  1.4228560299849171  9.9690373947941051
  8.5248126005064293  2.8492781437172496 -0.0146986174373259
  9.9714894128476068  4.2568864345695960  1.4386922989593993
  8.5526578274401928  2.8398605177698903  2.8398566034525801
  9.9752829013722462  4.2532774479542024  4.2532774853622950
  8.5262968905487675  2.8454428333735424  5.7022530543562819
  9.9620338433498450  4.2662929652001820  7.1018886186482337
  8.5361302056455290  2.8401759229419148  8.5404825837992320
  9.9462932415793635  4.2825369780491389  9.9606709549714409
  8.5303634417469301  5.6982081372199556 -0.0050513450732072
  9.9542635559897832  7.0952309518214438  1.4257302909570497
  8.5263072672815028  5.7022634920543300  2.8454428693732741
  9.9622674276625194  7.1018886569565156  4.2665265217352362
  8.5323190541101397  5.6962412989210982  5.6962412863021763
  9.9600060382713433  7.1232193403714099  7.1231686870166815
  8.5408244772532438  5.6877255380690901  8.5319584773390655
  9.9480735525538311  7.1142801449542521  9.9480735150677475
  8.5405099081054203  8.5361637473162126  0.0054852130364884
  9.9692069170631274  9.9692069327744264  1.4228560816495417
  8.5361636828074747  8.5405098822655319  2.8402268148408210
  9.9460233787177561  9.9606710063443380  4.2822671762300342
  8.5408347904646327  8.5319584606688803  5.6877358131636910
  9.9481428161101011  9.9481428834401715  7.1142801950665220
  8.5319584956331660  8.5408348579853381  8.5408245003750292
  9.9606709045096391  9.9460233686999899  9.9462932588690762
  2.8415813494822046  0.0041308489135018  0.0041307577093026
  0.0041307477158642  2.8415812246823497  2.8415812315778108
