Fe Zr
 1.0000000000000000
    11.3718433765327855    0.0000000000000000    0.0000000000000000
     0.0000000000000000   11.4315906277347921    0.0000000000000000
     0.0000000000000000    0.0000000000000000   11.3718433762299966
 Fe  Zr 
 126   2
Cartesian
 -0.1010709499140389 -0.0000000746518045 -0.1010712924007067
  1.4214798940199598  1.9074140257535761  1.4214803435042562
  1.5480334019534188  1.5696633157804925  4.3017469216498112
  0.0199739958714699 -0.0000427485780344  5.6570480785439425
  1.4214804849666574  1.4465503352333102  7.1074023620214204
  0.0314645682569793 -0.0001149672589656  8.5680280441312497
  1.2949275324437086  1.5696632687425187  9.9130575381428407
 -0.0277855810927552  2.9083886673824111 -0.0282497664940309
  1.4214804976142374  4.2678491254013542  1.4214802284590808
 -0.0476760919321831  2.9528899151801049  2.8912333677766018
  1.4275046480805498  4.2838054917508321  4.2755267635777896
 -0.0082553845188677  2.8521505389658022  5.6639066585389841
  1.4214803195162520  4.2888313676268712  7.1074021100466513
 -0.0409960311163480  2.8987014472364137  8.5072075899828192
  1.4154562081181974  4.2838054178879963  9.9392776291665257
 -0.0183931140957769  5.7157951828656532 -0.0183930352004444
  1.4214802090129490  7.1637419509772728  1.4214806070272967
 -0.0211661520904051  5.7157951869522128  2.8641271874238150
  1.4278861029761094  7.1476200765786890  4.2752913910883397
 -0.0064585126376783  5.7159749269575517  5.7012478033199674
  1.4214803375530529  7.1427412187772124  7.1074020476734363
 -0.0227012175536799  5.7158228781223501  8.5050247008338875
  1.4150746016542224  7.1476200706876529  9.9395123747076397
 -0.0282499492402261  8.5232016605927345 -0.0277856334826342
  1.4214812324714230  9.5241763137331148  1.4214798586550608
 -0.0482724580098366  8.4787006546514707  2.8906374034419500
  1.5478238109645452  9.8621693114918543  4.3012512724842731
 -0.0081929621657418  8.5794286588700288  5.6638463036025106
  1.4214804260507696  9.9846015592687234  7.1074022458622030
 -0.0409849368146671  8.5328388450031767  8.5072631857032590
  1.2951372028820327  9.8621692571546298  9.9135529004190257
  4.3012511859570006  1.5694215303811792  1.5478238609117014
  2.9440320816308629 -0.0000000006695721  2.9440321398176637
  4.2404361438534393  1.4399927601797022  4.2405494098389420
  2.8114964438112300 -0.0001149071177077  5.6467760444939152
  4.2590114985283529  1.4242154244677467  7.1062340381074023
  2.8229870785988851 -0.0000426826773104  8.5577559825581844
  4.3209224160882185  1.4841508407711270  9.8940032915251095
  2.8906371183284705  2.9528902863143185 -0.0482723161801698
  4.2752916524447144  4.2839704904628242  1.4278862398916499
  2.8707463675446241  2.9083887834850870  2.8712107572981029
  4.2894415200568199  4.3021622288086441  4.2894968975230228
  2.8839569872241864  2.8987011670415623  5.7075967222626716
  4.2896930585311690  4.2973280230289426  7.1242906905614101
  2.8512162187696632  2.8521502323968950  8.5508973084916775
  4.3024262925858361  4.3073136935664307  9.9123031035048381
  2.8641270448723573  5.7157950126674510 -0.0211664594722480
  4.2755263807571922  7.1477849681452863  1.4275051580533396
  2.8613539679454116  5.7157953451364110  2.8613540592608024
  4.2894972389686545  7.1294284032672985  4.2894411868955746
  2.8656622222651014  5.7158229304671746  5.7097795619991416
  4.2897754263009036  7.1344174078033999  7.1240484166849196
  2.8494191227558514  5.7159751394072851  8.5135564650047630
  4.3025013376604875  7.1242769957300700  9.9123777135231474
  2.8912326743710133  8.4787014832110579 -0.0476761482477802
  4.3017467890928938  9.8619273960589702  1.5480338266693625
  2.8712108725193084  8.5232016188588773  2.8707463968178342
  4.2405495111633416  9.9915980248245955  4.2404363104229148
  2.8839459190186751  8.5328389844307306  5.7075411344759415
  4.2591081318481807 10.0076247394888043  7.1062941704720499
  2.8511535319185972  8.5794288677224753  8.5509577544539734
  4.3208006546151054  9.9474397985814154  9.8938818884840245
  5.6570484501006639  0.0000429297691974  0.0199744004555913
  7.1074020182678552  1.4469892492673813  1.4214804062189814
  5.6467758528968908  0.0001155398473488  2.8114964764399359
  7.1062940863765398  1.4239657133997394  4.2591079304353947
  5.6722673451726999  0.0000001331627999  5.6722677711917981
  7.1074021933433631  1.4151315396599993  7.1074021333469881
  5.6618258882905410 -0.0000000559741937  8.5529781887374980
  7.1085101321270470  1.4239656054711025  9.9556961628717318
  5.6638463241814465  2.8521618277700607 -0.0081927154953132
  7.1074020598658256  4.2888494362387348  1.4214805392247953
  5.7075412410215129  2.8987518648420445  2.8839457881186390
  7.1240485156800633  4.2971732491437500  4.2897753957737104
  5.6960563329760152  2.8653023869249363  5.6961507606129373
  7.1074019387063254  4.2897919981660326  7.1074024136006333
  5.7133161105059642  2.8662870324670213  8.5014880663556998
  7.0907555085507363  4.2971731980259733  9.9250287880735453
  5.7012478011383241  5.7156154050591752 -0.0064583235581206
  7.1074022598491204  7.1427589585035696  1.4214804803076819
  5.7097795373781794  5.7157676810873728  2.8656621306205836
  7.1242906572684932  7.1342624927914482  4.2896932643299373
  5.7098650576810712  5.7157954976928398  5.7098651813495813
  7.1074020551539734  7.1417986401534792  7.1074020460547329
  5.7137082797212972  5.7157951183225126  8.5010959459289701
  7.0905135734381739  7.1342626030635721  9.9251110235441278
  5.6639068437431792  8.5794405318953384 -0.0082550932720998
  7.1074020838865106  9.9850401679690872  1.4214805035458717
  5.7075967000835925  8.5328894168972163  2.8839571066607461
  7.1062346462683275 10.0073749312493376  4.2590113991594780
  5.6961508048615075  8.5662879720296257  5.6960567880679234
  7.1074019562814064 10.0164595819227937  7.1074023194745992
  5.7133162360815319  8.5653038229956042  8.5014881540177463
  7.1085701108690769 10.0073747935955790  9.9557928210168871
  8.5680281022965765  0.0001153209501363  0.0314645092552608
  9.9135526907495581  1.5694214481017008  1.2951372327894026
  8.5577562355006069  0.0000429896958357  2.8229872042510045
  9.8938817101145329  1.4841506044820016  4.3208008289437565
  8.5529787485655397 -0.0000001719900965  5.6618257830858578
  9.9557923421321934  1.4242154259997670  7.1085700641035778
  8.5425367396084475  0.0000001102774296  8.5425366881273401
  9.9743679875577325  1.4399924681864968  9.9742545977459773
  8.5072628949710616  2.8987518052843519 -0.0409850807072537
  9.9395125586326323  4.2839708769026599  1.4150749290321409
  8.5509574871308356  2.8521615355623298  2.8511533036815364
  9.9123784055013875  4.3073136524148499  4.3025013944955743
  8.5014882760137009  2.8662868522324643  5.7133162942515474
  9.9251110514940084  4.2973282690195118  7.0905131470284068
  8.5187479498228651  2.8653023197264962  8.5186535809260366
  9.9253625236015495  4.3021623754636078  9.9253070919243171
  8.5050246953503503  5.7157676852013370 -0.0227013458456498
  9.9392777022986074  7.1477852053211439  1.4154562178069530
  8.5135565183526047  5.7156156123861068  2.8494190726166639
  9.9123029902093851  7.1242769927303069  4.3024262279772101
  8.5010961933465268  5.7157953914408202  5.7137086182962884
  9.9250287608936389  7.1344170406092688  7.0907556940813548
  8.5049390673029741  5.7157954414716245  8.5049390999958181
  9.9253072229108845  7.1294284239108192  9.9253628752185161
  8.5072072858114645  8.5328895761132930 -0.0409963024282200
  9.9130571348653049  9.8619273104656653  1.2949270829710744
  8.5508973472914960  8.5794403075083405  2.8512161822962234
  9.8940032493567180  9.9474402574135610  4.3209227007026678
  8.5014880952474297  8.5653040388529060  5.7133157158415173
  9.9556957621067426 10.0076252853818151  7.1085099318723906
  8.5186534347298899  8.5662881120218071  8.5187478210695087
  9.9742546528492273  9.9915978366779701  9.9743682775301910
  2.6200926583406234 -0.0000006654057646  0.2228685537483760
  0.2228680432466894  0.0000006326020877  2.6200925920258089
