Fe Ru
 1.0000000000000000
    11.3873158854693202    0.0000000000000000    0.0000000000000000
     0.0000000000000000   11.4346940149438669    0.0000000000000000
     0.0000000000000000    0.0000000000000000   11.3873158837061812
 Fe  Ru 
 126   1
Cartesian
  0.0743389608460016 -0.0006318667994403  0.0000791199436704
  1.4596090799163575  1.4870128454201108  1.3876568339292163
  0.0197728213173680  0.0132942623998986  2.8269772593362141
  1.4313200682581142  1.4240316295636246  4.2625750532118314
  0.0065846463030019  0.0030773894333602  5.6936790264898827
  1.4313379463896141  1.4238571069445651  7.1248529084177319
  0.0198520794036182  0.0132941933721410  8.5602597006744787
  1.4591714756164498  1.4870134079910948 10.0000954560481219
 -0.0434211443174625  2.8757064577983797 -0.0003030108274969
  1.4653523725904578  4.2497648990928480  1.3812381769505864
  0.0016547269609878  2.8733885309783709  2.8451554513801098
  1.4132361109197926  4.2973069342931103  4.2752104400767239
  0.0076977438585590  2.8586453470768785  5.6936637681901905
  1.4132363958536989  4.2972373187355046  7.1121137273022077
  0.0016740492702672  2.8733881834380823  8.5421417445455852
  1.4655907790991003  4.2497644083960973 10.0058393794864653
  0.0059152248454782  5.7131062440119997 -0.0000463240822502
  1.4164191749993924  7.1511003773001418  1.4306521089792641
  0.0062777999393127  5.7063779042390372  2.8405345314584203
  1.4132559770274142  7.1416590929691317  4.2802847601291356
 -0.0003992587796596  5.7114855310864634  5.6936517234480588
  1.4132075932413659  7.1415637369586165  7.1069566044811303
  0.0062947375633056  5.7063781657946464  8.5467646283138610
  1.4161767473282951  7.1511003204442405  9.9569061309551739
  0.0000656028877940  8.5689376929105237  0.0000060111400778
  1.4108731758170843  9.9593383889535065  1.4358792326691519
 -0.0140235139452603  8.5637552973799416  2.8608046712569810
  1.4277515386099218 10.0052049472598590  4.2641367431158175
 -0.0029742972622249  8.5772185873738280  5.6935615548036580
  1.4278865519509818 10.0049355577721979  7.1230733416161147
 -0.0139755601342569  8.5637552784360196  8.5264634704476716
  1.4109491635202143  9.9593378317276056  9.9513597396835642
  4.2344854931862415  1.4870123261521278  1.3872197575827667
  2.8469084398186948 -0.0006318975812349  2.7724897068535288
  4.2623195585396108  1.4238569345693790  4.2624628182245878
  2.8468287718519565  0.0020530318349981  5.6936575937061704
  4.2623380232098880  1.4240318051658545  7.1247409624344877
  2.8467493923038476 -0.0006322331028454  8.6148259035969694
  4.2340495221718610  1.4870134894343130  9.9996584846866057
  4.2280671347348964  4.2497645868638170  1.3814764461871558
  2.8465260892672495  2.8757064354345561  2.8902498820017914
  4.2804213883908764  4.2972377771986379  4.2752025971225747
  2.8468288134499327  2.8643522674948665  5.6936579260872273
  4.2804219231797722  4.2973067517097876  7.1121054797014365
  2.8471316866743579  2.8757065453643746  8.4970656005808483
  4.2283053094287677  4.2497646687322925 10.0060777227885946
  2.8468286875228275  5.7704294888285945  0.0000001394745487
  4.2774810224285105  7.1511002013129499  1.4304097064916719
  2.8467823866063258  5.7131060105248679  2.8409137462075060
  4.2804501647673412  7.1415635961144828  4.2803594122244490
  2.8468290805979812  5.7110659320042583  5.6936580058901676
  4.2804020667397262  7.1416593169580151  7.1070312492391166
  2.8468754137322403  5.7131060503292552  8.5464020877670386
  4.2772389345035169  7.1511003276407319  9.9566639047579635
  2.8468288315528492  8.6485253958356978 -0.0000001692917040
  4.2827076739235173  9.9593388078836256  1.4359555019355426
  2.8468351716029856  8.5689375773585095  2.8467635389050368
  4.2657710259411106 10.0049357575742484  4.2642426901416099
  2.8468289350372133  8.5759191844621316  5.6936578535825975
  4.2659064986733473 10.0052046174141314  7.1231794357332623
  2.8468228374770708  8.5689375800696137  8.5405526532637985
  4.2827852417477725  9.9593378783717430  9.9514360883502313
  5.6193189872131297 -0.0006320316078577 -0.0000795927835421
  7.1094041264120316  1.4240321466783552  1.4155088365858337
  5.6738059849085642  0.0132944574524810  2.8270563428161757
  7.1191075652106210  1.4364715848032283  4.2723561363696350
  5.6870730560695302  0.0030772996357121  5.6936367910204346
  7.1191849990975973  1.4364716142943350  7.1150369076076583
  5.6738852892838336  0.0132944338798610  8.5603388001894842
  7.1092922761029502  1.4238573075862764  9.9718254850124470
  5.7370790842177470  2.8757063596974546  0.0003024297199161
  7.1220395880280112  4.2973069635622974  1.4335931200017327
  5.6919844597245826  2.8733887767022543  2.8451746258301345
  7.1192530836674388  4.2843705339853777  4.2724056416803471
  5.6859603121666327  2.8586452031960481  5.6936522394767897
  7.1192345817029787  4.2843705101042131  7.1148921283970958
  5.6920031892041552  2.8733883500934647  8.5421607797830177
  7.1220315641458605  4.2972376747249816  9.9537234608364411
  5.6877427529629712  5.7131061920356920  0.0000465380057773
  7.1271135618543626  7.1416590473415589  1.4335732939028065
  5.6873632289180138  5.7063779979907565  2.8405514021500480
  7.1185482526155068  7.1377571883264759  4.2717449398060170
  5.6940571374227806  5.7114853957817786  5.6936641208854146
  7.1185739073946044  7.1377572784867693  7.1155964993333258
  5.6873800147479310  5.7063776560704129  8.5467817988247567
  7.1271881782408579  7.1415631380019624  9.9536945942569641
  5.6935923205849379  8.5689372993611990 -0.0000062299092274
  7.1109659222462103 10.0052048028868512  1.4190777099956755
  5.7076335794706905  8.5637549274854425  2.8608524009978424
  7.1150170416697422 10.0101352108581469  4.2682284300996463
  5.6966321230265518  8.5772181271170069  5.6937546387208684
  7.1150575872853716 10.0101351436409374  7.1191277677144598
  5.7076812946622333  8.5637554726687295  8.5265113652773046
  7.1110719270082940 10.0049353148479145  9.9683736301022616
  8.5404866996118294  0.0020532588460246  0.0000001158368600
  9.9716816479337087  1.4238574862284850  1.4154906384092010
  8.5405080287277997  0.0030771258810461  2.8402441960084595
  9.9617887662725337  1.4364717134956881  4.2722788921192469
  8.5404867801766091  0.0047705793114878  5.6936579718907607
  9.9618659659819446  1.4364715835218211  7.1149598014588937
  8.5404657110787738  0.0030771217769560  8.5470714000093544
  9.9715698325849420  1.4240317727380929  9.9718073325101795
  8.5404871268805778  2.8643521402324605  0.0000000913525988
  9.9589422582222458  4.2972375733595438  1.4335926900067171
  8.5404922823177820  2.8586453461856949  2.8391312935200776
  9.9617392473714901  4.2843704389128341  4.2724238432049884
  8.5404867421256139  2.8534915723305843  5.6936578326338445
  9.9617212878165269  4.2843703281199570  7.1149103110032019
  8.5404812094647351  2.8586452882230504  8.5481847831722444
  9.9589345611867710  4.2973069145432756  9.9537229957302316
  8.5404871178439148  5.7110659201366261 -0.0000000425903609
  9.9537856085859602  7.1415637165642343  1.4336212465952372
  8.5404810334324228  5.7114856793647766  2.8472284368136265
  9.9624001642005560  7.1377570396517225  4.2717191628428894
  8.5404871161096665  5.7070545722450685  5.6936577598183318
  9.9624256537379594  7.1377571099825623  7.1155710845447944
  8.5404932432741383  5.7114853975286373  8.5400878542100127
  9.9538600164094486  7.1416591592901222  9.9537424560854468
  8.5404868353468260  8.5759194826258316  0.0000000608697652
  9.9699019419045776 10.0049354783728202  1.4189423821632483
  8.5403904641302084  8.5772184556447311  2.8498029699787217
  9.9659164040957648 10.0101351531372522  4.2681878968921927
  8.5404870224895877  8.5857878413260611  5.6936579959123446
  9.9659568260767326 10.0101351871857851  7.1190874390238044
  8.5405834221715455  8.5772183811548164  8.5375127909278223
  9.9700078562165686 10.0052047226688767  9.9682387353134807
  2.8468294392409761 -0.0570828625498380  0.0000023759537447
