Fe
 1.0000000000000000
    11.3709228306977810    0.0000000000000000    0.0000000000000000
     0.0000000000000000   11.3709228311913151    0.0000000000000000
     0.0000000000000000    0.0000000000000000   11.3709228328831475
 Fe 
 127
Cartesian
 -0.0019947513723075 -0.0015587398395433 -0.0019101263405969
  1.4213654129718607  1.3808635773037361  1.4213653544771381
 -0.0019101829254301 -0.0015588886394379  2.8447254099350001
  1.4213654135270104  1.4330100243824848  4.2524514859084883
  0.0007990196284101  0.0003010001604355  5.6852025558194335
  1.4213652424999355  1.4301195821059436  7.1068267241501655
  0.0007989899130683  0.0002588586078246  8.5284932088009935
  1.4213653782405848  1.4330098962008637  9.9612021407169600
  0.0531199390926066  2.8958507283815851  0.0531200123111616
  0.0531201075578397  2.8958506432471260  2.7896106312336335
  1.4213654841308749  4.2640959575382427  4.3045979876444296
 -0.0019946300006562  2.8408204953647460  5.6870203607275265
  1.4213653445929000  4.2640958545284695  7.1068267443984112
 -0.0019101055814802  2.8407359672315335  8.5266332277391736
  1.4213653932825925  4.2640961168878819  9.9090558620049283
  0.0531199141907642  5.6323412308804182  0.0531200560615829
  1.4213654301401200  7.1473287892438986  1.4213653018207479
  0.0531198220100633  5.6323413719062145  2.7896105202326957
  1.4213655647446781  7.0951822391302830  4.2524516423165384
 -0.0019100800410223  5.6874560725809928  5.6870202261081602
  1.4213654543472118  7.0980727540330744  7.1068268417015625
 -0.0019948123081366  5.6873715960688314  8.5266334425894694
  1.4213654728187042  7.0951821976795815  9.9612019666520641
 -0.0019100992406184  8.5297509941426046 -0.0019948060690003
  1.4213652841746254  9.9495573888598585  1.4213652890251256
 -0.0019947847741561  8.5297510050277285  2.8446409460928526
  1.4213652437083035  9.9495574602138177  4.2553419573276248
  0.0007990796025343  8.5279334861979361  5.6851603335501162
  1.4213654189210654  9.9495573931854331  7.1068266698494975
  0.0007990827727381  8.5278910728253301  8.5284508492690936
  1.4213653599316589  9.9495574155687461  9.9583117427282257
  4.2524514968415934  1.4330097484574038  1.4213654227002650
  2.8447254089735541 -0.0015586675109765  2.8446406479688018
  4.2462337504055769  1.4392276547080824  4.2462335347583702
  2.8419316622807389  0.0002586727421501  5.6851604382063172
  4.2593578392953422  1.4261037358495829  7.1068267281907591
  2.8419317492127818  0.0003009881843987  8.5284509003037030
  4.2462336435342136  1.4392276574390803  9.9674198676532377
  2.7896106539559709  2.8958506901608434  0.0531199052433507
  4.3045980683695824  4.2640961371205224  1.4213654442482104
  2.7896107023191248  2.8958507438606835  2.7896107318438710
  4.2524513786802594  4.2640962780516407  4.2524513624056155
  2.8446406823074279  2.8407359673782469  5.6870202419432223
  4.2553420162626798  4.2640959392769302  7.1068268017960516
  2.8447254822202495  2.8408205182095636  8.5266333382991402
  4.2524514693578483  4.2640961312999721  9.9612020473538596
  2.7896106341821829  5.6323413266197919  0.0531198562249870
  4.2524516439817006  7.0951821848075944  1.4213654509365061
  2.7896107657049707  5.6323413058231608  2.7896108035213927
  4.2462336942763423  7.0889644382526944  4.2462337138669888
  2.8447254031333173  5.6873715424255273  5.6870200563742896
  4.2593576773084045  7.1020884412779273  7.1068266697672726
  2.8446409507887185  5.6874561266307673  8.5266335028289930
  4.2462336541111299  7.0889643376242031  9.9674199373618624
  2.8447252316727116  8.5297509863835899 -0.0019102177837514
  4.2553419807500026  9.9495575099721112  1.4213653548972061
  2.8446408287633966  8.5297509347305507  2.8447253489994058
  4.2593578201523705  9.9495574717140514  4.2593576941318130
  2.8419317076299593  8.5278910936840049  5.6852027604518520
  4.2621381304311035  9.9495574434460341  7.1068267189888124
  2.8419315715475211  8.5279333073448882  8.5284930685999125
  4.2593577673242455  9.9495574609762443  9.9542958706173952
  5.6851604481122395  0.0002585472394685  0.0007990731672365
  7.1068267543850654  1.4301195122043375  1.4213653934416428
  5.6852026065698951  0.0003011619953983  2.8419316638911822
  7.1068267511159551  1.4261036031706054  4.2593575392988061
  5.6775692682143548  0.0078921085174987  5.6775692920937439
  7.1068266072772568  1.4233233762540838  7.1068268064489022
  5.6775694012709819  0.0078920878549570  8.5360841901228088
  7.1068267251196788  1.4261036867064849  9.9542958489790223
  5.6870202529108917  2.8407359238128249 -0.0019102019735963
  7.1068267745465521  4.2640960868581912  1.4213653124602952
  5.6870201762588541  2.8408204640586217  2.8447253257524316
  7.1068268161971906  4.2640961335285308  4.2553418877511078
  5.6851603090171476  2.8435296593607595  5.6852028578093359
  7.1068267759030288  4.2640959510405256  7.1068269411997473
  5.6852026953862005  2.8435297244377113  8.5284931554100112
  7.1068266607100510  4.2640959558066474  9.9583115898383294
  5.6870202769679450  5.6873716517183732 -0.0019945753766391
  7.1068267403053484  7.0980725238646230  1.4213652886653130
  5.6870201422421411  5.6874561686153546  2.8446407979486792
  7.1068268325289141  7.1020883649489885  4.2593577141132117
  5.6852027104345639  5.6846624244763024  5.6851603760145553
  7.1068268381729363  7.1048686294618166  7.1068267392759683
  5.6851604515083958  5.6846622797172088  8.5284509606040135
  7.1068267380850303  7.1020884263523110  9.9542959064967018
  5.6852026656848862  8.5278910877362879  0.0007990098370745
  7.1068266668357758  9.9495574602083146  1.4213651365908559
  5.6851603979073797  8.5279332685082565  2.8419316243560946
  7.1068267543914088  9.9495574784718475  4.2621381615033451
  5.6775692285475410  8.5203000486950025  5.6775692650920799
  7.1068267795444013  9.9495574886066169  7.1068267591136491
  5.6775692722681956  8.5203000843940284  8.5360843397510067
  7.1068267439375186  9.9495575144054520  9.9515155578101151
  8.5284507956626623  0.0003010163367040  0.0007990463120184
  9.9612018939218050  1.4330098911120439  1.4213653620292335
  8.5284931778371131  0.0002588969374972  2.8419318393471102
  9.9674198339304940  1.4392275737237366  4.2462335919899648
  8.5360843039918564  0.0078920865520286  5.6775692004389908
  9.9542959332300658  1.4261036563114837  7.1068267075450615
  8.5360841701046475  0.0078921394955103  8.5360842199239233
  9.9674198381261725  1.4392276018997736  9.9674199711120490
  8.5266331965560749  2.8408204053593482 -0.0019946391777329
  9.9090556582022131  4.2640962976340306  1.4213653947668956
  8.5266331608933399  2.8407358773386817  2.8446409612289405
  9.9612019238849214  4.2640960854908734  4.2524515370592084
  8.5284509459772533  2.8435298180806443  5.6851604106551754
  9.9583115863031448  4.2640960931290284  7.1068267917222387
  8.5284929970686374  2.8435298104937266  8.5284507832975844
  9.9612021287940546  4.2640962066374044  9.9612019650519557
  8.5266333687186471  5.6874561255626315 -0.0019100681439067
  9.9612019655455271  7.0951820030858714  1.4213654433316136
  8.5266333799446521  5.6873715655445709  2.8447253345849037
  9.9674197891818483  7.0889644674790260  4.2462337246987945
  8.5284931410127953  5.6846624466813065  5.6852026623761001
  9.9542957274613020  7.1020884590562110  7.1068267468203707
  8.5284508825752852  5.6846623552181628  8.5284930960466543
  9.9674198429832419  7.0889644254175499  9.9674198059723658
  8.5284931946316060  8.5279334267455251  0.0007989027162100
  9.9583117451230319  9.9495575381558066  1.4213653307770495
  8.5284509463017493  8.5278910017561138  2.8419318594972021
  9.9542958811819524  9.9495575206948654  4.2593577761373709
  8.5360843626208105  8.5202999452329280  5.6775692105629787
  9.9515154749540606  9.9495575479452736  7.1068266890218217
  8.5360843516406639  8.5202999673126953  8.5360842941849828
  9.9542958129629024  9.9495574544638519  9.9542959955785246
  2.8446408321564731 -0.0015588432154986 -0.0019946599796473
