Fe Ti
 1.0000000000000000
    11.3815513305742222    0.0000000000000000    0.0000000000000000
     0.0000000000000000   11.3822230860603728    0.0000000000000000
     0.0000000000000000    0.0000000000000000   11.3815513305506553
 Fe  Ti 
 126   2
Cartesian
  0.0261969269290584  0.0165042891726812  0.0001467623332095
  1.3480384040797058  1.4227778935505959  1.4973494820735860
 -0.0167995450182804 -0.0133769696479728  2.8622122183219889
  1.4284717541164724  1.4229517128312235  4.2578170203188526
 -0.0001376848283985 -0.0000260998849395  5.6907481716423085
  1.4284716836251738  1.4226041331602142  7.1237342543733098
 -0.0168244964152696 -0.0133770269585581  8.5193637040772305
  1.3480384059180883  1.4227778749498998  9.8842018941631586
  0.0261970077616673  2.8290513884520418 -0.0001468480530213
  1.3854671553643563  4.2989848309333958  1.4597505149357042
 -0.0168243603200215  2.8589327939390934  2.8621875462230713
  1.4272807394915881  4.2647599826172407  4.2611194005375772
 -0.0001377835425555  2.8455818116593004  5.6908032238091515
  1.4271974858795797  4.2646633974181185  7.1204120668416833
 -0.0167996449410740  2.8589327942805283  8.5193388294334866
  1.3856373201025147  4.2989849038840742  9.9216305496284871
  0.0106301671040089  5.6879645845166769 -0.0000070723554079
  1.4199635777633475  7.1138894110805682  1.4254241554022817
 -0.0254548895948888  5.7149267443421916  2.8708723892315620
  1.4269535245607099  7.1139252713501113  4.2704146035978230
 -0.0002424585760809  5.6898050637841990  5.6907634912610368
  1.4269535781162601  7.1138535420470275  7.1111367628739712
 -0.0254846444225219  5.7149266653157920  8.5107087007884772
  1.4199637704833594  7.1138893979668101  9.9561271217535019
  0.0106301858485464  8.5398142034185245  0.0000071789478690
  1.3856374321828642  9.9287941406955227  1.4599206340080428
 -0.0254845998126191  8.5128520069861615  2.8708426339053630
  1.4271976215767412  9.9631154553494916  4.2611394069414938
 -0.0002426143541484  8.5379737680945897  5.6907877611746498
  1.4272805308010350  9.9630188817158842  7.1204320075332088
 -0.0254550441237091  8.5128520338755944  8.5106788301086791
  1.3854673028035875  9.9287941862061491  9.9218009670418823
  4.3427372723829736  1.4227778885253510  1.4973493816673609
  2.8455348066920778  0.0165044318877160  2.8191909811700357
  4.2623039931921065  1.4226039930928838  4.2578170561209809
  2.8453879432379945  0.0007658596995090  5.6907757735828923
  4.2623039267663749  1.4229516974307248  7.1237342781235489
  2.8452410049991124  0.0165044441440865  8.5623603302139113
  4.3427374312979206  1.4227778398671551  9.8842018610584166
  4.3051383688454372  4.2989847968490524  1.4599208908054251
  2.8452409910123024  2.8290513792930021  2.8191909529569390
  4.2635781007071216  4.2646634881026619  4.2611393937383015
  2.8453878156185195  2.8447899424373815  5.6907757117837514
  4.2634950706916221  4.2647599583436246  7.1204319132457448
  2.8455346723346366  2.8290512623871074  8.5623604863053284
  4.3053086230279769  4.2989848665340951  9.9218009387204766
  2.8453878226381519  5.6990211105326525  0.0000000421536589
  4.2708120885342860  7.1138893871078652  1.4254242721502217
  2.8453805795851306  5.6879646181596559  2.8347575319972629
  4.2638219976646061  7.1138534084733385  4.2704145242166183
  2.8453878524720708  5.6872658718191191  5.6907756359303505
  4.2638221223511774  7.1139252978407992  7.1111368846043721
  2.8453949465943711  5.6879644777874052  8.5467936826021873
  4.2708118693392878  7.1138894875488141  9.9561270869896283
  2.8453879076614523  8.5287577654247517 -0.0000000195313868
  4.3053085343179029  9.9287942140472740  1.4597502305460279
  2.8453950796065959  8.5398143840893184  2.8347576029757366
  4.2634949636131321  9.9630188693649124  4.2611193001290957
  2.8453879936824942  8.5405130554577671  5.6907757457119059
  4.2635780912959707  9.9631154972858660  7.1204119578767635
  2.8453808046452234  8.5398142595292725  8.5467937676250099
  4.3051382686822190  9.9287940377251953  9.9216307177402427
  5.6645786639840061  0.0165045208150692 -0.0001468544099778
  7.1032048302956765  1.4229517007286829  1.4169161789297389
  5.7076000150533224 -0.0133770927896415  2.8621875599204034
  7.1169601538587246  1.4227779456685090  4.2715722125176576
  5.6909132679400196 -0.0000260617884311  5.6908032706546656
  7.1169602033366361  1.4227779156249034  7.1099791006535105
  5.7075753500301376 -0.0133769399524368  8.5193389020432200
  7.1032048310281048  1.4226041701892951  9.9646351384551153
  5.6645787627819280  2.8290513641217552  0.0001467488633921
  7.1065071860168629  4.2647598752697666  1.4181070923938022
  5.7075753074132320  2.8589328208596378  2.8622123827544739
  7.1184003671655809  4.2677157302810462  4.2730082130287839
  5.6909133155877214  2.8455816955870943  5.6907481082664626
  7.1183961811433942  4.2677157117923192  7.1085389187117558
  5.7076001178547529  2.8589327086605127  8.5193638800087008
  7.1065269995159248  4.2646635009728433  9.9633610694557042
  5.6801454091901924  5.6879645172498634  0.0000071747462934
  7.1158024015389314  7.1139252318237949  1.4184342525002587
  5.7162602623065668  5.7149267316932830  2.8708426823348203
  7.1212214514094363  7.1138894345764863  4.2758334953537522
  5.6910180903374448  5.6898050829636544  5.6907878163109551
  7.1212214345770048  7.1138894444827736  7.1057177992070164
  5.7162304221223899  5.7149268010015009  8.5106789488944248
  7.1158024100694091  7.1138535639351268  9.9631171442026556
  5.6801454249894121  8.5398142211755719 -0.0000070741602122
  7.1065271781416115  9.9631153463989630  1.4181902741705519
  5.7162305193819813  8.5128521075358972  2.8708725273578466
  7.1183963235283851  9.9600631181297548  4.2730125173485343
  5.6910181449680994  8.5379737680487651  5.6907636651228772
  7.1184003768259743  9.9600630794536436  7.1085429783827054
  5.7162602858264817  8.5128520914253070  8.5107085945832015
  7.1065073083770738  9.9630189389906185  9.9634441815636006
  8.5361634222527218  0.0007659032569858 -0.0000001990915397
  9.9691220441718063  1.4226039617272976  1.4169163393804807
  8.5361360383766627 -0.0000260698660577  2.8455255309224508
  9.9553668348642965  1.4227778963288256  4.2715721693519475
  8.5361636157196905 -0.0022993328163310  5.6907756705454684
  9.9553668776512456  1.4227779049807232  7.1099791206418486
  8.5361908830439219 -0.0000259986264939  8.5360258741452597
  9.9691220857067293  1.4229517089572075  9.9646352019474094
  8.5361634443009216  2.8447900531003301  0.0000000080869059
  9.9657997920607571  4.2646635310364651  1.4181902703777427
  8.5361910084615804  2.8455817175802460  2.8455255889020066
  9.9539308942604805  4.2677157503810417  4.2730124695513503
  8.5361634342752648  2.8478550374387854  5.6907757359297921
  9.9539266628820560  4.2677157869598643  7.1085428964293422
  8.5361359613767647  2.8455817918114752  8.5360259079159899
  9.9658199507051997  4.2647597649262350  9.9634442623769228
  8.5361635005804377  5.6872658516116257 -0.0000000695524090
  9.9565248440838179  7.1138534845808019  1.4184343948213305
  8.5361515684806868  5.6898052262806100  2.8456303220848773
  9.9511056903687294  7.1138894025748369  4.2758335398498195
  8.5361634779003506  5.6874801852459065  5.6907756722468772
  9.9511056778551286  7.1138894458742330  7.1057177284825057
  8.5361754342635585  5.6898053087248535  8.5359210679282072
  9.9565246515127654  7.1139252326224476  9.9631169800118009
  8.5361634479085158  8.5405131460719588 -0.0000002554594936
  9.9658197696766138  9.9630188744677195  1.4181071392627884
  8.5361753040126480  8.5379736193078131  2.8456303339018247
  9.9539265954120264  9.9600631650633176  4.2730082804857838
  8.5361634867520326  8.5402985158250715  5.6907756909398346
  9.9539308646055744  9.9600630946103070  7.1085389360216631
  8.5361514208960205  8.5379736962433377  8.5359210445545077
  9.9657997484894967  9.9631153444136586  9.9633610659818643
  2.8453877576865474 -0.0731685525048113 -0.0000000525763439
  2.8453877710084905  2.9187241372715635 -0.0000000595187649
