Fe Nb
 1.0000000000000000
    11.4024411752537898    0.0000000000000000    0.0000000000000000
     0.0000000000000000   11.4054551261252328    0.0000000000000000
     0.0000000000000000    0.0000000000000000   11.4024411712622449
 Fe  Nb 
 126   2
Cartesian
  0.0117152279568768  0.0073279457798148  0.0002776894643158
  1.3114383965122014  1.4256818840188028  1.5391718908632266
 -0.0074476184004822 -0.0048673933849576  2.8582552274799848
  1.4298766260737705  1.4258648119728230  4.2624096510767364
 -0.0024272134291150  0.0013722124909028  5.7012259124832934
  1.4298767128844807  1.4254989917419083  7.1400316684248075
 -0.0076449778079749 -0.0048674235762927  8.5443832653380749
  1.3114384281079086  1.4256818788614452  9.8632693286637512
  0.0117151290950324  2.8440357739231672 -0.0002775751283066
  1.3453015125542653  4.3389280120484708  1.5053513043451543
 -0.0076449529563292  2.8562312172011244  2.8580580919627825
  1.4233479427401328  4.2740072748895255  4.2639863846919557
 -0.0024273222444132  2.8499916388998603  5.7012152794833861
  1.4233108584760845  4.2739572396429164  7.1384159773067113
 -0.0074475753552270  2.8562309461951649  8.5441860454935732
  1.3452589842273992  4.3389279454597052  9.8971322246765130
  0.0146051679425968  5.6942411663482835  0.0000063943013494
  1.4279595098610205  7.1284096257303959  1.4226508236526223
 -0.0255170548345464  5.7262453391913892  2.8761206797913914
  1.4262928995979756  7.1284193497915007  4.2760699891544691
 -0.0022241964283623  5.7061490754905284  5.7011869679975238
  1.4262926203320407  7.1283994839746985  7.1263711488148527
 -0.0255102770455463  5.7262453331629493  8.5263139190337398
  1.4279594317197482  7.1284095205108251  9.9797903640953205
  0.0146050420945484  8.5625775102459230 -0.0000063274630280
  1.3452589570527693  9.9178908573812503  1.5053088577636053
 -0.0255101467815136  8.5305736626841160  2.8761272263918740
  1.4233108132715770  9.9828618114730858  4.2640253206826495
 -0.0022242038930753  8.5506698608278562  5.7012541623043900
  1.4233481425414167  9.9828115002544209  7.1384548712800306
 -0.0255167520489981  8.5305736292153025  8.5263204780641040
  1.3453013276877557  9.9178910271179976  9.8970899137196682
  4.3897822017529897  1.4256819086847841  1.5391718904728313
  2.8508878138316120  0.0073279028967067  2.8388949356738733
  4.2713439261445094  1.4254990574489366  4.2624097271809154
  2.8506102313581430 -0.0014325754845711  5.7012205720086584
  4.2713439640701854  1.4258649296393142  7.1400314691584317
  2.8503325282791647  0.0073280188673924  8.5635459863331018
  4.3897821901162581  1.4256820013112579  9.8632690882234471
  4.3559615302201209  4.3389278449361184  1.5053087155406888
  2.8503325851060053  2.8440358591271635  2.8388951132068074
  4.2779098960716819  4.2739571269995311  4.2640253304501572
  2.8506102725271978  2.8527963819453341  5.7012206590680243
  4.2778725813012306  4.2740073897435771  7.1384547571143031
  2.8508878699545015  2.8440359496223913  8.5635461851619787
  4.3559191521421088  4.3389279100326119  9.8970898370622624
  2.8506103151480451  5.7282860144658372  0.0000001291804856
  4.2732610173109187  7.1284093485611244  1.4226508149089465
  2.8506167173906869  5.6942414045562408  2.8360052572489578
  4.2749279222944514  7.1283996934110210  4.2760700244941265
  2.8506102835676921  5.7010611454539806  5.7012206741070104
  4.2749276780540946  7.1284193594480065  7.1263710587320759
  2.8506036577052694  5.6942412352178318  8.5664359815426590
  4.2732610702683917  7.1284094885300213  9.9797905961439124
  2.8506103073676776  8.5285327274645581  0.0000000718250276
  4.3559192309796737  9.9178910788236063  1.5053512841072809
  2.8506036730964390  8.5625776211335829  2.8360052591979064
  4.2778727315082001  9.9828115269137108  4.2639863146247032
  2.8506103582487965  8.5557579032651727  5.7012206701135160
  4.2779097572677323  9.9828617577074823  7.1384158870990175
  2.8506166971188871  8.5625777971503680  8.5664359858749854
  4.3559617807145052  9.9178908430749928  9.8971324352232166
  5.6895054294492917  0.0073280092535005 -0.0002775617704316
  7.1130201427671356  1.4258645893066670  1.4207337160747708
  5.7088655022275141 -0.0048674529713414  2.8580579578281617
  7.1260244121370926  1.4256819641899459  4.2754141904520919
  5.7036477336008451  0.0013722481121341  5.7012153405609798
  7.1260243658240361  1.4256818554605755  7.1270270443361348
  5.7086682725182616 -0.0048675590569629  8.5441859154540492
  7.1130199430082435  1.4254990750430871  9.9817073720481559
  5.6895053446011064  2.8440358563564159  0.0002775796681443
  7.1145967330461657  4.2740073791408095  1.4272622529880030
  5.7086681846401470  2.8562311896014791  2.8582553224545300
  7.1298321636255642  4.2793542908068307  4.2792765015032215
  5.7036477905725489  2.8499915448331614  5.7012258040452899
  7.1298869552996349  4.2793540687784368  7.1232191996130405
  5.7088655745572678  2.8562310924962393  8.5443832551653074
  7.1146356273913538  4.2739572158644092  9.9751417946047720
  5.6866154304641894  5.6942412071654349 -0.0000064763962522
  7.1266802920351644  7.1284193761255308  1.4243175098728891
  5.7267309319297546  5.7262454489318788  2.8761272487397349
  7.1447352179795240  7.1284095375037539  4.2941247858703244
  5.7034448432703853  5.7061490380188333  5.7012540989057561
  7.1447351577563838  7.1284094648393745  7.1083161334249514
  5.7267373849235836  5.7262453016435391  8.5263206866187371
  7.1266805261169219  7.1283996337397326  9.9781236624416998
  5.6866154585973305  8.5625775075421071  0.0000065190148730
  7.1146355549744733  9.9828616769974925  1.4272994271732040
  5.7267374884837237  8.5305735522155626  2.8761204901201434
  7.1298869279801931  9.9774647241051539  4.2792218963902453
  5.7034447591133866  8.5506697425009612  5.7011872080337067
  7.1298321456396163  9.9774647647228729  7.1231646735254177
  5.7267309313633605  8.5305735556502107  8.5263140076820783
  7.1145968164398319  9.9828115672771212  9.9751789400853639
  8.5518308205104638 -0.0014326989424857  0.0000001516875600
  9.9906418845400093  1.4254990571811426  1.4207336720566912
  8.5518360694910172  0.0013722706132745  2.8530374424321909
  9.9776373322565988  1.4256819292244434  4.2754141708015077
  8.5518307827872171 -0.0023289249143969  5.7012207025562827
  9.9776373322345595  1.4256818369363982  7.1270270318617701
  8.5518257354167133  0.0013721415997372  8.5494036533382154
  9.9906418449208036  1.4258648605235427  9.9817075947401950
  8.5518306753718711  2.8527965227343315  0.0000000546664776
  9.9890259666659613  4.2739573406810010  1.4272994484881503
  8.5518257073997184  2.8499916407934611  2.8530375522176850
  9.9737749825882869  4.2793541883790835  4.2792217797642413
  8.5518308259795042  2.8536928436880209  5.7012205469070905
  9.9738295254598395  4.2793542318273667  7.1231644004913122
  8.5518360329132772  2.8499915528648558  8.5494037052195626
  9.9890650436566730  4.2740073981197995  9.9751790190430558
  8.5518310476520654  5.7010609908016532 -0.0000000493542695
  9.9769812267345994  7.1283997048992971  1.4243175045660150
  8.5517974038535538  5.7061489469599067  2.8528344770293366
  9.9589266060150177  7.1284094210552862  4.2941251251202956
  8.5518309880990948  5.6923657003682351  5.7012206300926920
  9.9589265952622927  7.1284093258176977  7.1083162596347780
  8.5518643703754407  5.7061489630097810  8.5496067170420211
  9.9769811852636696  7.1284193429111076  9.9781235209686336
  8.5518308332508575  8.5557579510762505 -0.0000001014020763
  9.9890651392496572  9.9828114278902085  1.4272621322660097
  8.5518644318815173  8.5506699044406993  2.8528343867962502
  9.9738295595003859  9.9774648704138471  4.2792767559353084
  8.5518309269703181  8.5644532193297334  5.7012205593384540
  9.9737748367345187  9.9774645854661692  7.1232191282366628
  8.5517974545462128  8.5506698035424193  8.5496066768864640
  9.9890260023820403  9.9828616580417613  9.9751415827356880
  2.8506103424548428 -0.1514609531220028 -0.0000003402465884
  2.8506104042837110  3.0028245871670087 -0.0000000284869628
