Fe Pt
 1.0000000000000000
    11.4057096733494490    0.0000000000000000    0.0000000000000000
     0.0000000000000000   11.4199192535820071    0.0000000000000000
     0.0000000000000000    0.0000000000000000   11.4057096862724041
 Fe  Pt 
 126   1
Cartesian
  0.0195003630947093  0.0053337065505746 -0.0000068625678201
  1.4466376762494124  1.4957200924381560  1.4048693871795284
  0.0011736920725604  0.0140059381768586  2.8501448854141942
  1.4201624621476663  1.4309109782027674  4.2772337577470916
  0.0043070893447851  0.0014631328082897  5.7027912732893116
  1.4200565799682423  1.4306952285371040  7.1284290007800371
  0.0012824535696599  0.0140057098969522  8.5554559871821567
  1.4465577809296450  1.4957201301488261 10.0009197703990473
 -0.0545056413873812  2.8718105571950701 -0.0001126936757607
  1.4651823005276234  4.2396416041686074  1.3860014072042852
 -0.0121596080659707  2.8798084361740157  2.8636085984812096
  1.4164050652220614  4.2949531489526702  4.2854853772782695
  0.0002849769669187  2.8620393884351505  5.7027942827216114
  1.4163717346933060  4.2949552567576363  7.1202524742288160
 -0.0121813332199950  2.8798083942597748  8.5421228065036541
  1.4654258875052051  4.2396414212525482 10.0194645957187412
  0.0090662722584224  5.7024531475441123  0.0000571033714532
  1.4167553253354908  7.1442151154809963  1.4349921100847181
  0.0063949030365765  5.6977214976400177  2.8450115167203638
  1.4179661820401184  7.1282315239856340  4.2895425811729089
  0.0026174688854554  5.7062427836083165  5.7028043494233982
  1.4179125619133819  7.1282678575743414  7.1159503474511139
  0.0064158804022930  5.6977215108332269  8.5606770856741967
  1.4164355311937917  7.1442148779391417  9.9710375466408401
 -0.0092180458765003  8.5536123766683403  0.0000244348055499
  1.3928931172657992  9.9515824929397390  1.4582736564520054
 -0.0257885630547010  8.5413658262974774  2.8771951532724849
  1.4209568473874583  9.9857942558982611  4.2746226346583915
 -0.0068402486682067  8.5589088924694305  5.7027641234732434
  1.4211226155449093  9.9855506373423726  7.1309453012770740
 -0.0257677833851589  8.5413658603016920  8.5284936951620836
  1.3931536377168205  9.9515822346055707  9.9471752521525030
  4.2562970164132503  1.4957203643106443  1.4047898882993763
  2.8514204482859844  0.0053338118310129  2.8319269671645739
  4.2827981267030770  1.4306953148134109  4.2772807633004222
  2.8514274465788660  0.0015963421627336  5.7028549267804598
  4.2826923543377893  1.4309108675977651  7.1284757954240874
  2.8514343079475846  0.0053340142785835  8.5737824974773833
  4.2562174658756566  1.4957203938692758 10.0008400603456398
  4.2374288366437280  4.2396414057021925  1.3862449709669455
  2.8513147590921726  2.8718104597476102  2.9059329344489044
  4.2864831763603819  4.2949553634043012  4.2854570540853061
  2.8514274867225478  2.8602420262737396  5.7028548244056196
  4.2864499844900008  4.2949533001186797  7.1202240787578299
  2.8515400152482933  2.8718106016802776  8.4997768080646576
  4.2376725634037378  4.2396414051131632 10.0197082962859749
  2.8514273414218136  5.7642927890968245  0.0000000975959654
  4.2864194368162698  7.1442151259608959  1.4346719688185794
  2.8514846340524893  5.7024530676609677  2.8423610986325700
  4.2849425990534620  7.1282676369621383  4.2897596216838210
  2.8514275614681868  5.7024936059428306  5.7028548206102805
  4.2848889570436928  7.1282315040248392  7.1161670307930587
  2.8513702626746040  5.7024531274472352  8.5633483298325501
  4.2860993553800721  7.1442150874828867  9.9707176647429154
  2.8514274228098717  8.6069388372830158 -0.0000000139800978
  4.3097011118792494  9.9515823463257291  1.4585343545933545
  2.8514517880443844  8.5536124699914442  2.8606452723551068
  4.2817320608581566  9.9855510025787257  4.2747643217018929
  2.8514274075680421  8.5656816006824101  5.7028547210021916
  4.2818975677808133  9.9857939126919373  7.1310870799354520
  2.8514029968585111  8.5536126800593326  8.5450640811032645
  4.3099618570029516  9.9515822842865731  9.9474358761758328
  5.6833545520869571  0.0053337547166039  0.0000068659469450
  7.1286613592325478  1.4309109190378104  1.4312649923740244
  5.7015722724876365  0.0140058438186214  2.8502536309915318
  7.1388209286717359  1.4351363817076508  4.2875189646890037
  5.6985473498776704  0.0014629573279294  5.7029182255829447
  7.1389464404166647  1.4351365648461780  7.1183164056006056
  5.7016810149935973  0.0140057774280992  8.5555646179387121
  7.1287083358545544  1.4306954511949321  9.9743387567276791
  5.7573602508030621  2.8718105522352717  0.0001128220748260
  7.1369130484523202  4.2949531693047529  1.4350224715786017
  5.7150361532001837  2.8798085333574814  2.8635867559012027
  7.1366263000284080  4.2911480760306890  4.2851840227845708
  5.7025699793751565  2.8620394915711129  5.7029154767067167
  7.1366118833330248  4.2911483941092232  7.1205108971033289
  5.7150142744433214  2.8798083315602376  8.5421010393514152
  7.1368845704303814  4.2949553134062111  9.9706537919710243
  5.6937885984639420  5.7024530537593217 -0.0000572359140460
  7.1409701148355378  7.1282316042113827  1.4334615780746374
  5.6964388194954489  5.6977214980536308  2.8450325408192025
  7.1366115432056247  7.1191163861808304  4.2852120857110760
  5.7002374014582342  5.7062427608484745  5.7029052756404983
  7.1366395884726135  7.1191162345259587  7.1205256343778824
  5.6964599475457192  5.6977214137686092  8.5606982201394644
  7.1411868976204218  7.1282677603516795  9.9721947377258680
  5.7120728127752631  8.5536126954493614 -0.0000244229900143
  7.1260500913810807  9.9857939939242311  1.4304703504229783
  5.7286225649315359  8.5413658975619597  2.8772162349906969
  7.1338719304716260  9.9935921946606783  4.2824446750509848
  5.7096949957607572  8.5589089770818898  5.7029456383013928
  7.1338719728008817  9.9935921884155370  7.1232651869657042
  5.7286433633761344  8.5413658164035606  8.5285145830110096
  7.1261919477402982  9.9855509092690244  9.9754049805798246
  8.5542818856446345  0.0015961731901707  0.0000001246415936
  9.9798564052453713  1.4306952468068186  1.4313706622206923
  8.5542186879646316  0.0014630514596269  2.8471203115550030
  9.9696183875810647  1.4351363892436144  4.2873934183310016
  8.5542821889389220  0.0034229403976073  5.7028548313115861
  9.9697437052060671  1.4351363211866073  7.1181905634333846
  8.5543456891700735  0.0014630379965836  8.5585894810448639
  9.9799032599348720  1.4309107931361142  9.9744447535199185
  8.5542821935983611  2.8602420077553310  0.0000001304175318
  9.9716801864685713  4.2949553186695582  1.4350559123658964
  8.5542216382527698  2.8620394979736914  2.8511423930281876
  9.9719530083770067  4.2911481567384104  4.2851991159007916
  8.5542820623100226  2.8566874830094049  5.7028549144628027
  9.9719383149531104  4.2911481591216827  7.1205254609774569
  8.5543430067665920  2.8620395136514749  8.5545672301411368
  9.9716514514855952  4.2949532292841450  9.9706871072493506
  8.5542822824934390  5.7024935489222948 -0.0000000497586610
  9.9673776574606237  7.1282677996756814  1.4335148670246924
  8.5542319498150992  5.7062428021999834  2.8488100731856605
  9.9719247601257166  7.1191161220648462  4.2851840435056889
  8.5542820920153648  5.7018144087437719  5.7028546544261065
  9.9719529687846169  7.1191160356654652  7.1204977443256920
  8.5543327409426499  5.7062430497576191  8.5568997495148214
  9.9675944817131814  7.1282317461340110  9.9722482486310060
  8.5542822340056333  8.5656816243649878 -0.0000002198519159
  9.9823724336899229  9.9855510531182805  1.4303047864070770
  8.5541914427823009  8.5589089012412334  2.8582677044761655
  9.9746926935811384  9.9935922370152372  4.2824443958223286
  8.5542822098429703  8.5663747966617816  5.7028549051024733
  9.9746928638223107  9.9935922273745188  7.1232650930795991
  8.5543732177832119  8.5589090156988821  8.5474420875069388
  9.9825147251265065  9.9857941062315518  9.9752393708571763
  2.8514272432816168 -0.0761688321370345  0.0000002010661715
