Fe Ag
 1.0000000000000000
    11.3980344060845873    0.0000000000000000    0.0000000000000000
     0.0000000000000000   11.3987333148363845    0.0000000000000000
     0.0000000000000000    0.0000000000000000   11.3980344056662837
 Fe  Ag 
 126   1
Cartesian
 -0.0067286241149842  0.0001371470899434 -0.0133199552776205
  1.3302549281706102  1.4026316882759713  1.5196938251355794
  1.3762120649974898  1.3883554784039449  4.2381443003725190
 -0.0068894984073977 -0.0000590004194820  5.7360820485094246
  1.4151776428613476  1.4373854076519912  7.1258458743624749
 -0.0284850462449082 -0.0000337846283350  8.5221120621400406
  1.3880222199438517  1.4673869238721802  9.9342857777440798
 -0.0290758058739729  2.8715970545174190  0.0141108986178498
  1.4182124757478378  4.2748610144009929  1.4314129456320073
 -0.0279777662763325  2.9197231693303323  2.8774431046784761
  1.4188405805369428  4.2888306574893216  4.2927431263755782
 -0.0121139268829277  2.8469846535775134  5.6867526807952569
  1.4141926114406078  4.2874400607880458  7.1098456331555973
 -0.0318830336178200  2.8725869407806583  8.5207012278591598
  1.4113214355398411  4.2761741539645746  9.9637615528366936
 -0.0121218922784540  5.6993390796719154  0.0099225109347824
  1.4180956016288611  7.1238723127948687  1.4312961248266360
 -0.0082047649988457  5.6993666087594992  2.8577132883071199
  1.4188669820465283  7.1097518884830748  4.2926315392545353
  0.0015996371810504  5.6993208172404408  5.6924693542962803
  1.4141220359969433  7.1113248272909928  7.1097405554849420
 -0.0114778297537111  5.6994058759332580  8.5388819754252800
  1.4113018439546758  7.1225793497826437  9.9637921669091689
 -0.0291577447967945  8.5271784280227045  0.0141178253137979
  1.3298148102355647  9.9961014716677692  1.5192536417470330
 -0.0279345405008725  8.4790101690065462  2.8774862915990322
  1.3762131826879238 10.0105014890625785  4.2379894594840160
 -0.0120618480081350  8.5518100308754654  5.6867317406389803
  1.4151657291529927  9.9610285557165223  7.1259096474586334
 -0.0319996387017453  8.5261326353290503  8.5207496413023200
  1.3881206099687344  9.9313539908955502  9.9342669681944553
  4.3132759393676059  1.4673794096360220  1.4613879677596993
  2.8628284888136895 -0.0001371289605005  2.8562372499194173
  4.2809476159463484  1.4349095864498043  4.2719598314202845
  2.8406481175025906 -0.0000201590526552  5.6956876189735954
  4.2834477225086260  1.4344929694266293  7.1249172718437288
  2.8463435040635394 -0.0000199783468500  8.5481851992566309
  4.3077330208594322  1.4623916748624028  9.9398766069136233
  2.8361120800813580  2.8415953594494003  0.0135086734951216
  4.2837508037233105  4.2761539856931483  1.4382067619050127
  2.8353908617339205  2.8715548271193447  2.8786663526114133
  4.2814481823680959  4.2873683005818268  4.2890520085356556
  2.8364627709091295  2.8468338622063865  5.6884939424258558
  4.2769147668117791  4.2828602380570677  7.1040987387051624
  2.8454848934182477  2.8777101148366095  8.5206276935264942
  4.2816964444671930  4.2734350601201898  9.9658579412928088
  2.8479145718165304  5.6993666277911172  0.0015940254491906
  4.2837814777742214  7.1225591864082620  1.4381871832033195
  2.8395862176641025  5.6993941355729465  2.8616303760246757
  4.2815266880325238  7.1114487731467957  4.2890238139016761
  2.8452919143219568  5.6994248907868386  5.6966210027872011
  4.2769626351632830  7.1158341228049027  7.1040829261112215
  2.8448715036792578  5.6993749313371147  8.5383108825778766
  4.2816850460862348  7.1252983172454254  9.9658465209959655
  2.8359998989725272  8.5571380029744510  0.0133966036291290
  4.3132572728031180  9.9313464132925802  1.4614863597900316
  2.8353977680706492  8.5271362981523282  2.8785844140695795
  4.2809798564111929  9.9639448572677942  4.2719927934990292
  2.8364090816766083  8.5518950402815168  5.6883900122158426
  4.2834394750234663  9.9642144325370925  7.1249632065539616
  2.8454877401048115  8.5209349356391098  8.5205868997210583
  4.3076663622921467  9.9363417464020269  9.9398100246202556
  5.6993578417798050  0.0000200057694233  0.0031651410033814
  7.1216333670570702  1.4377047853960194  1.4343428863849557
  5.7254308899480222  0.0000337600102762  2.8779936597772418
  7.1347801570879961  1.4331689258288758  4.2887087052777293
  5.7059396671449019 -0.0000182016845620  5.6917572571413100
  7.1404506948989832  1.4285526193084821  7.1072280028812465
  5.7274182098674418  0.0000000304223354  8.5201247689129129
  7.1225798275913785  1.4345189908433111  9.9641035217523140
  5.7269561315140560  2.8777984171461526  0.0040208337586760
  7.1378024583692401  4.2874085327359470  1.4353865721175363
  5.7267933310383476  2.8726007147485957  2.8815082887795085
  7.1385581814973262  4.2867847007846294  4.2884123019257698
  5.7057101162975536  2.8510598825046944  5.6945141558400785
  7.1478403749461563  4.2748524952465070  7.0997352816935688
  5.7292397260675321  2.8753005588788989  8.5182937688753437
  7.1434600577527458  4.2828992585214003  9.9705803890099585
  5.7092321465109155  5.6993583682880447  0.0046371378393792
  7.1376973750555068  7.1112932492467040  1.4353160417009130
  5.7086610449134101  5.6993275331700151  2.8609864185894835
  7.1385544979569682  7.1118822593568884  4.2884261261479431
  5.6998342559656621  5.6993523695105006  5.6973136120728993
  7.1478076672296611  7.1238809069473179  7.0997026065883055
  5.7135913010922845  5.6993666546403716  8.5339516831844850
  7.1434443551756974  7.1158731682534118  9.9706281736770208
  5.7269152628488245  8.5210232261201373  0.0040236849323592
  7.1216970240468891  9.9613478027596170  1.4343309674082563
  5.7268417810247323  8.5261464038864450  2.8813916781042250
  7.1347597967306129  9.9655234587196801  4.2886026136563711
  5.7057096845511266  8.5476348353747333  5.6944840750602497
  7.1403150087749463  9.9701806123928449  7.1070922741734659
  5.7292493094705259  8.5234327709146278  8.5183031891851044
  7.1226257214856998  9.9642402531913277  9.9640953152247143
  8.5518553221506988  0.0000201736242217  0.0088604647819665
 10.0095535171347798  1.3882317846455490  1.4732953795402242
  8.5114609187600472  0.0000589896523874  2.8563981557242979
 10.0273516116384656  1.3730032620999784  4.2203012550217860
  8.5662843639069024 -0.0000000242157776  5.6812585315061179
  9.9589404019219607  1.4332097894950435  7.1127831694598829
  8.5557857582038004  0.0000182536683352  8.5416033122523221
  9.9755501946674947  1.4347885231722057  9.9665631848475194
  8.5591529679730041  2.8468382571499586  0.0130994591027651
  9.9549114954824294  4.2889813281504914  1.4306415698863357
  8.5608112002717824  2.8469232871571148  2.8615704608791535
  9.9577933338764453  4.2929433969830502  4.2896911472099530
  8.5707493512345714  2.8239718926662225  5.6768195129349133
  9.9591170198274952  4.2868509619722026  7.1089885092738632
  8.5530589265753463  2.8510985534905844  8.5418334490084415
  9.9585191947623777  4.2872844109755137  9.9660163734406275
  8.5509220758885096  5.6993083685176975  0.0042167420392709
  9.9547998406486986  7.1099027105369972  1.4306679703177321
  8.5550737145477136  5.6994125103278650  2.8479089463173342
  9.9578518941483889  7.1057899242312601  4.2897498088567891
  8.5529902554256125  5.6993666356238926  5.6945527659591813
  9.9591307528870505  7.1119486109089101  7.1089847968602369
  8.5502292751115494  5.6993809365295540  8.5477087258663911
  9.9584908748762029  7.1113650184821671  9.9660947963684023
  8.5590490563268204  8.5518994484291895  0.0130457807315904
 10.0093987994800919 10.0103778274895685  1.4732964296046180
  8.5607903273107429  8.5517486447621067  2.8616224507129755
 10.0272416874441888 10.0257300671726597  4.2201913739318533
  8.5707235105763271  8.5747614679725075  5.6767937202097372
  9.9588343304864750  9.9655643913974092  7.1127628658847124
  8.5530288279656350  8.5476734252746436  8.5418328742757996
  9.9755831721558437  9.9638237196328330  9.9665955322274407
  2.8418402063343891 -0.0000000118810950  0.0076682667893816
