Fe
 1.0000000000000000
    11.3709228605337440    0.0000000000000000    0.0000000000000000
     0.0000000000000000   11.3709228604256367    0.0000000000000000
     0.0000000000000000    0.0000000000000000   11.3709228619510672
 Fe 
 127
Cartesian
  0.0000000029903970 -0.0000000466257115 -0.0405020661468154
  1.3682451433291423  1.3682454770373309  1.4744852837565299
  1.3682453221350555  1.3682453897956528  4.2109760772968041
  0.0000001126352353 -0.0000000535346501  5.7259632692400215
  1.4233600127749406  1.4232754565716621  7.1083855397704196
 -0.0000001335462863  0.0000000344248125  8.5281922468321216
  1.4232753934061788  1.4233602021264320  9.9479986857342659
  0.0000000121535107  2.8310861167063623  0.0116447852981801
  1.4233599739336582  4.2656548456112882  1.4194552317043643
 -0.0000000639637137  2.8832325383692012  2.8427305382214789
  1.4232756652038017  4.2656548512038475  4.2660907155598959
 -0.0000000579519461  2.8310861728707670  5.6738166913425401
  1.4205664799338560  4.2637951802368619  7.1065681196391255
 -0.0000000514015824  2.8339764366933520  8.5281922250194828
  1.4205662945025506  4.2638373421444484  9.9498584344967824
  0.0000000429169613  5.6854614863533319  0.0087541888446527
  1.4232754886573051  7.1052679638411576  1.4193706495946992
  0.0000000331975630  5.6854614635994309  2.8427306988148509
  1.4233601702293099  7.1052680601108777  4.2660062216902608
  0.0000000365155759  5.6854614526449838  5.6767073242224955
  1.4205663562417890  7.1070854053277008  7.1065257958763626
  0.0000000816931101  5.6854615601738638  8.5281921623585788
  1.4205663909400468  7.1071277112517386  9.9498161292110083
 -0.0000000206838865  8.5398367450293033  0.0116447342987019
  1.3682453114891933 10.0026774058681163  1.4744853076967419
 -0.0000000590249818  8.4876902536157157  2.8427307213875821
  1.3682452513167986 10.0026774899984225  4.2109760975501764
  0.0000000721629150  8.5398368095818054  5.6738168352845584
  1.4232754651030972  9.9475628675614463  7.1083855770959801
 -0.0000001052818739  8.5369462617180112  8.5281921085883248
  1.4233599894887152  9.9476473912244128  9.9479986285412121
  4.2656548740656115  1.4232754822760789  1.4193706425239097
  2.8832329343953207 -0.0000000440814415  2.8427306631945206
  4.2656547113559222  1.4233600553604568  4.2660062120228437
  2.8310861308842492 -0.0000000100991053  5.6738169269408232
  4.2638374278982756  1.4205660926735821  7.1065258500544521
  2.8339765454769936  0.0000000751696212  8.5281921655624267
  4.2637951557893476  1.4205661452408485  9.9498162246496502
  2.8248683451306360  2.8248683771262590  0.0178624464707216
  4.2638373936002898  4.2637949922408991  1.4221643925327718
  2.8310861150533073  2.8310862610465994  2.8427307024075494
  4.2637949935564210  4.2638371684393332  4.2632969831064900
  2.8248682884280920  2.8248684714461092  5.6675989654461594
  4.2562038426632851  4.2562040184968213  7.0989346283207544
  2.8379922404498816  2.8379924104098637  8.5281920694426745
  4.2562039200392823  4.2562040443178004  9.9574497103976896
  2.8379924889656332  5.6854615410715317  0.0047382229912228
  4.2637950197377670  7.1070856291202968  1.4221642624886999
  2.8339765058257065  5.6854613359798352  2.8427308511996516
  4.2638372624028822  7.1071278754857623  4.2632971580234731
  2.8379923395387294  5.6854613631609920  5.6807230653750080
  4.2562039774889868  7.1147188655023381  7.0989347083900505
  2.8407726815786631  5.6854613958454907  8.5281921909087686
  4.2562039075297413  7.1147188163076667  9.9574496862135646
  2.8248684231264876  8.5460544373054770  0.0178624978394593
  4.2656549372545021  9.9475627296263784  1.4194552752334926
  2.8310861700976320  8.5398367505633281  2.8427307039779546
  4.2656550112199021  9.9476474005523325  4.2660906655477140
  2.8248683115834354  8.5460544227077069  5.6675990766134330
  4.2637951086414452  9.9503567931990897  7.1065680663207891
  2.8379923436342724  8.5329304480131487  8.5281920733303451
  4.2638372850228299  9.9503567059683338  9.9498585109832103
  5.6854613718128446  0.0000000274028498  0.0087538938031718
  7.1052680421359975  1.4233600475987083  1.4194551695008661
  5.6854614451979515 -0.0000001295653415  2.8427306979549347
  7.1052680398466768  1.4232755382761364  4.2660907207602010
  5.6854613967821699 -0.0000001731665853  5.6767074454378319
  7.1071277092641640  1.4205662102354808  7.1065681719149500
  5.6854612876004360  0.0000002007701009  8.5281922400450334
  7.1070854056114987  1.4205661737511195  9.9498584625892867
  5.6854615008819778  2.8379924972895263  0.0047383327942757
  7.1071277696188373  4.2638372408390222  1.4221643593431541
  5.6854614609941629  2.8339765827170371  2.8427306997787793
  7.1070856260487325  4.2637949639268626  4.2632971219097167
  5.6854615011222478  2.8379923966241543  5.6807230252803436
  7.1147190748726628  4.2562039093270920  7.0989345790335170
  5.6854614587941938  2.8407725676349052  8.5281922423517997
  7.1147189461894849  4.2562038712581076  9.9574498492052577
  5.6854614930651248  5.6854614743017766  0.0019578963871967
  7.1070856325862897  7.1071277486040119  1.4221643302579778
  5.6854614192537820  5.6854613773483544  2.8427306105292289
  7.1071279214937313  7.1070855690750818  4.2632972335523061
  5.6854615170725147  5.6854614736344065  5.6835035443852417
  7.1147188628718165  7.1147188696303560  7.0989345075337056
  5.6854613333121033  5.6854614705139257  8.5281922720114416
  7.1147188724462183  7.1147188603309228  9.9574498216082112
  5.6854613692315876  8.5329304186746739  0.0047383770649455
  7.1052679450372533  9.9476474011883589  1.4193708940157435
  5.6854613440537900  8.5369464747117370  2.8427306913260533
  7.1052679774055241  9.9475627396397126  4.2660061526245912
  5.6854615097837611  8.5329304655622469  5.6807230666833943
  7.1070854493051492  9.9503566251441544  7.1065257122543963
  5.6854613430248166  8.5301502092015991  8.5281920853600379
  7.1071277236154318  9.9503568061073793  9.9498163477865127
  8.5398365697132164 -0.0000000625813376  0.0116445065232347
 10.0026775971367226  1.3682454689912846  1.4744854075071852
  8.4876900812891378  0.0000000133731475  2.8427308182470026
 10.0026775190058181  1.3682455662065125  4.2109759929709547
  8.5398365910898200  0.0000000280890349  5.6738169356258599
  9.9476473438154915  1.4233601523138901  7.1083857230934244
  8.5369462508225649 -0.0000000177065759  8.5281922065504538
  9.9475628665514169  1.4232754217305592  9.9479986186544984
  8.5460544408537000  2.8248684934758193  0.0178625222043241
  9.9476473916275623  4.2656548127422651  1.4193706816665572
  8.5398367956712207  2.8310861752817464  2.8427307469119545
  9.9475628389104518  4.2656547364559039  4.2660062588864989
  8.5460544244664991  2.8248684884332951  5.6675990021712783
  9.9503563189135171  4.2638374014836478  7.1065257015709147
  8.5329305277756173  2.8379923978817034  8.5281921192154293
  9.9503564264722115  4.2637950471769512  9.9498162456938548
  8.5329303641181529  5.6854615397105244  0.0047382469974176
  9.9475628201276436  7.1052681859051212  1.4194552493878587
  8.5369463200238691  5.6854615380307152  2.8427307365103078
  9.9476473938914349  7.1052680893041087  4.2660907213719215
  8.5329303418099371  5.6854614338664256  5.6807231641390343
  9.9503564348128943  7.1071278035682486  7.1065680908665847
  8.5301503415448394  5.6854614918099378  8.5281920330784260
  9.9503564748016906  7.1070855340908867  9.9498585054406536
  8.5460545301438309  8.5460543561319415  0.0178625449329740
 10.0026776366639023 10.0026774837571413  1.4744854035468291
  8.5398368864048582  8.5398367271051026  2.8427307567965712
 10.0026775068400866 10.0026773440771333  4.2109760366799627
  8.5460543736243686  8.5460544069917646  5.6675989408814846
  9.9475628738188018  9.9476472117877748  7.1083856090248005
  8.5329306785182517  8.5329304797181695  8.5281920350165379
  9.9476475154181649  9.9475628989004896  9.9479986123172104
  2.8310862846810316 -0.0000001376150889  0.0116444563569218
