Fe Ni
 1.0000000000000000
    11.3840236806720494    0.0000000000000000    0.0000000000000000
     0.0000000000000000   11.3840236830942381    0.0000000000000000
     0.0000000000000000    0.0000000000000000   11.3840236835323019
 Fe  Ni 
 126   2
Cartesian
  0.0194419249410557  0.0002092455574788  0.0002012169989531
 -0.0003365496183968  0.0001727804235287  2.8462428956716654
  1.4221351697966484  1.4238247977583014  4.2533098943234711
 -0.0027148697242283 -0.0022650091390736  5.6884972243608498
  1.4205373421067544  1.4254078686358103  7.1197840743373142
 -0.0074022418424386 -0.0023962257542563  8.5373750880937127
  1.4232042154876874  1.4227935176087183  9.9804628302709730
 -0.0002368488669821  2.8463425000395768  0.0001729559906029
  1.4221809421017144  4.2533097329311982  1.4238706457471326
 -0.0053015827184405  2.8513074276786154  2.8513074988851637
  1.4223366670920301  4.2754397620810787  4.2753786843119750
 -0.0020540467962243  2.8480905118810629  5.6884374748122362
  1.4222471033346873  4.2732204308602135  7.1120805833818377
 -0.0144236566237461  2.8605069274868704  8.5278213918491570
  1.4206470948377619  4.2697196843958150  9.9534613996882104
 -0.0025740152897245  5.6884665948146287 -0.0021884048994988
  1.4205981263482266  7.1197841490910410  1.4254686568946151
 -0.0020846639884846  5.6884372937542640  2.8480599827971251
  1.4222365003059829  7.1122208099349340  4.2731755217543839
 -0.0017756863950869  5.6956835683938802  5.6955679804625703
  1.4220573271471431  7.1112922223192196  7.1112495576572341
 -0.0024645325718350  5.6956328712654178  8.5326932864204146
  1.4208146320107298  7.1185598605160187  9.9584468757436859
 -0.0075592598338329  8.5373072012215712 -0.0023560625161929
  1.4232122658149602  9.9804627811634425  1.4228019150589402
 -0.0145010904493500  8.5278214666906180  2.8604296784645142
  1.4206067070428816  9.9536183662336217  4.2696516691550706
 -0.0025356590450726  8.5327176777243281  5.6955575090401505
  1.4207380361780320  9.9583055200874480  7.1185293427158287
 -0.0111007344013463  8.5239053526171755  8.5239569354774556
  1.4231758022084267  9.9606841641389590  9.9607840278842481
  4.2495668213624684  1.4228018762375660  1.4227937034248699
  2.8457965975121975  0.0002011766811610  2.8265636120317024
  4.2765683149694080  1.4253587877452152  4.2697194988885103
  2.8484107819169213 -0.0024657277671957  5.6872425225069048
  4.2715828186516820  1.4251914835088795  7.1185598070479124
  2.8468276841483031 -0.0008677485192014  8.5537168394097716
  4.2692457449007408  1.4228300365265176  9.9606842264155997
  2.8458047737693217  2.8265635865452512  0.0002093883866926
  4.2764112931716785  4.2696516846961927  1.4253992020906936
  2.8458330743582541  2.8462427580068375  2.8463424756388016
  4.2801093447928480  4.2830697137368032  4.2831211267167388
  2.8481942561853102  2.8485799519009083  5.6884667545910395
  4.2714732967097353  4.2743331539943874  7.1113936966627840
  2.8483618562139421  2.8535652515014016  8.5373068740547637
  4.2834326095595809  4.2792052779583765  9.9465196849099282
  2.8484715231500459  5.6872426040394659 -0.0024048367707652
  4.2717239937599620  7.1185294342059890  1.4252679935320083
  2.8482709002956761  5.6884972018303754  2.8487210401836873
  4.2715445823063263  7.1114691530092733  4.2743089722780159
  2.8469515758203365  5.6957770214375207  5.6957344452782301
  4.2707843013138893  7.1114588118817332  7.1113430053645281
  2.8467616152525888  5.6949460081379701  8.5338063387663361
  4.2710628635915224  7.1185890322866241  9.9589362011812401
  2.8468736890104149  8.5537169350240969 -0.0008219845887453
  4.2693454184278430  9.9607841675367332  1.4228301484319794
  2.8484022660771320  8.5373747726812361  2.8534081124559023
  4.2835099653544768  9.9465972024518639  4.2792054566384268
  2.8467723658365047  8.5338510325306451  5.6948059749505520
  4.2710934822619571  9.9589669782103041  7.1185889126592281
  2.8466720371541503  8.5316479210683909  8.5315868123569025
  4.2743104142408610  9.9557193488800433  9.9557191651336954
  5.6763128556947473 -0.0008217940674644 -0.0008676081761388
  7.1102453975344151  1.4254685495385992  1.4254078542595885
  5.6927226109527869 -0.0023559770129611  2.8535651178983668
  7.1179488733967817  1.4237587267778142  4.2732204231952853
  5.6962233190135612 -0.0007555192735094  5.6949460599958748
  7.1187800331310482  1.4239486099894336  7.1112921630252703
  5.6984427328298706 -0.0006660826595189  8.5316480188551989
  7.1115002160849148  1.4252678941679653  9.9583057468957090
  5.6926547844927899  2.8534080216233311 -0.0023960947788454
  7.1178086446281421  4.2731755921486547  1.4237692440916436
  5.7022081543907381  2.8604296287369348  2.8605070209324612
  7.1187352660066034  4.2730490002451207  4.2731236101134416
  5.6973362988768566  2.8484703582421562  5.6956330458758497
  7.1183869582657762  4.2739560283686249  7.1116414191977348
  5.7060727205321831  2.8571065534360911  8.5239054978666129
  7.1185605247349617  4.2743091606811605  9.9584850453884073
  5.6961786709534667  5.6948057598898973 -0.0007662935460794
  7.1187375688413104  7.1112494285694270  1.4239485790152240
  5.6973119657496136  5.6955573860211528  2.8485414497019361
  7.1183880085641613  7.1116427775871216  4.2739560949281588
  5.6969590074859493  5.6953841774121088  5.6953850045521035
  7.1179669533837080  7.1120628062759792  7.1120628021370420
  5.6960519917005845  5.6957323844723344  8.5339031873719495
  7.1185710128632511  7.1113429483870600  9.9592450516844320
  5.6983817361628528  8.5315869111670182 -0.0006662046160797
  7.1114695322540511  9.9584468576618459  1.4251913513229195
  5.7061240260367843  8.5239568186146712  2.8571064567729354
  7.1186360838671012  9.9585562892964052  4.2743333415966305
  5.6961265894925743  8.5339778072918442  5.6957325218881429
  7.1186867783828118  9.9592452796928796  7.1114586646448767
  5.7033478938123157  8.5266815629704151  8.5266816693823291
  7.1114406401733019  9.9589359966429019  9.9589666980470817
  8.5427871642800461 -0.0024048597595916 -0.0024657586511442
  9.9767198490147564  1.4238707367561851  1.4238248219190563
  8.5415630153932725 -0.0021885839728689  2.8485797422728956
  9.9546509429378052  1.4236690806599448  4.2754398121866624
  8.5342951371052820 -0.0009458082556567  5.6957770917522677
  9.9568537921464397  1.4237696599043117  7.1122206676997095
  8.5352238123255120 -0.0007664649459167  8.5338509611050366
  9.9603778941119039  1.4253992272635831  9.9536184577738425
  8.5415324898898159  2.8487209943486325 -0.0022649042553320
  9.9545897427578609  4.2753786970822105  1.4236691590482533
  8.5415921212963628  2.8480598293448338  2.8480905535251924
  9.9496847380511433  4.2803451291439059  4.2803448712932566
  8.5344617399868579  2.8477816572840768  5.6956836071332502
  9.9569805821463042  4.2731236051258490  7.1112941673089898
  8.5344723959186570  2.8485415810861756  8.5327177872037598
  9.9469596876292758  4.2831212007029844  9.9499201184984809
  8.5342525832271949  5.6957344434097701 -0.0009455556845929
  9.9568092045855092  7.1120804790677683  1.4237585051239605
  8.5343460791657897  5.6955679462004349  2.8477813981658637
  9.9569058456342834  7.1112943564602844  4.2730487409731213
  8.5350657188847343  5.6949637035501119  5.6949638266240141
  9.9560735411214640  7.1116415241738409  7.1116426278964298
  8.5346456692374328  5.6953850431078781  8.5330705573588297
  9.9556963882631351  7.1113937181509517  9.9585562302554838
  8.5350835101200015  8.5338060988627671 -0.0007558175811680
  9.9603099801808241  9.9534615449819466  1.4253589250578871
  8.5343965224858032  8.5326932651429370  2.8484705637323811
  9.9469083530775677  9.9499200470517604  4.2830698034102763
  8.5346443567180348  8.5330706110649999  5.6953840902872406
  9.9557204278995624  9.9584849718628039  7.1114693254058015
  8.5342972038927183  8.5339030299919170  8.5339776432771064
  9.9508242879080750  9.9465194330987625  9.9465971165854441
  2.8492297881908031 -0.0032238966649152 -0.0032239953333921
  1.4197791202744363  1.4262268395172082  1.4262267159549562
