Fe Ru
 1.0000000000000000
    11.4535124351243844    0.0000000000000000    0.0000000000000000
     0.0000000000000000   11.3815570550734861    0.0000000000000000
     0.0000000000000000    0.0000000000000000   11.4535124360161351
 Fe  Ru 
 126   2
Cartesian
  0.0615837311305749  0.0000002404730190  0.0615836013999355
  1.4316892771609351  1.4132975855511627  1.4316890940233025
  1.4496172521415958  1.4037390191441306  4.3141422902596496
 -0.0132970618025072  0.0000888421621728  5.6834269458714504
  1.4316887086337566  1.4122578900440907  7.1584452360502713
 -0.0120485573411153  0.0000013458968801  8.5722331826923597
  1.4137612738040584  1.4037384946332170 10.0027482327415775
  0.0155196019137111  2.8289889235379500  0.0155861271805844
  1.4316886361685219  4.2580807425453244  1.4316895139905494
 -0.0077645289732568  2.7852163603817637  2.8711840132280613
  1.4230389090250204  4.2684711199888792  4.2933337324506518
  0.0004557358091815  2.8421189626892320  5.7247097674637457
  1.4316893981687349  4.2769515387796915  7.1584452475905280
 -0.0058824573998236  2.8513027269689077  8.5825983347146160
  1.4403392440057770  4.2684712341077811 10.0235566607400823
  0.0043122512641714  5.6907785709035608  0.0043126881292712
  1.4316891436181851  7.1234761671467224  1.4316892589536201
  0.0051374615664265  5.6907781390042684  2.8582405445846271
  1.4232387720575947  7.1128639224319681  4.2931822536984123
  0.0039631738523536  5.6907294415056136  5.7238680011687544
  1.4316895757544921  7.1044409247299001  7.1584452680699115
  0.0012101751623618  5.6907003167730768  8.5945849183785334
  1.4401397933423907  7.1128640993696397 10.0237083557839348
  0.0155863278161438  8.5525677654964625  0.0155192743524182
  1.4316893800899997  9.9682594956733706  1.4316889063813782
 -0.0078052216738136  8.5963407873780984  2.8711437158331434
  1.4493757184603573  9.9772555841993746  4.3145017208856462
  0.0003643519268227  8.5392685744132120  5.7248399512809804
  1.4316891733798238  9.9689734132646670  7.1584450234694064
 -0.0058186700312530  8.5300791699165632  8.5824726498695352
  1.4140026461868362  9.9772556429001984 10.0023890189453866
  4.3145017403803436  1.4043017199238992  1.4493755342305499
  2.8017946900165653 -0.0000000169864986  2.8017944006441220
  4.2899423416000824  1.4108044118517689  4.2897219203757144
  2.8754264284179487  0.0000009918477630  5.7446570328413680
  4.3032181655942425  1.4319498603314313  7.1664086611858044
  2.8766751340476908  0.0000894426820261  8.6334637421137614
  4.3326781723266237  1.4351408408550841  9.9844205500759529
  2.8711438154170170  2.7852162797367983 -0.0078051138492481
  4.2931824456114365  4.2686929465703587  1.4232385993934333
  2.8478588046106728  2.8289891246448930  2.8477921180425625
  4.2983775451908990  4.2749374956282846  4.2983014011853662
  2.8692605681358918  2.8513029507338854  5.7342919515425361
  4.2980463984944999  4.2753153015361658  7.1558287708516879
  2.8629223036619078  2.8421192767691239  8.5921807829030215
  4.2912173010484622  4.2658725008915024 10.0258608701443173
  2.8582411946980875  5.6907786281661492  0.0051366605977843
  4.2933343530979311  7.1130857626643067  1.4230386442200589
  2.8590652229803344  5.6907784913588246  2.8590657390934462
  4.2983016527934765  7.1066195315641192  4.2983778215796473
  2.8621674626558895  5.6907005178763335  5.7223062045418480
  4.2981283405039470  7.1061369399141832  7.1558009240828584
  2.8594150762575374  5.6907295612162185  8.5930224024263335
  4.2910300825265839  7.1156850160631118 10.0256732101946149
  2.8711836984669667  8.5963406028322495 -0.0077652468775381
  4.3141421951932566  9.9778177371255410  1.4496176245833958
  2.8477919863804173  8.5525680117225544  2.8478584977601518
  4.2897225468497595  9.9707525362491705  4.2899422445847124
  2.8691965448668579  8.5300788826685654  5.7344182082602657
  4.3034187872862741  9.9497890284752764  7.1663599876762909
  2.8630136033336187  8.5392680660813625  8.5920504719088484
  4.3324700056819863  9.9464157375856228  9.9842120250197794
  5.6834269001027273 -0.0000885179670804 -0.0132974291364165
  7.1584453956473260  1.4125840089931372  1.4316890217663336
  5.7446569741029512 -0.0000013582455266  2.8754273262998602
  7.1663596239948655  1.4317682284662676  4.3034192774941333
  5.7325594451764506 -0.0000001777651861  5.7325596222017756
  7.1584451914557645  1.4458769384952810  7.1584453510355557
  5.7351587795686632  0.0000001245395276  8.5817317946611471
  7.1505302475244283  1.4317676833434452 10.0134716606273955
  5.7248399093750395  2.8422888736032204  0.0003652258887790
  7.1584456059231893  4.2771156805203097  1.4316891723611154
  5.7344182319073749  2.8514780996614522  2.8691963017412583
  7.1558011415914722  4.2754198622864585  4.2981283022500145
  5.7268551879871623  2.8551326627750049  5.7268259303872071
  7.1584454278866749  4.2795963461819122  7.1584450837309621
  5.7354665747022660  2.8621723585476424  8.5814430838165165
  7.1610899792532736  4.2754198696098982 10.0187625789394161
  5.7238679668312029  5.6908277051940646  0.0039629467735870
  7.1584453688042817  7.1046054936793688  1.4316887927676214
  5.7223056921661195  5.6908565286216035  2.8621676224764245
  7.1558285256543845  7.1062421771408664  4.2980465825826002
  5.7207391590847525  5.6907787263143490  5.7207390408037702
  7.1584449701103585  7.1019603085568308  7.1584453348578831
  5.7235177104273172  5.6907787504745295  8.5933724544831964
  7.1610618956736944  7.1062422861499668 10.0188440114073636
  5.7247095264489838  8.5394377606929019  0.0004558620099621
  7.1584458703932796  9.9692988881250262  1.4316892110071953
  5.7342920976907070  8.5302546203765672  2.8692606753952803
  7.1664081863741016  9.9496075593345523  4.3032175098739422
  5.7268261863160212  8.5264245176259692  5.7268544568677600
  7.1584453582728180  9.9356805696181034  7.1584454524165713
  5.7354467357145582  8.5193842413950858  8.5814246536754304
  7.1504822382398672  9.9496076166948946 10.0136726654077126
  8.5722336115497377 -0.0000013339707162 -0.0120484896467173
 10.0023891278524388  1.4043010641366012  1.4140022480965408
  8.6334638128465642 -0.0000899025632985  2.8766745329025136
  9.9842126548047823  1.4351408728612396  4.3324706651860367
  8.5817321211923439  0.0000002789195171  5.7351588843671513
 10.0136727096241955  1.4319491435148366  7.1504820095309398
  8.5843312003483305 -0.0000000729056020  8.5843313531334857
 10.0269482205521019  1.4108042166786030 10.0271683104797340
  8.5824722201580066  2.8514776110244093 -0.0058182654381034
 10.0237082454573496  4.2686935555520664  1.4401392642219946
  8.5920501643249665  2.8422896211552913  2.8630132487963618
 10.0256729522389101  4.2658721604157730  4.2910299458773400
  8.5814246451770515  2.8621728695506432  5.7354468305970192
 10.0188439978184647  4.2753149524963350  7.1610619323733369
  8.5900353484748688  2.8551323767584158  8.5900641978655887
 10.0185129627696661  4.2749380759763893 10.0185892162870367
  8.5945856113288528  5.6908564874310628  0.0012107016799954
 10.0235563888883608  7.1130855808588445  1.4403390178367939
  8.5930228788912970  5.6908274489189710  2.8594149597033724
 10.0258607794917260  7.1156850287267703  4.2912179218074220
  8.5933726364295371  5.6907784383889624  5.7235176239389158
 10.0187625240847407  7.1061373145286959  7.1610897472454802
  8.5961519721224242  5.6907785520143657  8.5961519899115988
 10.0185891273667771  7.1066194366569597 10.0185128082077561
  8.5825983296645880  8.5302542050169095 -0.0058824569465972
 10.0027481216136707  9.9778186649302576  1.4137611081052568
  8.5921803337673808  8.5394384724274772  2.8629221206263646
  9.9844208152550511  9.9464160621738795  4.3326781393696256
  8.5814440871712101  8.5193839807747356  5.7354657809678864
 10.0134715598517214  9.9497891163759711  7.1505303796411406
  8.5900647189029193  8.5264246027278361  8.5900358654634310
 10.0271684011197681  9.9707523185011535 10.0269480454304993
  2.8891922567789496  0.0000003364883142 -0.0258144254479097
 -0.0258146901231895  0.0000002021505184  2.8891921910814959
