Fe Pd
 1.0000000000000000
    11.4231991599956473    0.0000000000000000    0.0000000000000000
     0.0000000000000000   11.4231991601749101    0.0000000000000000
     0.0000000000000000    0.0000000000000000   11.4231991581759367
 Fe  Pd 
 126   2
Cartesian
  0.0248298246429453 -0.0078916752401569 -0.0076165985112601
  1.4279000623128608  1.4278998537869581  1.4278996870670144
 -0.0078916399295311  0.0248297046883861  2.8634162972872805
  1.4572549173127676  1.3985708391675100  4.2994277048076697
 -0.0024055876876302 -0.0035895147974232  5.7164713154650304
  1.4276911895017110  1.4276913571522214  7.1394994218137438
 -0.0035895973504043 -0.0024055208545257  8.5625276218772246
  1.3985708011271716  1.4572548324747290  9.9795712412748188
 -0.0076165124433939  2.8636913774848991  0.0248296930016984
  1.4572289432097094  4.2994276530946012  1.3985450247549633
  1.4574989151327178  4.3231395502283307  4.3230097181459017
 -0.0019451559640462  2.8578902013227525  5.6850900777356825
  1.4282192331582533  4.2933162172334791  7.1226666541611037
 -0.0176032564381986  2.8733268937645695  8.5509629307266355
  1.4278999230968086  4.2906233929922672  9.9883754690658613
 -0.0023806721469846  5.7164538885837244 -0.0035474477416623
  1.4281083693596923  7.1394993599174157  1.4281083642688039
 -0.0020904221765295  5.6850902247623862  2.8577449085743711
  1.4279549611504738  7.1225198808770127  4.2935190368679299
  0.0077367618830357  5.7118921185221367  5.7120104719569600
  1.4279000675863038  7.1395184702098966  7.1394805725214212
 -0.0058110772363305  5.7093558394826029  8.5632796556944175
  1.4275807037824098  7.1563320995180408  9.9856826454964747
 -0.0035473341329627  8.5625448975184906 -0.0023808821173706
  1.3985450427749273  9.9795713425426271  1.4572286855011864
 -0.0175271244477438  8.5509629223825616  2.8734031312875503
  1.4278997754667064  9.9886249243876630  4.2903740105269623
 -0.0057450667158292  8.5632373850974730  5.7094066713512843
  1.4278451144899023  9.9854798712726840  7.1564790518299999
 -0.0202153385877048  8.5501147279945027  8.5501661157875528
  1.3983007046294642  9.9559892994919235  9.9558589349864626
  4.2994276842791317  1.4572287229080061  1.4572549884266872
  2.8636914461471692 -0.0076165131025057  2.8309698305799453
  4.2906234217224712  1.4279000157061810  4.2906233794984114
  2.8733269868720157 -0.0176032431534795  5.7280361276770844
  4.2933161832221023  1.4282192326520999  7.1563322976236146
  2.8578902226512373 -0.0019451551226998  8.5939087984806051
  4.3231397908378391  1.4574990311749092  9.9559892855640690
  2.8634162117310105  2.8309699650540523 -0.0078915150728266
  4.2903740677207347  4.2903739991588274  1.4278999009104882
  2.8309699137415323  2.8634164262589619  2.8636914927130683
  4.2827311430579584  4.2973667737151411  4.2970408673826777
  2.8593471814625144  2.8581807505782426  5.7164539546869930
  4.2962607132177046  4.2962606415041611  7.1394994846701865
  2.8581804713226235  2.8593471822449303  8.5625450385162480
  4.2973667996896996  4.2827310985454838  9.9819580529535106
  2.8734029131037007  5.7280362509645775 -0.0175271862221754
  4.2935191156447905  7.1564789380522287  1.4279551737481555
  2.8593893164733690  5.7164714472958940  2.8582054851044054
  4.2962749637071518  7.1394993508615876  4.2962748715067631
  2.8760154209996909  5.7288328070480947  5.7288840841175661
  4.2958375948658194  7.1399358438283285  7.1400097660101443
  2.8616109135974228  5.7157192003054362  8.5696428973316010
  4.2945254831958897  7.1554107294542773  9.9843765218337168
  2.8577450179575741  8.5939089957427583 -0.0020903933200064
  4.3230095754068447  9.9558593972935636  1.4574988888673048
  2.8582055576659999  8.5625276241168304  2.8593893612393964
  4.2970409263093785  9.9816319800053002  4.2827311405087389
  2.8615447374388614  8.5695923061859993  5.7157618141827848
  4.2946224420534120  9.9844734864987004  7.1554104765214674
  2.8480628769747476  8.5669885050709969  8.5671068546100173
  4.3234267187795012  9.9555721262116510  9.9555723027439047
  5.6850900299780340 -0.0020903981147638 -0.0019453221332991
  7.1394994984405500  1.4281085448249720  1.4276914231527871
  5.7164540196628391 -0.0023806840204075  2.8593472186507118
  7.1563323266519294  1.4275806261945008  4.2933163049038905
  5.7093562874425698 -0.0058112304767397  5.7157192185447911
  7.1395184815659114  1.4278999577451714  7.1395183155275026
  5.7118921863260033  0.0077366748608967  8.5669884664289686
  7.1225198044362505  1.4279547256748359  9.9854798868406913
  5.7164711924070337  2.8593892472041773 -0.0024055939568992
  7.1564789577212711  4.2935189572413499  1.4278448563329316
  5.7280361138265228  2.8734030704300606  2.8733268996759858
  7.1554106599579690  4.2945254439633000  4.2946224875972403
  5.7157191168309467  2.8616109557051139  5.7093560736755071
  7.1399357642650072  4.2958376523588928  7.1389891772995862
  5.7288329224410530  2.8760154485676468  8.5501147702118772
  7.1394995187786758  4.2962751236837669  9.9827239308808604
  5.7094067234934220  5.7157618007492124 -0.0057451550373757
  7.1394804415683755  7.1394803993981526  1.4278999556787939
  5.7157616622090677  5.7094064815854324  2.8615448769308118
  7.1400097870281298  7.1390630424467139  4.2958378148439014
  5.7063149241500684  5.7164921338761934  5.7164632713348089
  7.1394994913087872  7.1394995548435105  7.1394993994147056
  5.7164922041294854  5.7063151624220625  8.5625355383939894
  7.1390632885048504  7.1400096410416749  9.9831612339648395
  5.7120103859014213  8.5671069899300321  0.0077367450552541
  7.1226667578357743  9.9856827729744388  1.4282189582333495
  5.7288838455126712  8.5501660754554596  2.8760154268849933
  7.1394993988681934  9.9827383230484088  4.2962605781051764
  5.7164635940325770  8.5625067916793789  5.7063150555115758
  7.1389891459629613  9.9831611859485037  7.1399358291272499
  5.7304978429943185  8.5485011653720644  8.5485012210040132
  7.1235882359927221  9.9843765608149440  9.9844735009533121
  8.5509627312262229 -0.0175270419970900 -0.0176032320762542
  9.9795711285661763  1.3985449420274523  1.3985709445248871
  8.5625450479056973 -0.0035473835322291  2.8581804874944789
  9.9559892805129238  1.3983008852062206  4.3231397501425706
  8.5501148143827717 -0.0202154529839762  5.7288328123021879
  9.9854800157065782  1.4278450832159839  7.1225199892247328
  8.5632371317943630 -0.0057449100944740  8.5695923437474875
  9.9886250864582209  1.4278997690310868  9.9886249460792165
  8.5625277886659301  2.8582054408934869 -0.0035896818827119
  9.9558592203698009  4.3230096732792695  1.3983009112515397
  8.5939088466700184  2.8577448711537023  2.8578903778439875
  9.9555721259250056  4.3234269148059958  4.3234267078254627
  8.5669884244831884  2.8480630549526365  5.7118921042439013
  9.9844735387032824  4.2946224565587823  7.1235885220252424
  8.5695922667010169  2.8615447564536538  8.5632373492667426
  9.9816321384395774  4.2970410090799529  9.9962678446522464
  8.5501661271246441  5.7288840864741477 -0.0202154351118549
  9.9856825930433715  7.1226666186096468  1.4275808305067665
  8.5671069915047013  5.7120105388765232  2.8480633397833777
  9.9843765066128434  7.1235883950343011  4.2945253495326261
  8.5485011181068042  5.7304976785665831  5.7304975222329011
  9.9831611926180894  7.1389892624118927  7.1390631025084099
  8.5625069297370349  5.7164633452260469  8.5726839370634309
  9.9827383531261145  7.1394994948672919  9.9827382916470899
  8.5632799069431798  8.5696430745439418 -0.0058111485159237
  9.9883755651523494  9.9883755597643500  1.4278997388447849
  8.5696432339320072  8.5632796863051226  2.8616109847204600
  9.9819581017382113  9.9962677706821470  4.2973668062704027
  8.5625355598230151  8.5726838677895625  5.7164920821165710
  9.9827240721503916  9.9827239949978406  7.1394992506855219
  8.5726839157524406  8.5625353953718548  8.5625069357089174
  9.9962679827394165  9.9819581011291039  9.9816321640671362
  2.8787372815888297 -0.0229379600377424 -0.0229375724271028
 -0.0229379145918737  2.8787377958190299  2.8787376563231244
