Fe Cu
 1.0000000000000000
    11.3837659521703820    0.0000000000000000    0.0000000000000000
     0.0000000000000000   11.3837659584450073    0.0000000000000000
     0.0000000000000000    0.0000000000000000   11.3837659561911106
 Fe  Cu 
 127   1
Cartesian
  0.0112600521102420  0.0000000075780389  0.0000001381501537
  1.4334285489149439  1.4125127762316503  1.4125129902756683
 -0.0114790691413386 -0.0000000116600090  2.8574203552113069
  1.4221700208148276  1.4235708095571282  4.2565116683778328
  0.0002417648195720  0.0000001541395221  5.6918830937110192
  1.4223707298334731  1.4237714484191040  7.1272543235939478
 -0.0114790385820813  0.0000000816217734  8.5263455273253399
  1.4334283537162020  1.4125129403488828  9.9712529531756839
 -0.0114789575641833  2.8574205538433937 -0.0000000256252432
  1.4223707295609793  4.2565116753808869  1.4237713271571004
 -0.0084607515902096  2.8544022413457188  2.8544021478099686
  1.4212413052403416  4.2759874819471317  4.2759260644391057
  0.0052131446048212  2.8407284202365566  5.6918828741390115
  1.4212411518235553  4.2759259833377810  7.1077783344210381
 -0.0084607347939229  2.8544021915899815  8.5293638566264747
  1.4221701364903045  4.2565115589201623  9.9601951369871298
  0.0002416164837966  5.6918828512120330 -0.0000000826518181
  1.4221699100107732  7.1272544897114987  1.4235708999706116
  0.0052130904951001  5.6918830357867813  2.8407283548656497
  1.4212410236669235  7.1078400467050553  4.2759875959803679
 -0.0017226343149507  5.6918829024554336  5.6918830178313629
  1.4212411846634381  7.1077783437353910  7.1078398921963108
  0.0052130702226099  5.6918830083694365  8.5430376002729798
  1.4223707551594320  7.1272544371391815  9.9599946334405001
 -0.0114789126661535  8.5263454836919639  0.0000001116556137
  1.4334284411556979  9.9712531178397317  1.4125129560888576
 -0.0084606168624301  8.5293638791935411  2.8544021494473437
  1.4223706023423857  9.9599945057232944  4.2565115339912651
  0.0052132677853339  8.5430375985597102  5.6918830367997275
  1.4221700346314181  9.9601951833897253  7.1272543347286774
 -0.0084606130800490  8.5293638671930072  8.5293638275541905
  1.4334283071804614  9.9712529972459389  9.9712527986317987
  4.2584543859331347  1.4125127050907320  1.4125128014431332
  2.8459414637915610  0.0000000894496238  2.8346814627403738
  4.2695123183088741  1.4237713896222171  4.2565115968336587
  2.8459415055062207  0.0000000178763815  5.6918830726853127
  4.2697129522809361  1.4235708415979809  7.1272542166457420
  2.8459414401775081 -0.0000000225444476  8.5490844422655137
  4.2584545348709781  1.4125128737324617  9.9712530024644135
  2.8459413769579252  2.8346814740249662 -0.0000000543737729
  4.2697127896610558  4.2565116714991840  1.4235707319023105
  2.8459414796350395  2.8574205315322141  2.8574205616177473
  4.2706419117664494  4.2759261437437157  4.2759877063480607
  2.8459414608059874  2.8456997262557877  5.6918829900646584
  4.2706418971362154  4.2759876911865051  7.1078398355809567
  2.8459414168259713  2.8574204641668040  8.5263455258507470
  4.2695122163084376  4.2565116391573854  9.9599945744918532
  2.8459415424630845  5.6918829700463300  0.0000000639141113
  4.2695122353328259  7.1272543803623050  1.4237714197676754
  2.8459414992784526  5.6918829367340109  2.8456997014034160
  4.2706419640907569  7.1077783454008312  4.2759261045085184
  2.8459415555912666  5.6918829392836283  5.6918829991985200
  4.2706417727784620  7.1078398628737558  7.1077782755122865
  2.8459414972950849  5.6918829791330907  8.5380662004163757
  4.2697129381440453  7.1272543621504019  9.9601951788554377
  2.8459415126833396  8.5490846359302139  0.0000000503403040
  4.2584544484825075  9.9712530687914231  1.4125130099324927
  2.8459415567902262  8.5263453329448602  2.8574204972105086
  4.2697128686943904  9.9601950534658279  4.2565116383480310
  2.8459414608310847  8.5380660524568430  5.6918831427229382
  4.2695124015368719  9.9599944324977709  7.1272544930421153
  2.8459415814933595  8.5263453945111696  8.5263455149756826
  4.2584544647299722  9.9712530846079250  9.9712529034251531
  5.6806228745129017  0.0000001559483519  0.0000000287662762
  7.1024530350388231  1.4235706893886169  1.4237714388696856
  5.7033621262589609  0.0000000931792168  2.8574205755722075
  7.1219289971155675  1.4247004532396821  4.2759260872901299
  5.6916413412236615  0.0000001735777580  5.6918828937316270
  7.1218675295159271  1.4247003868118580  7.1077782716072688
  5.7033620366139202  0.0000001006942874  8.5263454353637513
  7.1024529675022547  1.4237714652725206  9.9601951191830018
  5.7033620274512780  2.8574205406687345 -0.0000001005595653
  7.1218676194048136  4.2759876479677397  1.4247002998196507
  5.7003438702743274  2.8544021506547788  2.8544021703094891
  7.1136053305601381  4.2676638346346802  4.2676638659980517
  5.6866699010012249  2.8407283011980531  5.6918830294082117
  7.1136052234247522  4.2676638317037021  7.1161022528985125
  5.7003436349422634  2.8544021807441302  8.5293638418690563
  7.1219291517033847  4.2759259575514728  9.9590655965384745
  5.6916410466838476  5.6918829969952993  0.0000001719251046
  7.1219291802348934  7.1078398153648275  1.4247004150146696
  5.6866699777003324  5.6918830372517260  2.8407283923133488
  7.1136053049797860  7.1161021550947900  4.2676638333278429
  5.6936055813104725  5.6918831422292060  5.6918828268758874
  7.1136052477697369  7.1161021774844198  7.1161021685636108
  5.6866699213665122  5.6918831369824510  8.5430374826164712
  7.1218675639624829  7.1077784016193135  9.9590655111256030
  5.7033619690708059  8.5263455511640220  0.0000000503488342
  7.1024529636783535  9.9599945877380769  1.4235707729530915
  5.7003435683520758  8.5293637367640098  2.8544021243320610
  7.1218675448606907  9.9590655491933298  4.2759877447937411
  5.6866697823199495  8.5430375666950695  5.6918828884286814
  7.1219290844261662  9.9590656058671616  7.1078400267993613
  5.7003436314272777  8.5293638033362846  8.5293637852320590
  7.1024531639925685  9.9601951623157827  9.9599944725730190
  8.5378243548931483  0.0000000454965277 -0.0000000939773045
  9.9731957956975954  1.4237714320423112  1.4235708185464779
  8.5378245104355770  0.0000000131449250  2.8456997739634464
  9.9537815006579944  1.4247002557579924  4.2759876366181242
  8.5378244542812709 -0.0000000009899345  5.6918829597472422
  9.9537198826491711  1.4247004026269872  7.1078398340150741
  8.5378244904956464 -0.0000000216267103  8.5380662019173208
  9.9731957792760735  1.4235707463579790  9.9599944972008387
  8.5378243254220543  2.8456998604776356  0.0000000590601223
  9.9537197499157504  4.2759260872967761  1.4247003180480882
  8.5378245002111299  2.8407284503263748  2.8407283250545929
  9.9620436143110531  4.2676637869447935  4.2676637978000675
  8.5378246262622426  2.8476638586984304  5.6918830240951559
  9.9620436280544720  4.2676637689409969  7.1161021173156369
  8.5378244600410085  2.8407285061705876  8.5430377109102551
  9.9537814468600914  4.2759876045088010  9.9590655675097768
  8.5378244820914713  5.6918828051783938  0.0000001525699059
  9.9537814056054099  7.1077781279128676  1.4247004594492070
  8.5378245645935920  5.6918830827453002  2.8476640160783480
  9.9620436294365522  7.1161021388472356  4.2676638365386923
  8.5378244469242990  5.6918829939518156  5.6918829515030662
  9.9620435914905308  7.1161021739431485  7.1161021412559560
  8.5378244393751910  5.6918829721715491  8.5361019218903333
  9.9537197401684008  7.1078398694482292  9.9590656106072313
  8.5378245404517763  8.5380662074904627 -0.0000000335462621
  9.9731957319179898  9.9601951192053608  1.4237713393265712
  8.5378245185118313  8.5430374832857883  2.8407281996356946
  9.9537200466306999  9.9590656805333122  4.2759258555385813
  8.5378245373464612  8.5361018002455022  5.6918829989596373
  9.9537814466335952  9.9590655584791854  7.1077782897547772
  8.5378244139248274  8.5430374352501772  8.5430375181296068
  9.9731957648963796  9.9599944032937628  9.9601951176476877
  2.8459413269954328 -0.0000000763099873 -0.0000000153716752
