Fe Cr
 1.0000000000000000
    11.3669324826912135    0.0000000000000000    0.0000000000000000
     0.0000000000000000   11.3657262153472924    0.0000000000000000
     0.0000000000000000    0.0000000000000000   11.3669324805959402
 Fe  Cr 
 126   1
Cartesian
  0.0212477941322056  0.0000352223684662 -0.0440573692854394
  1.3803106374640537  1.3621748078658342  1.4611197705358461
  1.3741004130390762  1.3583264039477194  4.1986179898581018
  0.0014596884660293 -0.0000653346954086  5.7259330304472060
  1.4264297635792684  1.4200573111157122  7.1117048699621002
  0.0063679423962180 -0.0000502783006975  8.5306829991638171
  1.4295788284054682  1.4145755926602446  9.9525793113112506
  0.0063017225054814  2.8241119929791489  0.0131215462239108
  1.4259135188177332  4.2552588847148156  1.4157107740218684
 -0.0076280200029050  2.8898790052911045  2.8493627737690681
  1.4225248674741735  4.2660301662987683  4.2672705977371637
  0.0017866928197055  2.8244835904877608  5.6703102530072211
  1.4193230921854993  4.2643484218619223  7.1004831056611906
 -0.0059614914926666  2.8386363820402742  8.5186313199822479
  1.4226201944250634  4.2568787080466812  9.9488984912415042
  0.0024837673016430  5.6828770154273140  0.0100348169721891
  1.4260223056923260  7.1104675410295091  1.4158196636911478
  0.0007942608140266  5.6828630811107983  2.8409390534861529
  1.4226124367528266  7.0997750798605921  4.2672330774873011
 -0.0000124429712749  5.6829032731559002  5.6746802808305183
  1.4193078589159909  7.1012899857422509  7.1005616639221749
 -0.0000769389126138  5.6829187007198589  8.5261497538868536
  1.4224292800095444  7.1089564710568274  9.9490914849767211
  0.0062844495852630  8.5416466517961176  0.0131953162478683
  1.3806134547212885 10.0035513339211590  1.4614227090951730
 -0.0076294493750380  8.4758470474469512  2.8493610114947745
  1.3741288633486777 10.0073096291839789  4.1987981245296027
  0.0017333967833844  8.5412200518775236  5.6703324326334892
  1.4265666305953275  9.9452254919112342  7.1117458721427971
 -0.0060382013300161  8.5270996661782679  8.5186717013011517
  1.4296010990788157  9.9512873434532683  9.9525284826734186
  4.2561372700125570  1.4144389203383840  1.4121321408886007
  2.8857905307945226 -0.0000351660073371  2.8204852201397888
  4.2590916195644715  1.4178352786364925  4.2586100110155085
  2.8274349071851157 -0.0000539288785676  5.6724078051965252
  4.2578366673255434  1.4158577800222198  7.1101249797795800
  2.8341389906255832 -0.0000383536923615  8.5430984920324438
  4.2524989772156410  1.4116309686802275  9.9562274319922945
  2.8262783728831562  2.8069586844274310  0.0153923037831456
  4.2595742515868986  4.2567695910698422  1.4193040787389839
  2.8285380054717901  2.8240795626075266  2.8354486529221905
  4.2616920983322677  4.2643660871860352  4.2649316374340218
  2.8221346390945645  2.8202133202707902  5.6657878146996179
  4.2543098047417924  4.2567119423301323  7.0947055784477717
  2.8362172788616347  2.8318005493424656  8.5310164494383294
  4.2506783549639078  4.2495612212960756  9.9581420925201272
  2.8356727654810374  5.6828633039551733  0.0060602796952607
  4.2597669432416811  7.1088473889726593  1.4191127748306258
  2.8316983322267948  5.6828490732752464  2.8392492481473806
  4.2617721232174111  7.1012818018421839  4.2648383764395179
  2.8367024247759076  5.6829003030107099  5.6781360416152866
  4.2543779440081053  7.1090999079464812  7.0946259615082568
  2.8392353933812471  5.6828788832797787  8.5278752625533993
  4.2505233483970342  7.1161651237327819  9.9579872479400127
  2.8263406682605203  8.5587676357623295  0.0154546865754704
  4.2560863911745566  9.9511506819334627  1.4121542873794122
  2.8286115035017807  8.5416141044755598  2.8354315085888282
  4.2590021462660301  9.9477010117120521  4.2586529070963639
  2.8221995002422964  8.5454184714734538  5.6658668568146062
  4.2580525305982055  9.9500235531162353  7.1101691617554295
  2.8362545956499665  8.5339031220973958  8.5310444443167022
  4.2524382327494399  9.9540951772850530  9.9561666885569906
  5.6655670297797798  0.0000384999868582  0.0075939823086930
  7.0969197704194826  1.4205008462997419  1.4151664970556856
  5.6779823149714268  0.0000502865972658  2.8353653429536210
  7.1029107868333448  1.4224047621638529  4.2685717736376585
  5.6799615853848122 -0.0000031220469062  5.6752409944089521
  7.1066950852604513  1.4202556708993546  7.1019358517124802
  5.6782806465677078 -0.0000001577024085  8.5303851730815055
  7.0984962464296215  1.4157025915981316  9.9506129939518271
  5.6776211994122425  2.8318230393498274  0.0054786392099834
  7.1081038304334623  4.2644362378519647  1.4224250983278675
  5.6899938495144307  2.8386263784045269  2.8477710078170624
  7.1053788310543204  4.2603847296937056  4.2623042652179466
  5.6798722509089208  2.8347180590793766  5.6783932214130743
  7.1122080376699781  4.2519897753220333  7.0964479310180764
  5.6873773029234771  2.8448016255064452  8.5212376262792304
  7.1140397953976215  4.2566263446391126  9.9542875689048316
  5.6807901165200807  5.6828472626171820  0.0024979561496986
  7.1081822322389652  7.1013780945736862  1.4224100476116999
  5.6825160071025369  5.6828073415064120  2.8418102523061637
  7.1054160928941972  7.1052834241236367  4.2622450519968753
  5.6830687664562047  5.6828643283669669  5.6821791242559225
  7.1122178256436888  7.1137366142716658  7.0964576006402424
  5.6826026657636071  5.6828631348813055  8.5260627026186331
  7.1139602547145682  7.1090142115306625  9.9543558449745788
  5.6776492057546886  8.5339255626173678  0.0055160427075802
  7.0969607172804192  9.9456685453358311  1.4153033094924314
  5.6900345816839311  8.5270898841491345  2.8476945393157256
  7.1028378085326134  9.9432964446381469  4.2685009944198180
  5.6799446698141693  8.5309647076695203  5.6783705913595837
  7.1067297361187203  9.9454703608175858  7.1019704953455500
  5.6874281018194877  8.5209245064734809  8.5212883057896569
  7.0985408472527585  9.9498685941176035  9.9508288654210801
  8.5362578581890656  0.0000540607212184  0.0142983297615592
 10.0098673936859370  1.3584166287160273  1.4676041802219806
  8.4827326576036750  0.0000653993647730  2.8402736335823069
  9.9978811888718262  1.3645840311127966  4.2108729992987053
  8.5372700939603874  0.0000000585827767  5.6713953495019727
  9.9401646785890438  1.4224297777958237  7.1058277315554896
  8.5334241651578306  0.0000032155575777  8.5287040860405785
  9.9500126394106534  1.4180253803866463  9.9496636700020016
  8.5427987754942674  2.8203077833541403  0.0195338128902973
  9.9414322637896895  4.2659509003341283  1.4191207168582693
  8.5383331504498496  2.8245060411104617  2.8399999088978647
  9.9437037869024039  4.2636005397584693  4.2649264934636202
  8.5443721098970169  2.8205886732998717  5.6643189619524144
  9.9464206724222937  4.2604427921749233  7.1032493950041484
  8.5302949544533693  2.8347616391073407  8.5287210038274264
  9.9438273340212842  4.2644442860029406  9.9468934642038889
  8.5305295015022189  5.6828257622165674  0.0050307063760331
  9.9413950728333571  7.0996962929871197  1.4192082504650128
  8.5339853655526632  5.6828229639099126  2.8417454936976827
  9.9437391558857637  7.1021256698121835  4.2649618254857709
  8.5289633319810676  5.6828631354773327  5.6797023447184545
  9.9463612424359962  7.1053415690015767  7.1032865326127954
  8.5264864719128415  5.6828619904018831  8.5255968562725926
  9.9437338416341330  7.1013602507485798  9.9469731636733538
  8.5428778885034387  8.5455128843671400  0.0195984879357664
 10.0100474745764121 10.0073998149582941  1.4676326040378798
  8.5383556064248545  8.5412426101149332  2.8399464683500173
  9.9977923375119016 10.0011419374516404  4.2107845044407508
  8.5443467055351228  8.5451374560401963  5.6642937047291593
  9.9400939062652256  9.9433212498461057  7.1057548145247438
  8.5302722822906905  8.5310081089602239  8.5287935496704232
  9.9500553098864533  9.9478906793062336  9.9495741157839515
  2.8458185311926556  0.0000000845595521 -0.0040851640439139
