Fe Co
 1.0000000000000000
    11.3618761086397342    0.0000000000000000    0.0000000000000000
     0.0000000000000000   11.3618761066587020    0.0000000000000000
     0.0000000000000000    0.0000000000000000   11.3618761074179737
 Fe  Co 
 126   1
Cartesian
  0.1220728897092106  0.0667092675004841  0.0667267191749254
  0.0591124588638673  0.0440897479187763  2.7812757919432651
  1.4237687326355561  1.4167009089397462  4.2977203703669122
 -0.0014491526677150 -0.0036310416666447  5.6778649004522608
  1.4193124753727140  1.4211664965054369  7.1034739083288718
  0.0027234049730151 -0.0038199947287501  8.5223484516947465
  1.4308822905632099  1.4096885143979889  9.8968977785873857
  0.0591932974344545  2.7813565865130521  0.0440896925512222
  1.4237681343995652  4.2977203541065885  1.4167001856449524
  0.0617802609639452  2.7786888682211792  2.7786887961602753
  1.4183283703143592  4.2492103716728984  4.2492749055065557
 -0.0014739381633377  2.8420522719623897  5.6833267134752692
  1.4207017944154923  4.2543898475736075  7.0986633479673600
 -0.0114004278823653  2.8518179414566802  8.5089325089175603
  1.4244101203289934  4.2407899874620147  9.9561863928099719
 -0.0014164482843641  5.6779152118927803 -0.0036777188598478
  1.4193025645319959  7.1034738690944277  1.4211565496901333
 -0.0015831754931212  5.6833267015510192  2.8419429874383928
  1.4206974467008644  7.0986162685140988  4.2543992754382707
  0.0004391394928625  5.6808754049244232  5.6808422678305597
  1.4185386969478997  7.0984360260252970  7.0985034683625114
  0.0038279361576439  5.6783476395368950  8.5232213796038341
  1.4230938760070300  7.1057759781663563  9.9510392595896793
  0.0026646891624164  8.5225277875636714 -0.0037513135145739
  1.4307805333823163  9.8968977540360825  1.4095867376559645
 -0.0113488585692007  8.5089324439498704  2.8518695173429269
  1.4244423348349426  9.9561705171417518  4.2407340867049594
  0.0038968492569426  8.5232866412424251  5.6783522521647436
  1.4231149817259310  9.9509930229212351  7.1057935442561240
  0.0019426335947135  8.5218777860145298  8.5219107024967045
  1.4485782107713887  9.9742638803072676  9.9742754783057190
  4.3054474260681230  1.4095867474934280  1.4096885090053628
  2.7737596754451328  0.0667268274660646  2.7183961203898299
  4.2461587477118066  1.4160588940804346  4.2407899215990010
  2.8405963115816046 -0.0001972813661739  5.6792258288997468
  4.2513058934213177  1.4173751454956827  7.1057759931231619
  2.8410020600348598 -0.0004209403769970  8.5548326057726740
  4.2280696627218770  1.3918908529365299  9.9742638904802572
  2.7737423503680922  2.7183961965616734  0.0667092926494186
  4.2461746416318293  4.2407341140354564  1.4160267034292491
  2.7963792779497010  2.7812758757405214  2.7813565208290840
  4.2449586050533989  4.2461310876570373  4.2461234277350801
  2.8441468037029152  2.8418854559028102  5.6779151629145836
  4.2593214360324367  4.2571278755066437  7.0980478582405251
  2.8442203560226242  2.8378043739202887  8.5225278092671157
  4.2320861780515164  4.2263303165301629  9.9702721953348732
  2.8406663699259056  5.6792258341898840 -0.0001273326562548
  4.2513521272240631  7.1057935158763685  1.4173541565783105
  2.8441000578606070  5.6778649025431953  2.8419181698778684
  4.2593501491523975  7.0979430873032863  4.2571106123234026
  2.8402680894496055  5.6799294631897554  5.6800018141055446
  4.2619105273442353  7.1000066027732300  7.0999514152021588
  2.8416626075274349  5.6794764568956735  8.5234745407138295
  4.2518931295918065  7.1114952804284872  9.9505526564265505
  2.8408900098300101  8.5548326819033296 -0.0005330386108437
  4.2280811854474969  9.9742754650349035  1.3918909024731172
  2.8442890639179792  8.5223483842599101  2.8377456521309399
  4.2320728663594718  9.9702589981674876  4.2263302679044292
  2.8416114171581897  8.5234730713733526  5.6793839017681105
  4.2517924165719352  9.9504519917912884  7.1114953132642240
  2.8389682414234949  8.5250953908439229  8.5250632785106362
  4.2160237722231191  9.9863213261334103  9.9863213062009564
  5.6475124648647119 -0.0005331248233139 -0.0004209622611083
  7.0988711609884785  1.4211565389172653  1.4211664444212759
  5.6798173101677083 -0.0037513147240385  2.8378042994259709
  7.1036817292035090  1.4197672517515441  4.2543898462327645
  5.6788705735489717 -0.0011936530590107  5.6794764351715612
  7.1038416666782433  1.4219303580172040  7.0984360188485693
  5.6772818646689336  0.0015007229232190  8.5250953950298864
  7.0965516191942788  1.4173540860329688  9.9509930551840018
  5.6799966615263306  2.8377456557076779 -0.0038201049206232
  7.1037288127223066  4.2543992301745934  1.4197715828533901
  5.6934126278102122  2.8518694939054257  2.8518179968856971
  7.1023427171784324  4.2581631694565969  4.2581725172686982
  5.6791236536770695  2.8366411465290020  5.6783476562338668
  7.0993181621036427  4.2577364588089024  7.1030273414913045
  5.6804344233397508  2.8385264248053694  8.5218777971016628
  7.1044019282372988  4.2571105621191938  9.9429949595967067
  5.6788720664657149  5.6793840325686915 -0.0011423707172726
  7.1039090704001975  7.0985035136937720  1.4219303702211745
  5.6790585425459881  5.6783522120659082  2.8365722687346153
  7.0993178546846663  7.1030270242958125  4.2577364788962839
  5.6745187707062978  5.6733452333376837  5.6733523256667286
  7.0976100904276338  7.1047350882431850  7.1047351371056369
  5.6662189942153622  5.6708671202066956  8.5361249501741945
  7.1023384570651453  7.0999514106079245  9.9404346659335285
  5.6772496919540885  8.5250632887750619  0.0015007432139586
  7.0965690871201215  9.9510391951067660  1.4173751359685183
  5.6804672450414424  8.5219107651283412  2.8385264745017649
  7.1042972992686737  9.9430237290508519  4.2571278197009992
  5.6662201504690675  8.5361260583814680  5.6708671131051371
  7.1023937071659500  9.9404346780203632  7.1000066878683210
  5.6678461203704131  8.5344989869649890  8.5344989468132564
  7.0908498181470705  9.9505526563363329  9.9504520107675809
  8.5231193130149272 -0.0001273590919502 -0.0001972689408701
  9.9046248431801267  1.4167002762327965  1.4167009041852927
  8.5244300107411046 -0.0036776392491768  2.8418854550793635
  9.9530702446604469  1.4221407086669593  4.2492103723184727
  8.5223433853370256  0.0002008937692717  5.6799293978523053
  9.9479458952137527  1.4197715748236790  7.0986162851121328
  8.5229612595647577 -0.0011423912049182  8.5234730804559895
  9.9616110805441327  1.4160266656127567  9.9561705889656729
  8.5244801919194622  2.8419182148692728 -0.0036310927190373
  9.9531347191098369  4.2492749047380336  1.4221406711481914
  8.5190184256953358  2.8419430047317844  2.8420522929887313
  9.9604712631360890  4.2418739419548244  4.2418739316369383
  8.5215029197860286  2.8400298748907460  5.6808754485759847
  9.9441819247995458  4.2581725360178222  7.1000024418423706
  8.5239929226154221  2.8365722192155300  8.5232867324968193
  9.9562140982113103  4.2461234389237283  9.9573865420518768
  8.5224156187175240  5.6800018519271207  0.0002010011381186
  9.9479552986973516  7.0986633485799961  1.4197673116442562
  8.5214696855375536  5.6808422157250398  2.8400298976174283
  9.9441726112115720  7.1000024286140659  4.2581631999252938
  8.5272554401053284  5.6750896977174312  5.6750896739958838
  9.9446086396718112  7.1030273262924180  7.1030270159451243
  8.5289999371217835  5.6733523309978811  8.5278263775016381
  9.9452173446638703  7.0980478632134343  9.9430236378198522
  8.5228686729434813  8.5234745379748560 -0.0011935643706620
  9.9615552273929318  9.9561863263077548  1.4160589046335488
  8.5239974980817745  8.5232214305126295  2.8366411182209390
  9.9562217000196611  9.9573864736005682  4.2461310658591387
  8.5289927793020066  8.5278263747526797  5.6733452060195804
  9.9452344829172254  9.9429949648005049  7.0979431598753990
  8.5314779660976967  8.5361249125847056  8.5361260902608329
  9.9760149177713942  9.9702721522560189  9.9702589571522768
  2.7653395815611153  0.0751295741597739  0.0751295202762058
