Fe Mn
 1.0000000000000000
    11.3682489167815426    0.0000000000000000    0.0000000000000000
     0.0000000000000000   11.3691079786721296    0.0000000000000000
     0.0000000000000000    0.0000000000000000   11.3682489182213686
 Fe  Mn 
 126   2
Cartesian
  0.0215073606034211  0.0127956876573318  0.0033257037279433
  1.4386355763996750  1.4122815473720371  1.4034605835692238
  0.0119805513642587  0.0125361856001864  2.8300520378714822
  1.4252303631462488  1.4275049133400131  4.2423130006470693
  0.0008019634726123 -0.0023505781397250  5.6860399914465232
  1.4254048853764305  1.4180767901597029  7.1177235830475798
  0.0081407972560325 -0.0019498968146380  8.5312768362711502
  1.4383391103398531  1.4088701048716925  9.9707322472157340
  0.0235144451757712  2.8545453682149957  0.0173079435685142
  0.0228540183068724  2.8569848440575609  2.8191924801753010
  1.4219780237980373  4.2655707005333898  4.2526166193021737
  0.0098902170872608  2.8411608299290134  5.6708290553630007
  1.4209269891191585  4.2664719454128361  7.1026579597859216
  0.0093735304491842  2.8417114021666641  8.5424833695956419
  1.4243568879870396  4.2506198209799377  9.9687252954864416
  0.0207772988502510  5.6636046417736603  0.0186876934565334
  1.4260621387659569  7.1017532330298057  1.4161015487294606
  0.0231124778186604  5.6668054911214227  2.8189670383533452
  1.4216351813905461  7.0949100767449558  4.2581114833807581
  0.0059739251856631  5.6796779382977283  5.6708980116790597
  1.4205115492591855  7.1018853353767222  7.1023323358781356
  0.0095735550468447  5.6804430237322769  8.5442854887724469
  1.4253815129829281  7.1090434283942638  9.9594090613610060
  0.0121911928312167  8.5234800335861305  0.0043503982007949
  1.4406825137686017  9.9705173006628982  1.4013575480161538
  0.0105535143076569  8.5188427701718776  2.8314614714426303
  1.4255244120353534  9.9518758766239905  4.2493370843367257
  0.0053776803827129  8.5348680547442193  5.6860910877085775
  1.4249324503713929  9.9520249009395538  7.1170716812865509
  0.0061332651393838  8.5346544304451051  8.5301104578602303
  1.4397188172247215  9.9689188129423183  9.9679950834127524
  4.2397053101870030  1.4087954894020291  1.4037222525064295
  2.8387209794075807  0.0128289457530135  2.8205120605388529
  4.2537769298345536  1.4216558245867590  4.2467538658587936
  2.8421673464700596 -0.0031035848320423  5.6865670745075354
  4.2531150621176712  1.4223145334088998  7.1184699152149413
  2.8410556220606504 -0.0021164704384223  8.5366560252927286
  4.2402236606827977  1.4064305788344051  9.9700718309022385
  2.8244917849526092  2.8511338692804786  0.0176044589416989
  4.2415432701445663  4.2505865544470236  1.4176898091105770
  2.8247533739811268  2.8546200168605966  2.8186742682553607
  4.2549607618502661  4.2652898239125205  4.2581032841721047
  2.8376046174312739  2.8452646496437586  5.6716092409328347
  4.2623022403657522  4.2658179504225107  7.1032780484507843
  2.8379211931222961  2.8359503436688844  8.5469682416962396
  4.2510831461436664  4.2508793845019497  9.9591984276761121
  2.8223887707206448  5.6620062742627750  0.0196513575137348
  4.2509728193801353  7.1090204894142888  1.4166239288904796
  2.8234216753941945  5.6635005205771849  2.8213047163740952
  4.2569691589855800  7.0978080256270779  4.2591136716967508
  2.8382198915140400  5.6804167536952166  5.6722117016758569
  4.2577111334119229  7.0977176152643775  7.1031043785387009
  2.8374753025855348  5.6807496617273943  8.5399327183252414
  4.2524926039169744  7.1136807479160948  9.9577713579090226
  2.8371326612822365  8.5307701972776044  0.0050310589421073
  4.2423358592842577  9.9690229436124973  1.4023905314543690
  2.8376550819203818  8.5235031132401833  2.8299415760836459
  4.2534516250490171  9.9520611406338375  4.2450168737603011
  2.8425757548804014  8.5305693633198167  5.6869966173570017
  4.2571810979903173  9.9529165825738861  7.1183769074120882
  2.8414443167659007  8.5376694782729405  8.5312078257633317
  4.2399980848898560  9.9657179777451432  9.9703301605195840
  5.6736477393480342 -0.0021551612160796  0.0009469971626288
  7.0926403259321438  1.4181508888432577  1.4165735203232901
  5.6791343881946323 -0.0018742959375830  2.8339295874520225
  7.1081153590480906  1.4265552189881370  4.2606952681108554
  5.6783564793704899  0.0044291114827567  5.6796306631929108
  7.1083347740166483  1.4223039348340458  7.1019335757213895
  5.6707646960136877  0.0062896837232992  8.5395593730082275
  7.0918601852954186  1.4222545253988843  9.9571080094518507
  5.6633441901967325  2.8359106660147968  0.0041992499654850
  7.1075982127576456  4.2665190949801621  1.4211362641046903
  5.6677849091186170  2.8417596352089611  2.8327458626828457
  7.1006617903268943  4.2589862625476655  4.2573254108945893
  5.6817262931199695  2.8368603490690223  5.6870842897204730
  7.1002704082840280  4.2593440175366259  7.1100262537931815
  5.6818032425624230  2.8357816308674311  8.5285932764000769
  7.1070711186931339  4.2657661507233477  9.9480198319170299
  5.6703681867931088  5.6806476230380625  0.0044932505728519
  7.1080278341046972  7.1019541652952478  1.4215446179815334
  5.6660480536717452  5.6804622847710471  2.8324204836228151
  7.0996595505514319  7.1049216987371580  4.2522726588395958
  5.6850131030701769  5.6848798623217798  5.6863813595902659
  7.1001690783288716  7.1095759609470157  7.1101311476598443
  5.6813260176921832  5.6849884816237957  8.5289225450855817
  7.1071221646403169  7.0976554082020460  9.9525954337294582
  5.6791426032115160  8.5376134064318929  0.0006040345526156
  7.0932428491384227  9.9521066666828837  1.4171888337014837
  5.6801448066739653  8.5347154922630928  2.8359379960907360
  7.1074124789538873  9.9476436559370995  4.2639820426089399
  5.6733037917354467  8.5276018710213819  5.6786284487705183
  7.1075132108829377  9.9469129856462466  7.1028500969443940
  5.6724323458725259  8.5280150397239467  8.5378704903032574
  7.0919291283146002  9.9528456115643351  9.9531916948488952
  8.5236890723026431 -0.0030564525894753 -0.0001040621379063
  9.9679994856993517  1.4274650699509390  1.4168899655539227
  8.5243090478900125 -0.0024024445841477  2.8412711131634061
  9.9496243602662204  1.4276338844980996  4.2607721169915296
  8.5310573557726865  0.0040714550287238  5.6792393031424790
  9.9495415708079271  1.4265400968708655  7.1022719221519468
  8.5306998667047669  0.0043828291636475  8.5319466224111693
  9.9635144339614108  1.4217040548739701  9.9565914502643267
  8.5387547151610921  2.8453387053111325  0.0043737521753719
  9.9576870670188526  4.2655319656212676  1.4200245259741153
  8.5395009551073198  2.8411008247178318  2.8320839890460912
  9.9605904727416448  4.2571258384988857  4.2497336369175072
  8.5229646391848704  2.8411116546223223  5.6873036781138628
  9.9529777067372702  4.2590326395271774  7.1096687992785856
  8.5233030081271544  2.8368754311379436  8.5285105441743241
  9.9523079018594878  4.2653653183801268  9.9553585746500861
  8.5381027863137202  5.6804986134965727  0.0039013355340931
  9.9522389162458662  7.0948539573101517  1.4204132394138762
  8.5394079685434843  5.6796068619526574  2.8361500077656840
  9.9589016828956627  7.1045085154023822  4.2514012711087119
  8.5238811687542757  5.6856104992774643  5.6864820914291929
  9.9580390563161494  7.1049252687233011  7.1106483600421910
  8.5238647593214836  5.6848914299183759  8.5253594779237911
  9.9511415800156549  7.0978690655505368  9.9533510301729073
  8.5233634445130377  8.5306381149363091 -0.0005195038151027
  9.9609637813259777  9.9517738360232233  1.4164441450492677
  8.5241355730522788  8.5348058428542561  2.8366800257762614
  9.9499535944166215  9.9475349891322065  4.2602950562234128
  8.5311621809052927  8.5229474379667955  5.6791380361493307
  9.9463905840711444  9.9476319970970959  7.1028335935210798
  8.5316795265254779  8.5275982847589926  8.5370078921349926
  9.9653165847773320  9.9520803886371514  9.9567913143907507
  2.8415795972551150  0.0058869039587065  0.0003672551629422
  1.4213984119533527  4.2575285328279735  1.4205483544088251
