Fe Mo
 1.0000000000000000
    11.3773481290011595    0.0000000000000000    0.0000000000000000
     0.0000000000000000   11.3776812321662000    0.0000000000000000
     0.0000000000000000    0.0000000000000000   11.3773556584616760
 Fe  Mo 
 126   1
Cartesian
 -0.0080767447156352 -0.0018459988661051 -0.0017145244577210
  1.3853223669332926  1.4130995346348332  1.4590372827484945
 -0.0079910342458736 -0.0058673497806765  2.8523504921421909
  1.4195808175061895  1.4355226765554261  4.2530459108635910
  0.0055495198488804  0.0010094981550279  5.6887157881213648
  1.4202412434876468  1.4315311695060033  7.1162338547676596
 -0.0044842341961366  0.0005300456734044  8.5296942767847330
  1.3910203547871134  1.4690498165738684  9.9344720798100212
  0.0523345434652204  2.8931312776383082  0.0564481105379389
  0.0450745799995684  2.9067154898571377  2.7994589185554730
  1.4234944139432799  4.2674164913037247  4.3040202704946626
 -0.0053615216290202  2.8473100702482319  5.6889948691605090
  1.4225202745953187  4.2660790180249153  7.1129298604068083
 -0.0124468163359612  2.8531063118112310  8.5205725034608850
  1.4221386666311828  4.2636540723410512  9.9128115257601266
  0.0619950891563499  5.6362057383934907  0.0526372109220108
  1.4183424325302751  7.1638245605623210  1.4261540199534184
  0.0479124237397987  5.6400885563799346  2.7964971944981500
  1.4219795778385966  7.1010296662466246  4.2550428412226085
  0.0022245235444519  5.6900580761704163  5.6900020310788912
  1.4224195520558172  7.1036234629345021  7.1113980322784593
 -0.0063436430148373  5.6909392319316003  8.5272448543664598
  1.4196948822543882  7.1066057093241914  9.9630686380168729
 -0.0101798758114825  8.5322835585429448 -0.0037826695691929
  1.3872198578359134  9.9238483003162585  1.4569141062268514
 -0.0154873884421147  8.5243899801059957  2.8597633334614092
  1.4192647619682186  9.9521323952053145  4.2552496143662095
 -0.0048551520585290  8.5275493092693626  5.6889615888501739
  1.4192266219973078  9.9536871486494256  7.1148543581962453
 -0.0124743997711205  8.5211073505724553  8.5204217297875360
  1.3824707040141329  9.9217617834579492  9.9257472318337641
  4.2873630623418952  1.4688000607037710  1.4531476021268062
  2.8459018356885246 -0.0017396181478367  2.8521922437165381
  4.2517679048458277  1.4425410667742726  4.2462477006816162
  2.8436871925267981  0.0005896553552774  5.6860176193555230
  4.2633685155026626  1.4290729668238105  7.1163387482516667
  2.8438722841037540 -0.0011303285561300  8.5252635401386723
  4.2801169042842453  1.4774776289183540  9.9415411288682627
  2.7801384872770338  2.8915773277628287  0.0639863085381887
  4.3087703189220914  4.2637353794393889  1.4224180663992267
  2.7876167238492169  2.8931249314225185  2.7918740202519370
  4.2508170139905266  4.2643336938240903  4.2499368618363986
  2.8446530330149362  2.8374225428760438  5.6882038149402359
  4.2557533137065517  4.2647751467217994  7.1131489581653886
  2.8468126618939018  2.8443454166986424  8.5274987837271397
  4.2518740947040667  4.2629379465065078  9.9699740170128592
  2.7968778290614695  5.6480640906452715  0.0475155619471672
  4.2587134230255863  7.1066247446577107  1.4245178301891372
  2.7917887958714522  5.6363175765095788  2.7825201642536701
  4.2489558417223403  7.0947305724289320  4.2469387904927967
  2.8467609196101447  5.6907444364729320  5.6891816805631157
  4.2628290857190994  7.1075141944893199  7.1128302290368506
  2.8463908741834962  5.6927304987028409  8.5367297259935508
  4.2534254588861860  7.1014995834521315  9.9682326478767855
  2.8473626228846243  8.5309652474232447 -0.0029948310745831
  4.2958782366094450  9.9217210542926395  1.4619609221076171
  2.8482031061885182  8.5323636183974347  2.8546395410057026
  4.2658483884766341  9.9537744382456701  4.2573137140489754
  2.8443989126683831  8.5374453200843341  5.6890828841758330
  4.2676968418013352  9.9535672783253091  7.1135626334276196
  2.8444385101592573  8.5289385560942588  8.5265406690798642
  4.3018159089197825  9.9204649795090063  9.9198343787354233
  5.6965089792488177 -0.0012612640385647  0.0002975310515707
  7.1055266617369117  1.4315831468899194  1.4239278192041276
  5.6920174626656683  0.0006293688612928  2.8487274726311433
  7.1090304102691224  1.4285368258373614  4.2605553569883901
  5.6754487511855736  0.0095213956717911  5.6810522063358482
  7.1101485192884848  1.4270561634708032  7.1115301216833480
  5.6879245187821263  0.0082568767839340  8.5337090928017538
  7.1053499740984583  1.4290133331448123  9.9581755613546026
  5.6941258990673109  2.8442674838591171 -0.0022456057063740
  7.1087507035338779  4.2660324112470134  1.4218393032745449
  5.7010833974760864  2.8530769815687766  2.8568475072869361
  7.1152438167723906  4.2717005379656054  4.2623717128622767
  5.6908660463990968  2.8509460071525137  5.6887728563257225
  7.1156748113337676  4.2719268994004489  7.1060023634995995
  5.6978066749709253  2.8566208793054613  8.5238801101155079
  7.1085358570822157  4.2647699881289958  9.9659337725780617
  5.6850289192822983  5.6926030292986054 -0.0021307755810199
  7.1102709056412658  7.1036211258303164  1.4219547723863777
  5.6944202237888284  5.6910765145263884  2.8506547880734381
  7.1158543349966923  7.0985654309180291  4.2684206777941780
  5.6814578886817140  5.6861283458729490  5.6873847968511200
  7.1164811898046274  7.1000243828827765  7.1051704068543140
  5.6921790842059599  5.6859009652555370  8.5295161717577894
  7.1089028379028356  7.1075448303410562  9.9589273853559526
  5.6951977020837896  8.5289353215141972 -0.0000102876272061
  7.1068476589940301  9.9537804167966275  1.4252021259867078
  5.7012523891636864  8.5211718687484748  2.8568357782413880
  7.1102551384707580  9.9563844271567739  4.2641110242109663
  5.6859189889624480  8.5205719409765148  5.6809169540358981
  7.1096323288635555  9.9559993145266859  7.1120263984360381
  5.6942834676076055  8.5132573810059089  8.5274425311462032
  7.1081931942725252  9.9534389577632183  9.9540436263604430
  8.5356816980581289  0.0006271278884366  0.0006685477896148
  9.9688273408804182  1.4355587903384925  1.4247544328959838
  8.5330738926301688  0.0010113512824648  2.8387974308340262
  9.9730971366891001  1.4415429298402638  4.2486083249579183
  8.5399643529988616  0.0093987821246773  5.6817359478895115
  9.9611442095991549  1.4285645122094939  7.1126568630522833
  8.5406201829252240  0.0094813951232702  8.5462062040720461
  9.9753302192539763  1.4426592058787031  9.9699400609171622
  8.5334822740465430  2.8374838413975922 -0.0004510256552231
  9.9177042660534092  4.2673822316037739  1.4209128940519258
  8.5326708450896582  2.8471937898672084  2.8495507677099097
  9.9631979537266329  4.2719272567825213  4.2584297031329701
  8.5344662874274171  2.8430072118332461  5.6871291829937904
  9.9592983844093901  4.2717331134025827  7.1064247901755522
  8.5329128721046672  2.8509820037522147  8.5306969348182662
  9.9717371065057545  4.2643317025685237  9.9707848476610437
  8.5325708384756282  5.6907722945862824 -0.0022842896069924
  9.9667309399590405  7.1009973538717119  1.4223204010235573
  8.5316930875124886  5.6899783659510010  2.8421997206594822
  9.9662775213856261  7.0870269635069327  4.2554234037042065
  8.5345215221984176  5.6851064954684372  5.6871813563315845
  9.9532852190458136  7.0985340318513401  7.1058443545515919
  8.5342584128132781  5.6861331011070773  8.5402682194600406
  9.9748327040144815  7.0946667861495616  9.9727749724239185
  8.5326771422535490  8.5374482354386423 -0.0000272045515758
  9.9664608596835578  9.9520718030321671  1.4250147686275143
  8.5326939037969360  8.5274904334941741  2.8492010144762854
  9.9588770050104785  9.9555516813957201  4.2628317945030378
  8.5395458540218279  8.5285150675635499  5.6821522207160919
  9.9575467812978431  9.9563401452942717  7.1114810322809410
  8.5407568005913514  8.5205175606305552  8.5357615192655469
  9.9643668834530974  9.9537498744583548  9.9557443516159498
  2.8525792885858974 -0.0108547933283879 -0.0082711035251660
