Fe Ir
 1.0000000000000000
    11.4207060733356460    0.0000000000000000    0.0000000000000000
     0.0000000000000000   11.4207060734757899    0.0000000000000000
     0.0000000000000000    0.0000000000000000   11.4207060731292902
 Fe  Ir 
 126   2
Cartesian
  0.0294755238144573 -0.0072747619905274 -0.0071174432459066
  1.4275883574444594  1.4275880463119364  1.4275881973231874
 -0.0072746387918718  0.0294755696575789  2.8622939530225859
  1.4416852188886324  1.4135349879586070  4.2839239168712826
  0.0029331119281819 -0.0051015012312793  5.7172437674587453
  1.4273569932117436  1.4273572003714139  7.1379414422822469
 -0.0051015755630030  0.0029331206617090  8.5586390284749871
  1.4135348942785140  1.4416849719462461  9.9919583688447542
 -0.0071174027037392  2.8624509823317630  0.0294756358097699
  1.4416419829779572  4.2839244031308894  1.4134913058195067
  1.4383197007682218  4.3069193862011614  4.3068862487822095
 -0.0038163835047260  2.8591321775056038  5.6859228020671511
  1.4253899784185862  4.2907906022776263  7.1299173865716785
 -0.0114167131911146  2.8665550325999605  8.5548483808862663
  1.4275881663454115  4.2904112637410936  9.9854714388358179
  0.0030084744413320  5.7172486448941511 -0.0051042884437130
  1.4278196441604440  7.1379411918713753  1.4278195039852413
 -0.0039555233821986  5.6859229337836616  2.8589928029197700
  1.4250584165319859  7.1297288128499998  4.2909781121798218
  0.0003505302465157  5.7136584969486597  5.7137885069760372
  1.4275883040560415  7.1380089618040898  7.1378736287783031
 -0.0057874025337614  5.7041999578148159  8.5605947782052958
  1.4297866222708016  7.1459652673081022  9.9850918934231174
 -0.0051043401407967  8.5586340908692513  0.0030085407220041
  1.4134911186171690  9.9919582770815065  1.4416419015409483
 -0.0113786229230306  8.5548483185107962  2.8665934496932781
  1.4275882426397564  9.9856626241930542  4.2902200863500548
 -0.0057567841980113  8.5605856557483317  5.7042609558405886
  1.4301181583391736  9.9849044325311684  7.1461538325502936
 -0.0154204805560351  8.5514998451431907  8.5515443366263870
  1.4168565767370862  9.9689962253261442  9.9689628927773608
  4.2839238378871514  1.4416415187943141  1.4416851319048407
  2.8624512836960809 -0.0071173781781506  2.8257009964150792
  4.2904111142610413  1.4275883123407855  4.2904111712639663
  2.8665547948750221 -0.0114167842697673  5.7210341948013648
  4.2907908066895857  1.4253900617086315  7.1459654219500441
  2.8591321253258117 -0.0038163877416293  8.5899597203828542
  4.3069193949949609  1.4383195588226538  9.9689963581092780
  2.8622939404644923  2.8257006620334568 -0.0072746292181955
  4.2902199718940546  4.2902199818900719  1.4275882337329042
  2.8257009488018525  2.8622939252260609  2.8624512146549068
  4.2855028706440645  4.2910402361290618  4.2907045673433020
  2.8602807345642933  2.8521681379898483  5.7172487781001200
  4.2942352596455073  4.2942352266714741  7.1379414388736224
  2.8521676506274809  2.8602807853845347  8.5586338452368160
  4.2910403251000311  4.2855026188429743  9.9851778892504370
  2.8665932459451735  5.7210344016476036 -0.0113786171687073
  4.2909780737013286  7.1461539109087449  1.4250582743177833
  2.8602777643314115  5.7172435647731668  2.8522434459949784
  4.2942809009400253  7.1379413575660813  4.2942809654688547
  2.8705968097099865  5.7243382480955480  5.7243828931328640
  4.2938576163935505  7.1368485717807086  7.1369682774705048
  2.8609639826287911  5.7152879273167834  8.5716827513231255
  4.2893239500535438  7.1444286661894685  9.9864172977146755
  2.8589930466745836  8.5899597333708773 -0.0039556118723826
  4.3068865376833765  9.9689628044060150  1.4383198906211816
  2.8522435132027995  8.5586390995837380  2.8602779658514645
  4.2907047553119568  9.9848423917592193  4.2855026807356715
  2.8609332076060490  8.5716217992400718  5.7152968667673765
  4.2894653658419104  9.9865584331592370  7.1444282550988820
  2.8548260676428776  8.5620940983838043  8.5622241872198810
  4.3053704315652137  9.9705121609910776  9.9705122322042250
  5.6859227602079816 -0.0039554702570462 -0.0038165020167784
  7.1379414559841603  1.4278195407725280  1.4273568183638206
  5.7172485637993518  0.0030083094957815  2.8602807532463914
  7.1459650943328983  1.4297865807948922  4.2907908238085124
  5.7041999032044171 -0.0057875520377556  5.7152875129730978
  7.1380090129410725  1.4275884527777660  7.1380089804051483
  5.7136584396865304  0.0003505537480555  8.5620944555083849
  7.1297288006851387  1.4250582416491504  9.9849042102103365
  5.7172435508869262  2.8602779843093282  0.0029330777543525
  7.1461538118528791  4.2909782446960243  1.4301180996702876
  5.7210343430157025  2.8665933350121859  2.8665551599631010
  7.1444282687668279  4.2893239201707321  4.2894654882488066
  5.7152878436937566  2.8609639445778949  5.7041999288843197
  7.1368485563603601  4.2938574898343793  7.1389140886874172
  5.7243382945006109  2.8705972348218207  8.5514998062545242
  7.1379413085829508  4.2942808556618335  9.9816015066933090
  5.7042608284239122  5.7152969755809551 -0.0057566277565105
  7.1378736951368786  7.1378735058604157  1.4275881848450669
  5.7152968889808058  5.7042609087566776  2.8609331064184111
  7.1369685759423351  7.1390342250301462  4.2938578066488526
  5.7099918274569381  5.7137118487461214  5.7136781983818272
  7.1379413041771924  7.1379412389938386  7.1379409914723366
  5.7137117045024519  5.7099918033912953  8.5622046877939155
  7.1390338248370719  7.1369683898231555  9.9820250444071430
  5.7137883196566523  8.5622241522562312  0.0003506238515217
  7.1299171960853895  9.9850918769848764  1.4253900296807149
  5.7243827718035378  8.5515443915034108  2.8705968689863308
  7.1379414521842897  9.9816472698303169  4.2942355423723102
  5.7136780703807597  8.5621710193007381  5.7099919208335388
  7.1389141516593195  9.9820248423063518  7.1368485271609376
  5.7255365989982279  8.5503462697644341  8.5503462798434189
  7.1314543746974071  9.9864173619923768  9.9865586478754054
  8.5548482106425947 -0.0113785494026974 -0.0114172100467040
  9.9919583131958607  1.4134909892014911  1.4135345960784651
  8.5586340594992816 -0.0051043828825460  2.8521677707546087
  9.9689962014241509  1.4168568468213465  4.3069195000298581
  8.5514996699299459 -0.0154206399029283  5.7243382536484129
  9.9849044485592184  1.4301182637281278  7.1297288068286644
  8.5605857022077565 -0.0057566406653249  8.5716218176198922
  9.9856625601552071  1.4275882538094395  9.9856626810273017
  8.5586391615951687  2.8522435322234725 -0.0051016471743097
  9.9689624271877832  4.3068867262227526  1.4168563234779494
  8.5899597076851837  2.8589931106303741  2.8591320815436623
  9.9705120930521289  4.3053704220091564  4.3053704276725018
  8.5620942276922278  2.8548258713535959  5.7136583924633042
  9.9865584421303382  4.2894650404315406  7.1314543852998593
  8.5716217871296649  2.8609331680783474  8.5605857022548495
  9.9848424157207560  4.2907046751648767  9.9903799837690155
  8.5515442013532947  5.7243827143353885 -0.0154204104436335
  9.9850919006114225  7.1299171290363637  1.4297864758191796
  8.5622241680135751  5.7137882720690385  2.8548259014022199
  9.9864172079181390  7.1314544080479747  4.2893240395311185
  8.5503462650033448  5.7255365820976056  5.7255364022400652
  9.9820252611630007  7.1389141465000305  7.1390340308811000
  8.5621707894858226  5.7136779856751012  8.5658903445187722
  9.9816474011672529  7.1379414054232342  9.9816473771332230
  8.5605949282777072  8.5716827028856617 -0.0057875743825276
  9.9854716458660775  9.9854715681598254  1.4275883577519048
  8.5716827769524997  8.5605949401790102  2.8609639643715359
  9.9851778239765157  9.9903798791917851  4.2910402880452088
  8.5622044130185806  8.5658908280948260  5.7137116142446187
  9.9816015235401050  9.9816016025179604  7.1379412883015094
  8.5658907376024871  8.5622046937022596  8.5621707651243728
  9.9903799938909437  9.9851778271515332  9.9848423523785801
  2.8718233176245129 -0.0166461240100821 -0.0166471605258505
 -0.0166464895941749  2.8718229530558288  2.8718242048885241
