Fe Ag
 1.0000000000000000
    11.3961714138126577    0.0000000000000000    0.0000000000000000
     0.0000000000000000   11.3961714081392902    0.0000000000000000
     0.0000000000000000    0.0000000000000000   11.3961714131108813
 Fe  Ag 
 126   1
Cartesian
 -0.0031720439619128  0.0174609408265951  0.0173588520212116
  1.3190196614784111  1.5300231525766661  1.5300231745037032
 -0.0264650526232745 -0.0334029981040962  2.8754325455886609
  1.3700523447468917  1.4788994739776193  4.2351780259802299
 -0.0105255149690148  0.0078881410632172  5.6899253316930603
  1.4154075987587051  1.4334641636182006  7.1240560626437635
 -0.0337904130631158  0.0073676786412866  8.5189663974374099
  1.3834137240561211  1.4657024731271739  9.9246424446340935
 -0.0263897041986601  2.8755079941955861 -0.0334029941735411
  1.3701434293279373  4.2351779781573864  1.4789905240663515
  1.3703539631234523  4.2282568676141468  4.2282429384904372
 -0.0060621842611092  2.8551229759331345  5.7346180337911186
  1.4182236002724358  4.2900909875655060  7.1086204360796232
 -0.0311352599595925  2.8802412700712914  8.5175097583964323
  1.4157033525486102  4.2752716684574343  9.9607451595549126
 -0.0104020792794864  5.6898912593800395  0.0079601571877891
  1.4155787365417476  7.1240560919056000  1.4336352953373306
 -0.0060801108817934  5.7346180417080808  2.8551050226962000
  1.4180804249952750  7.1086640834953911  4.2901150905486265
  0.0000121942324771  5.6835697021762881  5.6835947078281741
  1.4138372391825522  7.1056002288926043  7.1056269829487606
 -0.0072818191066692  5.6905127928285166  8.5400209856965414
  1.4132028595762538  7.1236431767835242  9.9644568039305472
 -0.0337504443630645  8.5187949891406021  0.0072884950939924
  1.3833403291333020  9.9246422814866424  1.4656291900852494
 -0.0311983919712948  8.5175097359698384  2.8801781861843576
  1.4156945204221449  9.9607630060731029  4.2751847312476468
 -0.0073199610747268  8.5400016416436930  5.6905541353796822
  1.4131335655197843  9.9643972988380280  7.1237163353089619
 -0.0275402075105482  8.5199229767722002  8.5199737776131901
  1.3921964301609748  9.9380935984728112  9.9382639942732265
  4.3205718764142267  1.4656291064239149  1.4657024337441986
  2.8315819425879671  0.0173588480247001  2.8522149177962777
  4.2844691687360026  1.4333394456851463  4.2752716918217510
  2.8333109811200456  0.0155723357900607  5.6815805158369388
  4.2807575321761488  1.4358400202187958  7.1236432207718083
  2.8440695111485601  0.0048814721741613  8.5415214602730387
  4.3069502764096930  1.4568463172406174  9.9380936287303498
  2.8316839924631454  2.8522149467708338  0.0174608979604062
  4.2844512224773723  4.2751847721013911  1.4333483411598082
  2.8824458712594221  2.8754325473116946  2.8755079695647092
  4.2828331292487345  4.2879925014099509  4.2878982079731456
  2.8410827451972667  2.8594448996374084  5.6898912713984808
  4.2822418632811079  4.2891820101459865  7.1104858306818102
  2.8417543396089053  2.8827933308036466  8.5187949988310638
  4.2838356538283549  4.2758875958167515  9.9612872349475499
  2.8334704591691064  5.6815805329961826  0.0157318191501470
  4.2808169464027719  7.1237163957498684  1.4359092901807322
  2.8411546299851995  5.6899252779486158  2.8595682859776907
  4.2822034229924952  7.1106647635037818  4.2892110473121434
  2.8321204396054407  5.6802120183843883  5.6801685585179973
  4.2709339023902757  7.1008516678228002  7.1008798105548196
  2.8427190662220143  5.6942476822502019  8.5385954913054238
  4.2759172404679457  7.1161728310826700  9.9693109080948474
  2.8441613412470725  8.5415214656005354  0.0049733922104819
  4.3071206482770483  9.9382639784614213  1.4568463195577166
  2.8416751846001711  8.5189664056093211  2.8828331968310512
  4.2839270114994159  9.9613786640695441  4.2758874685188033
  2.8426711641892752  8.5386373663755020  5.6942754113972240
  4.2759033216405893  9.9692969885406182  7.1161728234557424
  2.8423884261715653  8.5146357149145260  8.5146544701564011
  4.2967908913359345  9.9484233401361060  9.9484233699457683
  5.7036928041329276  0.0049733086554979  0.0048815115468179
  7.1211581985110097  1.4336353011146039  1.4334641282805620
  5.7264192901540616  0.0072884454740644  2.8827933318792027
  7.1365938525314876  1.4308192973141787  4.2900909736694501
  5.7066188219535219  0.0063237689491664  5.6942476662697166
  7.1395872563155329  1.4352056302583887  7.1056002337148980
  5.7305598920761387  0.0066544438660075  8.5146357236506702
  7.1214979117714261  1.4359093234807256  9.9643972776553067
  5.7262478600752518  2.8828332155775254  0.0073676459662107
  7.1365501300488656  4.2901149868988533  1.4309624063594744
  5.7277045995697140  2.8801781387013663  2.8802412461641484
  7.1338871832358492  4.2881907896463041  4.2882588985973911
  5.7051932745547127  2.8563246623580110  5.6905127861172122
  7.1363688844135051  4.2846710461282029  7.1088493311500178
  5.7252405732925338  2.8765830530533387  8.5199230010542504
  7.1345494487309251  4.2892110933271956  9.9630107356334801
  5.7065768934313823  5.6942754449656698  0.0063717125223182
  7.1396140607652141  7.1056270121472620  1.4352056474536465
  5.7052125622030907  5.6905541804107802  2.8563628358065518
  7.1363649503372439  7.1088453438156414  4.2846710390936176
  5.6959735727637808  5.6926092374591271  5.6925617735707688
  7.1461836468014548  7.0990308236919279  7.0990307528180852
  5.7065571646569699  5.6999737574253757  8.5386276550436477
  7.1443625856579480  7.1008798341969177  9.9742803973438914
  5.7305785291622149  8.5146544407556632  0.0066544298715998
  7.1215710106078074  9.9644567602249037  1.4358400038102646
  5.7252912924944663  8.5199737221127627  2.8765830403271764
  7.1347284319671846  9.9629724598375642  4.2891819610894331
  5.7065866104165641  8.5386569390278346  5.6999737190797930
  7.1443344091348511  9.9742803291287512  7.1008516778733535
  5.7275871530172537  8.5176271370900274  8.5176271830397319
  7.1290414450498911  9.9693109429454019  9.9692969822277604
  8.5636337972070056  0.0157318841545456  0.0155723419218332
 10.0100362285864062  1.4789905494402147  1.4788993740981919
  8.5553230231045863  0.0079601054055325  2.8594449662415000
 10.0169713634528481  1.4786888183591400  4.2282568969724394
  8.5650456461845934  0.0169224302391698  5.6802120555549696
  9.9550992520533441  1.4309624715838745  7.1086641200138274
  8.5509388617486675  0.0063716321053785  8.5386373905709139
  9.9700294870406072  1.4333484324704513  9.9607630315610596
  8.5552889825987268  2.8595682915477623  0.0078881859936782
 10.0169573777563716  4.2282429012899501  1.4786889018329004
  8.5105961698975960  2.8551050169276539  2.8551229852511777
 10.0252593000602488  4.2199549899532478  4.2199550196050293
  8.5616195621170164  2.8490306547517599  5.6835698094326457
  9.9570234674451292  4.2882588993037070  7.1113270274334637
  8.5546601274968168  2.8563628013313265  8.5400017689551486
  9.9572217839738180  4.2878982301724013  9.9623811019264785
  8.5650022446848926  5.6801685645845490  0.0169223819246223
  9.9551232576955702  7.1086203255909730  1.4308192942071989
  8.5616446130966768  5.6835948054839429  2.8490307405578785
  9.9569554107412195  7.1113269799597356  4.2881906711794526
  8.5699202137977064  5.6752940455534757  5.6752940698511329
  9.9605432722430791  7.1088492882493011  7.1088453895564045
  8.5526049908602904  5.6925617830515245  8.5492407191539534
  9.9560322282071265  7.1104858251735594  9.9629724329805622
  8.5509667426850466  8.5385955230766299  0.0063237675889779
  9.9699425261623880  9.9607451895413579  1.4333394913700777
  8.5547014243752884  8.5400210450684160  2.8563246921649550
  9.9573160653494970  9.9623811099099395  4.2879925059514736
  8.5526525270794984  8.5492407386520082  5.6926092726621400
  9.9560031630575185  9.9630107881730758  7.1106648114141748
  8.5452405755178802  8.5386276317555936  8.5386569437810067
  9.9693267092889482  9.9612873216609987  9.9613786151387060
  2.8211901591863007  0.0278527210945549  0.0278527634574475
