Fe Au
 1.0000000000000000
    11.4471498700001248    0.0000000000000000    0.0000000000000000
     0.0000000000000000   11.4558094679330651    0.0000000000000000
     0.0000000000000000    0.0000000000000000   11.4471498606633819
 Fe  Au 
 126   2
Cartesian
  0.0170974574605976  0.0000000199378256  0.0170974427168063
  1.4308938756278278  1.5557208604099744  1.4308937037486804
  1.4748370185958433  1.4806804303878889  4.3381128899341848
 -0.0094817816981237 -0.0000513176761377  5.6928606640218540
  1.4308936652077411  1.4411959021269720  7.1544686673645419
 -0.0223880851982607 -0.0000446515212185  8.5684789453050385
  1.3869506755441579  1.4806804555397133  9.9708242589708789
 -0.0150439685129951  2.9042299247611609 -0.0150408101650179
  1.4308937956041763  4.3272312902697774  1.4308939667598952
 -0.0276043653312839  2.8921833138179900  2.8895292179200109
  1.4325137226120150  4.3158093706695997  4.3130561768232285
 -0.0128868917072408  2.8929801336056982  5.7375288701094371
  1.4308936706704674  4.3174281161876085  7.1544684387989479
 -0.0306956270261911  2.9045163695507177  8.5572819354871381
  1.4292736741110972  4.3158094288199074  9.9958810667848308
 -0.0184350434888467  5.7279047324185433 -0.0184348365010603
  1.4308937014121048  7.1285784054752686  1.4308938845002186
 -0.0182170316581222  5.7279047901375373  2.8800045306172235
  1.4327783165474026  7.1399415156839838  4.3129249526369158
 -0.0017512677936544  5.7278831213300156  5.7347785986574031
  1.4308936947424080  7.1383548933592476  7.1544687724050382
 -0.0137001712873841  5.7278622464314868  8.5751861144362831
  1.4290090753304918  7.1399415771256001  9.9960123232608282
 -0.0150408193687391  8.5515794467445563 -0.0150439626282157
  1.4308938438647310  9.9000884476910489  1.4308941028929940
 -0.0277418606638021  8.5636260841874332  2.8893919471975278
  1.4748182037031126  9.9749919749356000  4.3377215083106231
 -0.0127680772169618  8.5628130938359543  5.7375486891198868
  1.4308935180193811 10.0140533299384291  7.1544686922526459
 -0.0306201474763271  8.5513107375358768  8.5573927282912461
  1.3869694434274285  9.9749918673535571  9.9712155258697575
  4.3377216585728933  1.4808176007570026  1.4748178066461979
  2.8446902247125179 -0.0000000514249214  2.8446901145441181
  4.3079544858702992  1.4489680791243931  4.3078755067935157
  2.8841754878200132 -0.0000442255701297  5.7404586044130141
  4.3092372567394293  1.4466114102882572  7.1648845171072022
  2.8712690884624603 -0.0000513137725476  8.6160768701384747
  4.3504502870028467  1.4784308672583768  9.9588249868706011
  2.8893919373310304  2.8921834776834001 -0.0277419603129213
  4.3129250757745456  4.3158682975644060  1.4327780777651791
  2.8768316089356558  2.9042299004550673  2.8768284319979567
  4.3145477799147347  4.3190868392373822  4.3144790676664222
  2.8924835253566230  2.9045163441598421  5.7516553173642420
  4.3142434554044868  4.3198108924475056  7.1560990736570487
  2.8746744752899929  2.8929801677819040  8.5714087070841956
  4.3184656458032462  4.3099668001221820  9.9906354587119157
  2.8800048579553796  5.7279047401696168 -0.0182171506214047
  4.3130563777164603  7.1399999222382826  1.4325135609505499
  2.8802223896794610  5.7279046243730072  2.8802222758012257
  4.3144790809225499  7.1367225245544086  4.3145478202876406
  2.8754878493213525  5.7278620762720518  5.7337508966427890
  4.3142512893671006  7.1360139617947231  7.1561198708877081
  2.8635386286746760  5.7278834026364791  8.5741590069064593
  4.3183020583585163  7.1458424339952487  9.9904719697552391
  2.8895293474659733  8.5636260774807926 -0.0276042461421477
  4.3381126520269548  9.9751294009179237  1.4748367370511652
  2.8768281278099925  8.5515797063323564  2.8768314904699150
  4.3078754547800253 10.0068412430431977  4.3079546433573110
  2.8924075126681288  8.5513105233983051  5.7515445412546784
  4.3095077971396245 10.0092383688862281  7.1647126081212100
  2.8745558323710734  8.5628128944756714  8.5713887821386923
  4.3501123294496082  9.9773784329786466  9.9584866851341243
  5.6928610650520319  0.0000516943854562 -0.0094818449772493
  7.1544688450056846  1.4417560634164719  1.4308938374902529
  5.7404584023126084  0.0000442674533326  2.8841753001164130
  7.1647129709558959  1.4465709066751151  4.3095076680384743
  5.7333870946393874  0.0000000409507475  5.7333868639633359
  7.1544684991985985  1.4449103023085805  7.1544686407634464
  5.7398628544625048  0.0000000578996873  8.5690742748828637
  7.1442245548443335  1.4465709072247392  9.9994297217981352
  5.7375486505017097  2.8929966433618519 -0.0127682915945394
  7.1544689172379501  4.3174547469057103  1.4308934915860765
  5.7515443343121069  2.9044988781711094  2.8924078543082601
  7.1561194831128700  4.3197955126018313  4.3142512960234676
  5.7351006436765450  2.8852779821454138  5.7351954785438872
  7.1544690321468876  4.3257452979615030  7.1544682913607573
  5.7558425978787788  2.8912585769967656  8.5530725259623086
  7.1528175883388005  4.3197955034550777  9.9946861693684497
  5.7347781633084907  5.7279262044623076 -0.0017509952125836
  7.1544689289674377  7.1383810079317929  1.4308936413419620
  5.7337511647759669  5.7279473504632055  2.8754876955955049
  7.1560991112426997  7.1359983078898379  4.3142435889422979
  5.7243465151110344  5.7279048967423796  5.7243459801195531
  7.1544684940549779  7.1300644351871387  7.1544685171788265
  5.7346701085298415  5.7279048785412616  8.5742670218422923
  7.1528386396225843  7.1359984658161668  9.9946940065562213
  5.7375286242859325  8.5628293949639360 -0.0128869376384703
  7.1544683600817072 10.0146134316648059  1.4308937531598247
  5.7516549950860592  8.5512932472377816  2.8924835902880073
  7.1648848112057193 10.0091980793437116  4.3092371390181743
  5.7351954639626150  8.5705317298659143  5.7351005926203156
  7.1544684990233893 10.0108992621909021  7.1544684768682822
  5.7558645897677900  8.5645505368070651  8.5530945619328413
  7.1440528093991524 10.0091980982121846  9.9997001339682736
  8.5684789014094704  0.0000445848298773 -0.0223879305940449
  9.9712151643628797  1.4808176634928358  1.3869692978832848
  8.6160767439259551  0.0000514760191015  2.8712693984733928
  9.9584867151354839  1.4784307040444173  4.3501125363560549
  8.5690743223016046  0.0000002613526541  5.7398629610415695
  9.9996999969845675  1.4466115506902013  7.1440526173899759
  8.5755505146616802  0.0000000291238354  8.5755505504656586
 10.0009830034622738  1.4489679398719755 10.0010619151622890
  8.5573928208668608  2.9044987652387304 -0.0306199910704983
  9.9960122569287364  4.3158681191901467  1.4290092985695206
  8.5713887723201427  2.8929966275542869  2.8745555311818496
  9.9904715918037805  4.3099669764995960  4.3183018845367318
  8.5530944379620646  2.8912586931410336  5.7558648013125131
  9.9946940460043017  4.3198113588080709  7.1528383797282729
  8.5738370453914925  2.8852778188490982  8.5737418354471746
  9.9943897552095589  4.3190871078010584  9.9944582674212441
  8.5751862976361490  5.7279474456121511 -0.0137001113103486
  9.9958809294356801  7.1399997364736771  1.4292736445556766
  8.5741591733032418  5.7279262817922323  2.8635384481323372
  9.9906353174994784  7.1458426156648898  4.3184655742083917
  8.5742670532499243  5.7279049846338941  5.7346701056961233
  9.9946860775629531  7.1360136205037987  7.1528176592048007
  8.5845912720243849  5.7279048226257423  8.5845911329108997
  9.9944585605104876  7.1367225727903447  9.9943894808420044
  8.5572820896888970  8.5512929134952529 -0.0306959387078134
  9.9708244869485139  9.9751289781584997  1.3869505394794470
  8.5714084888820352  8.5628292316774708  2.8746745302604384
  9.9588249882568771  9.9773786372217721  4.3504504593027447
  8.5530725574991777  8.5645503812613253  5.7558428312490113
  9.9994296830189970 10.0092384295009786  7.1442244514578697
  8.5737417453361644  8.5705314010019542  8.5738370627103233
 10.0010617446857957 10.0068417861677119 10.0009828171493051
  2.8885045194756649  0.0000003485317459 -0.0267171689691989
 -0.0267171409252430 -0.0000000605789282  2.8885046884746579
