Fe Au
 1.0000000000000000
    11.4493863323124554    0.0000000000000000    0.0000000000000000
     0.0000000000000000   11.4502204179387572    0.0000000000000000
     0.0000000000000000    0.0000000000000000   11.4493863307505404
 Fe  Au 
 126   2
Cartesian
 -0.0078960480433834 -0.0100736157870792 -0.0064535733845491
  1.3946699005874947  1.4805232724235189  1.4679805958120924
 -0.0266315401835421 -0.0014897908629846  2.8891701211762864
  1.4240750459581841  1.4254454051278806  4.3216614333812728
 -0.0190257946899843 -0.0121695948768556  5.7358378106237211
  1.4208524834326302  1.4264335449406487  7.1477972918266097
 -0.0254151840088939 -0.0167846717030842  8.5540473821493030
  1.3779919180687605  1.4573071118829968  9.9581823125886917
 -0.0600306477057472  2.8365255891294403 -0.0531813910055830
 -0.0765944774337220  2.8364699081137137  2.9387695891890360
  1.4243936224908951  4.3029140434497632  4.2940842798297822
 -0.0204186290994889  2.8656786330976964  5.7290561213945805
  1.4225198471971341  4.3043896648891158  7.1416492880936664
 -0.0447331716941526  2.8855967538935254  8.5464281094800789
  1.4247197192627035  4.3039061277517900 10.0103170001509731
 -0.0514455453771128  5.7583097875673905 -0.0393136881747932
  1.4274661695556656  7.1521254596528694  1.4351547312989277
 -0.0495073285885952  5.7636949146135272  2.9117228714513272
  1.4245945091066805  7.1594769502088180  4.3205428222127145
 -0.0082403396899180  5.7349667332110537  5.7236925724179004
  1.4229784554714955  7.1566418765498723  7.1454862596365869
 -0.0224907094449070  5.7325128857775018  8.5690798508729156
  1.4180537405874283  7.1657718446371188  9.9916916668909348
 -0.0265214011505427  8.5782812744174226 -0.0131196051618069
  1.3904182502188227  9.9988952836348250  1.4720444717793655
 -0.0381410774306793  8.5621735390973139  2.9004470212726163
  1.4220767010856723 10.0113100078217254  4.3139244232862586
 -0.0173835622124945  8.5873348536824974  5.7347582349691546
  1.4220563038509821 10.0115246242597369  7.1534698731267214
 -0.0353480572147585  8.5724735916673840  8.5470644602034973
  1.3918595146129322  9.9857432381627032  9.9667674394814352
  4.3539979446681158  1.4573039264910399  1.4838961501291250
  2.8690924984940853 -0.0097703660216286  2.8700669125779243
  4.3384533767375837  1.4081483318046111  4.3340661905506144
  2.8709082771100896 -0.0104923788983321  5.7389526797812858
  4.3137933745671919  1.4283007595343911  7.1514601661127033
  2.8689266278324133 -0.0090037075625041  8.5863683942983560
  4.3699428766476922  1.4573627361436237  9.9416184156006526
  2.8991537886937295  2.8133093155204478 -0.0365034171823163
  4.3012402019567917  4.3036030450991056  1.4379192508367216
  2.9150694502201544  2.8365287733793303  2.9228247195497019
  4.3189609278682033  4.3106476901919892  4.3262905561563230
  2.8724083815370660  2.8673033923120625  5.7328117092344071
  4.3125322590014425  4.3059398594961582  7.1445878045381166
  2.8697857808843796  2.8686345702811016  8.5588727339300004
  4.3203434272430803  4.2953224546859250  9.9915815529398895
  2.9032176719927105  5.7451578308205642 -0.0407549818685107
  4.3202561548836647  7.1658765677387564  1.4441910537682998
  2.9016455734536200  5.7582408679195796  2.9137189250707594
  4.3289638741497356  7.1716136747821757  4.3335778921164376
  2.8716548138053062  5.7323489888123218  5.7270557774192286
  4.3109163009475431  7.1566734306685067  7.1457747126970697
  2.8713682785316168  5.7329032874966561  8.5665552535186826
  4.3316202909360140  7.1818795452708937  9.9800719208087934
  2.8663280862318170  8.5919276292972704 -0.0037071358370089
  4.3448922086395392  9.9858122917294043  1.4704723425633703
  2.8753643337842778  8.5781764253543038  2.8890829568970475
  4.3158149783943198 10.0114271894895008  4.3115326647955152
  2.8705650171735013  8.5874192388718562  5.7350217251528095
  4.3018405078636910 10.0092560873708099  7.1569308327532895
  2.8689564099149338  8.5844674311009168  8.5600444831180571
  4.3428961852450261  9.9803580974935464  9.9687057573668252
  5.7252575649765367 -0.0090814541374340 -0.0067796733775754
  7.1639849780087115  1.4265293224838793  1.4412350325083787
  5.7574638381634067 -0.0168150483889931  2.8877876700163876
  7.1679524688716816  1.4263110304823463  4.3162278104286536
  5.7503486230988443 -0.0152345916739376  5.7366102469860092
  7.1678897598837423  1.4380770539015375  7.1438718329295421
  5.7544743439101236 -0.0148506668815485  8.5573266368174785
  7.1602294130369906  1.4281540373822614  9.9977944855393677
  5.7528347107069804  2.8683872175700267 -0.0070982072832999
  7.1701260166075285  4.3043250352574098  1.4397348620197987
  5.7652394395209070  2.8856842700972560  2.9072800226352502
  7.1677835133947152  4.3090672159898986  4.3191753437266893
  5.7474010833157143  2.8675216144106246  5.7367791722149066
  7.1702104467949077  4.3100137560767893  7.1415082676049169
  5.7698220634220529  2.8886586968939971  8.5419391095102100
  7.1670110020603879  4.3060022756015250  9.9991872812559510
  5.7450978375421915  5.7327431478253725 -0.0090966386437240
  7.1661949743644922  7.1566337594119451  1.4393916919830967
  5.7427059517381869  5.7326258192976214  2.8846416561323882
  7.1676281322294209  7.1547424845291809  4.3172114351805941
  5.7356140375575775  5.7344408832718017  5.7376591161371975
  7.1700585088806381  7.1431431379676225  7.1416450401251854
  5.7479373558056093  5.7333901678990378  8.5637885472644406
  7.1659316211483928  7.1567182040465926 10.0008294395063224
  5.7517161388232196  8.5845762370883936 -0.0065789183364130
  7.1582290973570490 10.0117041306798900  1.4404815687167840
  5.7647511175856776  8.5724394558258670  2.8977906607234418
  7.1688324203803164 10.0096122122713300  4.3044407506735558
  5.7483847276531499  8.5893105697392844  5.7364548032645226
  7.1653984368171493 10.0090519497312158  7.1462345207525848
  5.7659733057755691  8.5676503535816959  8.5457540551139459
  7.1548659173193867 10.0090862911285203 10.0099726583021127
  8.5728225975870487 -0.0105570492823170 -0.0086534128514170
  9.9900459182731289  1.4251981000635974  1.4386125516877968
  8.5757611300590302 -0.0121072487977898  2.8813589880883481
  9.9731124210101036  1.4051740064736999  4.3386488551086515
  8.5726815438009609 -0.0161810580331055  5.7390370649816420
  9.9955229955184883  1.4263470381398871  7.1437613782111828
  8.5750877230919951 -0.0152345518734456  8.5613474821414606
  9.9776014408238769  1.4082358940788706  9.9734798224483718
  8.5789705795842277  2.8673990410018502 -0.0103207306051635
 10.0175417024109379  4.3028363099124824  1.4377533058821514
  8.5826334579837287  2.8655318516563812  2.8826200178417030
  9.9884999697347485  4.3086834000739360  4.3233010214579988
  8.5750450794676478  2.8557555181010126  5.7367164630203025
  9.9925208158216972  4.3090672780669719  7.1439144291750978
  8.5749346199676744  2.8674855107918922  8.5643497070321786
  9.9852206803044812  4.3106173592034231  9.9927978518257010
  8.5846432418931418  5.7325285260893519 -0.0091169138919973
  9.9912177848284820  7.1595855463340001  1.4377830542884313
  8.5881041360074626  5.7347969351377817  2.8706672648961193
  9.9769273529832105  7.1764027507123211  4.3348000966073297
  8.5774078339706215  5.7350011898814408  5.7342250804163699
  9.9945172627870491  7.1547687857842099  7.1440716309212684
  8.5740908023494331  5.7344909068944707  8.5760610966335911
  9.9782377368107191  7.1715795364897561  9.9828649037575605
  8.5766594955838542  8.5874112477612012 -0.0081948855137551
  9.9977284742832246 10.0111497590252032  1.4401949827317992
  8.5769479690772172  8.5873797895469437  2.8797429003533419
  9.9949619702904240 10.0106629567201821  4.3167641076214567
  8.5728183045821744  8.6009098939365281  5.7388851627285895
 10.0072343787523170 10.0095622522369325  7.1429175343460862
  8.5752449021658190  8.5892842975475663  8.5633439657166015
 10.0002531131570507 10.0115401896691587  9.9957223710177399
  2.8848644313122627  0.0099488337351768 -0.0225624096968352
  1.4086109748896445  4.2838839288982600  1.4536911865373903
