Fe
 1.0000000000000000
    11.3709228793060451    0.0000000000000000    0.0000000000000000
     0.0000000000000000   11.3709228788011849    0.0000000000000000
     0.0000000000000000    0.0000000000000000   11.3709228735851404
 Fe 
 127
Cartesian
  0.0116444686449316  0.0116446041190374  0.0000001447901060
  1.4744853440475718  1.4744854407300145  1.3682452544892079
  0.0178623365687895  0.0178624041383168  2.8248681881772768
  1.4193706102894685  1.4194554489553970  4.2656549926751701
  0.0047383562912015  0.0047383885302967  5.6854615493836853
  1.4194552819043940  1.4193707925336843  7.1052680216281718
  0.0178624113839679  0.0178621834170643  8.5460543371551374
  1.4744852860363207  1.4744854210364651 10.0026774197666377
 -0.0405019266509984  2.8427307112458720  0.0000000988239894
  1.4744853610145119  4.2109760048743690  1.3682454191615363
  0.0116446432063576  2.8427307056284934  2.8310861224611172
  1.4194551097469783  4.2660907575120603  4.2656549333583760
  0.0087542101089983  2.8427307408331939  5.6854614487714823
  1.4193707245295941  4.2660060692948720  7.1052679910774934
  0.0116447405452967  2.8427307454322155  8.5398367377859259
  1.4744854352117687  4.2109758666058168 10.0026774665127380
  0.0116445305898580  5.6738168734416234 -0.0000000266631762
  1.4193706097115788  7.1083855585833025  1.4232755747858057
  0.0178624750719180  5.6675992117738394  2.8248684093816725
  1.4221643212006492  7.1065679004483755  4.2637949755564160
  0.0047382568156143  5.6807230631872443  5.6854612456597913
  1.4221645169427068  7.1065257157639161  7.1070855620162616
  0.0178623574010706  5.6675990811703594  8.5460546318232407
  1.4194551095982848  7.1083855660036619  9.9475628466291202
  0.0087541279431323  8.5281920966417708  0.0000000295485220
  1.4194552016473259  9.9479987915863433  1.4233600999802909
  0.0047383611587669  8.5281921171870607  2.8379924384838797
  1.4221643821180026  9.9498583988442810  4.2638373135307468
  0.0019580542542780  8.5281921872389255  5.6854613022423566
  1.4221643796055496  9.9498163885367372  7.1071279044725477
  0.0047383229687081  8.5281920835518754  8.5329305453185036
  1.4193706842873210  9.9479986948934300  9.9476473474316283
  4.2109759963918956  1.4744852716466292  1.3682453679744822
  2.8427307702546112  0.0116446571475498  2.8310859959581238
  4.2660062846147726  1.4193705913574630  4.2656548452951331
  2.8427307565947384  0.0087542710587006  5.6854614185254908
  4.2660908679999814  1.4194551878366948  7.1052678660386306
  2.8427305768613267  0.0116445184394970  8.5398368062220769
  4.2109760097720308  1.4744851766537321 10.0026776885029669
  4.2109760607256996  4.2109761673221353  1.3682452648707879
  2.8427307172348368  2.8427308326715295  2.8832326568806472
  4.2660907691335144  4.2660061487679428  4.2656548723540348
  2.8427306395253908  2.8427307578116112  5.6854615203555516
  4.2660061835955769  4.2660906583653109  7.1052680258519310
  2.8427304065014605  2.8427309161261620  8.4876902017463287
  4.2109760805738281  4.2109762639597186 10.0026776787573404
  2.8427308190226999  5.7259632857080849 -0.0000001104055791
  4.2660062236171195  7.1083855129052198  1.4233601982816930
  2.8427306809167501  5.6738168582717723  2.8310861385754573
  4.2632970721434855  7.1065258396887971  4.2638373390793758
  2.8427308275647034  5.6767073162070165  5.6854613900600235
  4.2632970521719411  7.1065682397453918  7.1071277200038194
  2.8427307253157452  5.6738167666480566  8.5398369324978685
  4.2660906911122511  7.1083856680316089  9.9476473190776655
  2.8427306641228962  8.5281921933555136 -0.0000000672294934
  4.2660908277352609  9.9479988171151792  1.4232756009331211
  2.8427307833008952  8.5281921860295355  2.8339765985697918
  4.2632971258722394  9.9498162743422878  4.2637949101716561
  2.8427308624912833  8.5281920616728879  5.6854613966611343
  4.2632971704682028  9.9498584457028656  7.1070855935075929
  2.8427307566416329  8.5281920738875492  8.5369461885790372
  4.2660063440999965  9.9479987119882249  9.9475627830076991
  5.6738167694917285  0.0116445309106559 -0.0000001237213184
  7.1083857923831522  1.4194553315066059  1.4233600028977078
  5.6675989905032846  0.0178622923214628  2.8248683994909958
  7.1065258387975438  1.4221645254126576  4.2638372663681974
  5.6807230742314756  0.0047383940113756  5.6854615237435162
  7.1065680080450981  1.4221644304453323  7.1071278118829317
  5.6675989588385596  0.0178623459133844  8.5460545037321989
  7.1083856975011095  1.4193707697993090  9.9476473795795606
  5.7259634724467494  2.8427307515664095  0.0000000807521536
  7.1083856219126202  4.2660907890699313  1.4232754838297776
  5.6738168546401626  2.8427306533604901  2.8310862034863571
  7.1065681812895276  4.2632971182469221  4.2637951652145327
  5.6767073031602342  2.8427305878436946  5.6854614760384425
  7.1065257314850498  4.2632970224030204  7.1070856057516458
  5.6738169994463723  2.8427308030637986  8.5398365565641150
  7.1083854329332006  4.2660063540700097  9.9475627410667329
  5.6738168509432922  5.6738167421486319 -0.0000000410834110
  7.1065258731451628  7.1065679035405065  1.4205662921964657
  5.6675989399059121  5.6675990541496954  2.8248681651493524
  7.0989347021739588  7.0989346621437139  4.2562041168330422
  5.6807231453332747  5.6807231979663131  5.6854614192613360
  7.0989346384629677  7.0989346337566630  7.1147189018479775
  5.6675991300086528  5.6675990718290832  8.5460546679727027
  7.1065680433976937  7.1065256777491577  9.9503565463819985
  5.6767073430059956  8.5281922949427038 -0.0000000160297156
  7.1065680656574681  9.9498585809761604  1.4205662553373344
  5.6807229877940548  8.5281922314751579  2.8379923322994824
  7.0989347832911989  9.9574495703785146  4.2562039835130241
  5.6835034255982704  8.5281920993125144  5.6854614022276957
  7.0989345978692384  9.9574498062286274  7.1147188817530553
  5.6807229895166627  8.5281921434642083  8.5329304718449510
  7.1065254848048136  9.9498162217921777  9.9503565330772723
  8.5281920880264472  0.0087542949656516  0.0000000663518982
  9.9479986061886212  1.4193705737960938  1.4232753930217490
  8.5281922304614657  0.0047383298050773  2.8379923574691950
  9.9498161353411998  1.4221644687693351  4.2637949944753544
  8.5281921018545344  0.0019580993939975  5.6854614899803417
  9.9498584804860553  1.4221642420372409  7.1070856137765297
  8.5281922811866711  0.0047383872378923  8.5329303838790107
  9.9479986863072316  1.4194551621720748  9.9475630096303842
  8.5281921447780977  2.8427305293259093  0.0000000339500961
  9.9479986525087760  4.2660062525465214  1.4233600741622932
  8.5281921158547576  2.8427306356858635  2.8339765127040319
  9.9498585353870173  4.2632970915770239  4.2638375562352415
  8.5281921296636867  2.8427309059515218  5.6854613812728019
  9.9498161738073296  4.2632970263123173  7.1071277453648580
  8.5281921293829388  2.8427307121157255  8.5369462607777056
  9.9479986878623361  4.2660910058219805  9.9476472734448613
  8.5281921116743877  5.6767073029614821 -0.0000000433569513
  9.9498163173022363  7.1065257718626089  1.4205663320633435
  8.5281921528875202  5.6807229855703438  2.8379923340505142
  9.9574497968513764  7.0989347259305182  4.2562039084176098
  8.5281920599165115  5.6835032695273329  5.6854612752092901
  9.9574497491627536  7.0989348147355216  7.1147191582896800
  8.5281920943318443  5.6807231693245264  8.5329306370770883
  9.9498586752104252  7.1065680393139647  9.9503564258103587
  8.5281921383323702  8.5281921404943954  0.0000000232651472
  9.9498585607515757  9.9498163950762883  1.4205663468554770
  8.5281922717306582  8.5281921062080936  2.8407728230174527
  9.9574495615233474  9.9574496707910178  4.2562038833754237
  8.5281920061445255  8.5281920941765961  5.6854613117272921
  9.9574497125302326  9.9574497998351692  7.1147189875272598
  8.5281923127952819  8.5281920671384910  8.5301501352922529
  9.9498163918306748  9.9498584076515542  9.9503564791447197
  2.8427307722609876 -0.0405019448696626 -0.0000000539545005
