Fe Ta
 1.0000000000000000
    11.4034832086643760    0.0000000000000000    0.0000000000000000
     0.0000000000000000   11.4079427246911091    0.0000000000000000
     0.0000000000000000    0.0000000000000000   11.4034832058105557
 Fe  Ta 
 126   2
Cartesian
  0.0158920560944123  0.0067859760700112  0.0003203751506229
  1.3223042311703324  1.4259928842543694  1.5285671593177310
 -0.0032966705785002 -0.0017320991748412  2.8543353394738031
  1.4310583856091950  1.4261296335686851  4.2639844574657761
 -0.0022600532786243  0.0016925588051726  5.7017389403387195
  1.4310578945519083  1.4258562596257016  7.1394986396876430
 -0.0034647394044613 -0.0017324286837379  8.5493160995996131
  1.3223036408384836  1.4259928880046913  9.8749161123942262
  0.0158920272555545  2.8451996347191910 -0.0003205755745370
  1.3480310534365580  4.3429166844456484  1.5028691743254241
 -0.0034649245962106  2.8537178596768014  2.8541671320199025
  1.4234406737452168  4.2763126613755453  4.2669673679644253
 -0.0022598609996394  2.8502929763039830  5.7017445361111108
  1.4234506462331458  4.2762075946391551  7.1365008451843179
 -0.0032962581165302  2.8537176127838499  8.5491474831741865
  1.3480015056551864  4.3429166710931177  9.9006435216653781
  0.0141463447389693  5.6961522564987339  0.0000333486750956
  1.4224385053198627  7.1299642811869033  1.4284321111198495
 -0.0290347321959672  5.7276799970829479  2.8799224117540430
  1.4246277448778111  7.1299906160896684  4.2784733014961907
 -0.0053373956650629  5.7071890944270995  5.7017244531703604
  1.4246276319098843  7.1299378285895951  7.1250101823580678
 -0.0290515511207792  5.7276799827674569  8.5235780076659271
  1.4224387106546330  7.1299641926171491  9.9750510025035890
  0.0141459468933271  8.5637761413476507 -0.0000332654821449
  1.3480013887915134  9.9170118397422744  1.5028397226349444
 -0.0290510719007046  8.5322483461216549  2.8799050960254986
  1.4234510070718180  9.9837206278839812  4.2669822913547746
 -0.0053375178991990  8.5527392709335661  5.7017589231589803
  1.4234405531124628  9.9836157572304369  7.1365158686183783
 -0.0290343615959393  8.5322482863409537  8.5235610611923747
  1.3480311343992089  9.9170114877678213  9.9006142017585326
  4.3794375326994235  1.4259927048747785  1.5285671332601736
  2.8511912475428591  0.0067861328987377  2.8349787608437440
  4.2706834568126784  1.4258563941698312  4.2639845311331488
  2.8508708261096172 -0.0014479569794659  5.7017418348418483
  4.2706833995893057  1.4261297239501800  7.1394986825757139
  2.8505503365070273  0.0067862652613014  8.5685043922896540
  4.3794377127168955  1.4259929308333286  9.8749162535259511
  4.3537400532893349  4.3429166586969110  1.5028398592133687
  2.8505502686242044  2.8451995713828020  2.8349789610601617
  4.2782908811230964  4.2762075626056149  4.2669822632527197
  2.8508706855067256  2.8534333599101553  5.7017415675895524
  4.2783008603331352  4.2763127551659066  7.1365159299397209
  2.8511915745577809  2.8451994930347042  8.5685045322004498
  4.3537103504717383  4.3429166530813772  9.9006140872889823
  2.8508707574666308  5.7344002043847180 -0.0000000703550338
  4.2793030739383005  7.1299644596138672  1.4284321947010168
  2.8509041970321110  5.6961523499506894  2.8367245803932337
  4.2771137261584595  7.1299380707611340  4.2784732187360826
  2.8508706234331451  5.7033786126795398  5.7017414722287221
  4.2771134927793035  7.1299904449226652  7.1250102383333980
  2.8508377072362805  5.6961523876457711  8.5667586213786429
  4.2793033126267730  7.1299639616491302  9.9750507114855296
  2.8508706885236212  8.5255281879026210  0.0000000816455872
  4.3537105095674384  9.9170116954223797  1.5028690218976779
  2.8508373603976156  8.5637762380762865  2.8367249032443600
  4.2783007458306006  9.9836154482549286  4.2669672997802737
  2.8508707705945655  8.5565500059879511  5.7017414264275601
  4.2782907485154276  9.9837209180889506  7.1365008599932960
  2.8509040153216016  8.5637760624017414  8.5667587332471875
  4.3537399339059561  9.9170116280204592  9.9006434152868543
  5.6858493323939543  0.0067860422229020 -0.0003204630824469
  7.1148553529968934  1.4261293370097878  1.4198127936718066
  5.7052063340863590 -0.0017321378488180  2.8541671763069654
  7.1276344221169419  1.4259930843922610  4.2767636403577018
  5.7040016854439815  0.0016927745147586  5.7017446050344320
  7.1276345876606761  1.4259927096819487  7.1267194681912294
  5.7050379666938360 -0.0017321266054860  8.5491475181394527
  7.1148552274259105  1.4258563002239728  9.9836703042983892
  5.6858494474684171  2.8451996783055060  0.0003206558275274
  7.1178381276898435  4.2763127805044663  1.4274303669666173
  5.7050378071301013  2.8537179393375554  2.8543357535912444
  7.1306949566928166  4.2777891567752295  4.2798547344391604
  5.7040015779845730  2.8502931074609155  5.7017389464698809
  7.1307253792262211  4.2777890008014836  7.1236587599608825
  5.7052062629084190  2.8537177640779601  8.5493163823909786
  7.1178532865270476  4.2762074670025365  9.9760632416570640
  5.6875955030830250  5.6961523796829976 -0.0000335026250181
  7.1293440603823841  7.1299907269267786  1.4262429324948040
  5.7307929556424630  5.7276801534382269  2.8799052593908092
  7.1474557486021819  7.1299641579518100  4.2965851213113879
  5.7070791300397801  5.7071891387270917  5.7017586277562353
  7.1474560296090726  7.1299641124243767  7.1068983513580708
  5.7307758910129110  5.7276800029384871  8.5235611836055138
  7.1293439594831609  7.1299379234028839  9.9772403972350272
  5.6875953615294277  8.5637759551330959  0.0000335051434966
  7.1178535586223912  9.9837206998538779  1.4274198768954898
  5.7307761136784556  8.5322483975714345  2.8799222116576906
  7.1307252745456875  9.9821393234300384  4.2798243156754570
  5.7070791659334166  8.5527392929484254  5.7017243335617236
  7.1306950083278231  9.9821394805538475  7.1236286583281538
  5.7307930818960111  8.5322482474921149  8.5235780878053937
  7.1178379448229228  9.9836155978528893  9.9760529692026214
  8.5526125371723225 -0.0014479284985529  0.0000000289723066
  9.9903693745945343  1.4258561114835024  1.4198129816445035
  8.5526096386199164  0.0016927873162977  2.8531306673136525
  9.9775903266138659  1.4259929909993685  4.2767636327829228
  8.5526124446882204 -0.0018703501355929  5.7017419924144122
  9.9775903164857223  1.4259927844353717  7.1267195323569554
  8.5526151829733035  0.0016927631584179  8.5503524217391398
  9.9903694738948179  1.4261298711409900  9.9836705635806826
  8.5526125071976473  2.8534332020677708 -0.0000000409579480
  9.9873717572466010  4.2762076356711978  1.4274201433157656
  8.5526152542898846  2.8502929042279668  2.8531306910062098
  9.9744995293514620  4.2777890049889509  4.2798241349257946
  8.5526124175667775  2.8538558384737338  5.7017415421174045
  9.9745300400547787  4.2777889941323775  7.1236284205939793
  8.5526097128341725  2.8502929022114536  8.5503524864070357
  9.9873865477738484  4.2763126156016122  9.9760530253125985
  8.5526122591477005  5.7033785034788478 -0.0000000865955123
  9.9758809063652656  7.1299379010051904  1.4262426560233608
  8.5525952983311626  5.7071891294097856  2.8562081925905618
  9.9577690915904427  7.1299640843190959  4.2965849044520699
  8.5526122731490481  5.6917240893009913  5.7017416895555852
  9.9577690895105935  7.1299642690534624  7.1068984544009215
  8.5526296064597247  5.7071892812373211  8.5472747009541177
  9.9758810111027607  7.1299904649460908  9.9772403535429071
  8.5526125458507050  8.5565498090951628  0.0000001860467417
  9.9873867585100360  9.9836158308100931  1.4274302645593127
  8.5526295105770878  8.5527391489026989  2.8562081316306340
  9.9745299063388018  9.9821394054082990  4.2798545346404957
  8.5526125371596837  8.5682044297067161  5.7017413785233950
  9.9744994141797179  9.9821395403941331  7.1236591413203394
  8.5525949744627017  8.5527390381987516  8.5472747859808749
  9.9873713009269718  9.9837206299077401  9.9760634251238045
  2.8508711878628086 -0.1353687403206169 -0.0000000295429860
  2.8508707948382042  2.9873545056178625 -0.0000000381678782
