Fe Ru
 1.0000000000000000
    11.4261361066382143    0.0000000000000000    0.0000000000000000
     0.0000000000000000   11.4301669767414751    0.0000000000000000
     0.0000000000000000    0.0000000000000000   11.4261361095627159
 Fe  Ru 
 126   2
Cartesian
  0.0697695840416131  0.0052228282199821  0.0136142356142207
  1.4108382833865563  1.5371089456560199  1.4463077471133992
  0.0115158440755149  0.0019141324900788  2.8452496008489172
  1.4294685025115386  1.4358276407270805  4.2801731654884625
 -0.0071554150633658 -0.0026369563191059  5.7132119348949422
  1.4265616916822208  1.4270874768834243  7.1427102777541167
 -0.0082576662366078 -0.0077444980205942  8.5574455687616560
  1.4073028015292210  1.4199442677949690  9.9835745887781737
 -0.0142948740089365  2.8663679747335018 -0.0209638786508556
 -0.0187188340277628  2.8772655430292069  2.8752922620595056
  1.4236637171309632  4.2915726572416704  4.2562309426074654
 -0.0016238059604761  2.8632123955203324  5.7162916605317928
  1.4273873602145672  4.2856251397001861  7.1427308020835332
 -0.0085077968084789  2.8720686387667671  8.5659212558645237
  1.4418819104412308  4.2810893660555758 10.0676385001802320
 -0.0113512845856082  5.7261375289933998 -0.0006679071481020
  1.4301611677586574  7.1277374934643252  1.4266874128557874
  0.0056157116996292  5.7110298721484902  2.8509109510141557
  1.4214212421692338  7.1387478613758821  4.2900202505303442
  0.0089312532144630  5.7093749215365426  5.7091772550848496
  1.4195480231596940  7.1414533110852130  7.1405394326902263
  0.0041950857109831  5.7047595304952079  8.5764221706180326
  1.4281511747204934  7.1483771378494971  9.9975665381568231
 -0.0003023362340400  8.5681029515557050 -0.0001153253113634
  1.4203385972123204  9.9756333782073021  1.4362294030554759
 -0.0091272126669819  8.5565574171756804  2.8656442467659540
  1.4292244644564094 10.0031983001456801  4.2805672785950319
 -0.0093105474072728  8.5728741175514074  5.7151193238307894
  1.4316682754658829 10.0021962290482733  7.1422823328621066
 -0.0134568191072438  8.5734272610047757  8.5604715489786862
  1.4275986663250491  9.9903416541218224  9.9865171534781858
  4.2995789813480494  1.4197047444467206  1.4482908120316407
  2.8433489434530475  0.0055603463077043  2.7859972863838074
  4.2933712445231000  1.4140171508451331  4.2882064282044690
  2.8574427562101765  0.0006962872313030  5.7117236405804190
  4.2861959906705156  1.4233120807209039  7.1380087532375107
  2.8609900594999691 -0.0052027896011520  8.5982930645299493
  4.3035595327292500  1.4090465480870213  9.9791502920002522
  2.8745748014006298  2.7492037003853000 -0.0174284677275106
  4.2142641903633278  4.2807528610047108  1.4150807391867051
  2.8765570885063823  2.8666077108981338  2.8713125897510556
  4.2928700480482211  4.2939787327297090  4.2967838211086509
  2.8578914184142055  2.8589751989159766  5.7118443730035189
  4.2918315792791892  4.2889525261667014  7.1412064160052813
  2.8556360650782504  2.8506503450413416  8.5743760676668987
  4.2735167922680972  4.2843982851902886 10.0093850258487738
  2.8644969195066028  5.7408449691146188 -0.0079275720125572
  4.2852968303230110  7.1484080620080350  1.4283363647485809
  2.8572397562909129  5.7261168499004453  2.8680119584578696
  4.2982478496693606  7.1431181546490361  4.2940247845590127
  2.8534031645327538  5.7141188657973876  5.7122094156155354
  4.2941937620407611  7.1437126021921458  7.1392434041148300
  2.8555920390180933  5.7136241833084593  8.5738109955909056
  4.2939120753313613  7.1599221764599879  9.9887418881590921
  2.8549543972052489  8.5887423701401477  0.0018951832806513
  4.2962787786933809  9.9903627129626571  1.4289726170033592
  2.8566031311683955  8.5680717154550994  2.8570295371775170
  4.2804555456224991 10.0114897152091196  4.2780664174500647
  2.8652963265663458  8.5750573423889040  5.7139482898770497
  4.2761034132652487 10.0073167389398421  7.1452417728736251
  2.8634115844167405  8.5778153476135710  8.5644736505608261
  4.2791782181448452 10.0054496992438704 10.0034846686217769
  5.6844975568076315 -0.0052602458147740 -0.0046040937802463
  7.1401118991358263  1.4273376431014160  1.4296247750981974
  5.7250504234592272 -0.0076662289792676  2.8646036412720539
  7.1439391100673530  1.4342466623811889  4.2881295897546909
  5.7164797281212669 -0.0031330569951344  5.7136782889149735
  7.1452761235031872  1.4377745543230163  7.1372730430878875
  5.7182230714893425 -0.0055122625774840  8.5644605117690578
  7.1445587110175843  1.4230998713279868  9.9962453026990197
  5.7084400313053649  2.8504853956243212  0.0012011052755025
  7.1399910424459483  4.2856167602287840  1.4291759328703704
  5.7164733948531534  2.8722952905013086  2.8651042083433511
  7.1419451589310716  4.2894459018181745  4.2882126353446779
  5.7163963502234028  2.8520658636077356  5.7156718234713271
  7.1408490610382005  4.2838295349281479  7.1417231073266665
  5.7203642201811808  2.8573249632192637  8.5623136509992452
  7.1414791533141413  4.2889492309625545  9.9907137529313896
  5.7088337209010103  5.7132811720807419  0.0009577632299020
  7.1422150727966693  7.1414224910474493  1.4370292092901937
  5.7063336834485661  5.7049901890738726  2.8521886357302453
  7.1400700984560093  7.1411038183281148  4.2847621341418680
  5.7157580504792271  5.7228474481439386  5.7212731399601937
  7.1400252451211692  7.1469067063439651  7.1426082403533488
  5.7174916881902931  5.7209591667051267  8.5651713536747316
  7.1433864310764807  7.1436057004220261  9.9885586047269808
  5.7182873566397117  8.5777313995124693 -0.0068460475935316
  7.1404767291879212 10.0023604163191262  1.4251360127341395
  5.7222919311810596  8.5733611169192461  2.8699806603040874
  7.1495400268953153  9.9936320998729755  4.2874907804648155
  5.7130297021110463  8.5753757562672774  5.7118033916654811
  7.1488691405232982  9.9935929399518884  7.1337358779719677
  5.7188926095339099  8.5779148301818271  8.5638691275168490
  7.1374443213056988 10.0071045647787322 10.0068002005274863
  8.5709981724914552  0.0006882812022530 -0.0008799042779837
 10.0026433168885678  1.4356622832226500  1.4273692787814565
  8.5694737757603043 -0.0026394994057309  2.8635649107033134
  9.9905799554394932  1.4289881208527502  4.2920967262562524
  8.5699902611505383  0.0024833239494593  5.7125817146059630
  9.9944001306388603  1.4342853108203906  7.1386901749997893
  8.5688637600844242 -0.0031798165799941  8.5660574827880733
  9.9941882650701963  1.4142440570481463  9.9893616527276805
  8.5709778333609048  2.8592255179880470 -0.0017055408434465
 10.0265602242153005  4.2915154162403786  1.4327230621714986
  8.5662757775222822  2.8630005168542465  2.8579292870636324
  9.9927276298423600  4.2918245934584274  4.2899561297007223
  8.5655400149946654  2.8485377655992927  5.7170089866168876
  9.9943241974507195  4.2894927101028264  7.1405966450167915
  8.5669571443216093  2.8520272049922712  8.5661335360118809
  9.9857121037440209  4.2940566322921958  9.9896117855523734
  8.5705487430397778  5.7142833833351308  0.0034013233728671
  9.9927409717545164  7.1386644972011766  1.4351450297438797
  8.5735086656550159  5.7091634378583409  2.8478366268354178
  9.9921358545194963  7.1385643407424313  4.2906255984328023
  8.5620031839455759  5.7228865573618872  5.7206028245117082
  9.9979623642215234  7.1410986281248512  7.1426122010891309
  8.5613384422167744  5.7229216455673386  8.5668005815765760
  9.9887385141642806  7.1430523797646650  9.9844120247219301
  8.5688061504875712  8.5750261747220122 -0.0087184528806908
 10.0020784588189375 10.0028549034257015  1.4273249108053589
  8.5675104838197171  8.5727664355284023  2.8659267756975959
  9.9934385188238899  9.9955210903763216  4.2892249504240096
  8.5708753337823342  8.5695728053203766  5.7117579861981689
  9.9950678686157062  9.9935577156765589  7.1330711957983199
  8.5708789473312113  8.5753807613490505  8.5696950642411256
 10.0046892928536710 10.0117209680904384 10.0020639834951766
  2.8360837617867078  0.0296343305065137  0.0202853693388339
  1.4485522669828494  4.2566789138973995  1.4078161578766242
