Fe Cu
 1.0000000000000000
    11.3885440427929101    0.0000000000000000    0.0000000000000000
     0.0000000000000000   11.3766764417135953    0.0000000000000000
     0.0000000000000000    0.0000000000000000   11.3885440442171060
 Fe  Cu 
 126   2
Cartesian
 -0.0043596281947357 -0.0000000825107516 -0.0043591416046382
  1.4235690095581339  1.3889480763613875  1.4235668561607475
  1.4147946432020633  1.4098286534846958  4.2564759316697769
 -0.0059645623186316 -0.0000527791147645  5.6702091332958089
  1.4235679456800339  1.4201729604647413  7.1178401121382917
 -0.0153005282208538  0.0000115468415679  8.5281811497589342
  1.4323411991956556  1.4098288632309910  9.9792039547982885
 -0.0084588260674703  2.8597887854631199 -0.0085047066523570
  1.4235681627344017  4.2377286265333982  1.4235679347096406
 -0.0083957686961198  2.8278381550978517  2.8554043033611167
  1.4228085597796227  4.2590837336789322  4.2758406932646027
  0.0029495519782728  2.8501696266253655  5.7056552977665165
  1.4235681310620862  4.2796760706735295  7.1178399394127538
 -0.0090461992038969  2.8550840693220469  8.5325767021645227
  1.4243273700574728  4.2590836270807824  9.9598396013473725
 -0.0005564490289576  5.6883381951540217 -0.0005565210502833
  1.4235679419841123  7.1389479309423516  1.4235679362836486
  0.0039905118182836  5.6883382332256920  2.8431454359430171
  1.4225385653791527  7.1175736787013300  4.2761316343241056
 -0.0011806727768961  5.6882870107786001  5.6934919799477735
  1.4235680613633193  7.0968036323504951  7.1178401206476467
  0.0061411245637445  5.6883163347275181  8.5483452601220637
  1.4245973767080793  7.1175735712885349  9.9595484150381726
 -0.0085046823096981  8.5168874883984511 -0.0084590284098623
  1.4235688149668897  9.9877283563982218  1.4235670438678780
 -0.0082682692081631  8.5488382169992683  2.8555317356342518
  1.4149568689185927  9.9664193259166005  4.2564950351879922
  0.0030456119529700  8.5264976672217543  5.7056730912187543
  1.4235678550283448  9.9566901127469887  7.1178400927545837
 -0.0090473248323196  8.5215637092631660  8.5326345632336089
  1.4321789142464638  9.9664189133831034  9.9791848192097063
  4.2564953186693195  1.4102574233006291  1.4149571616615644
  2.8514952820815767  0.0000000761830686  2.8514955672425311
  4.2620569419722516  1.4285058366185919  4.2621863213949398
  2.8624363665577843  0.0000116325196556  5.7074989336138318
  4.2789549850865143  1.4258662998726090  7.1376193772677015
  2.8531007366351626 -0.0000526335878391  8.5654706715134754
  4.2724913843536418  1.4133459165964513  9.9632127575479714
  2.8555319125578804  2.8278383868169499 -0.0082682080254951
  4.2761315497343722  4.2591028140053062  1.4225383562335485
  2.8555949584648763  2.8597890007945090  2.8556406794125637
  4.2799623895239050  4.2803235688730394  4.2800017264319612
  2.8561823100319628  2.8550841167723422  5.7031034895695907
  4.2697125983019042  4.2733254389611108  7.1095445139959477
  2.8441867162054311  2.8501693820455274  8.5300251982921012
  4.2719541815005737  4.2547031534529935  9.9635676559522661
  2.8431452327753353  5.6883380770392344  0.0039908669591358
  4.2758406138610754  7.1175927231946723  1.4228085410178721
  2.8476926484053102  5.6883382878728899  2.8476924960786034
  4.2800016214718832  7.0963527618209792  4.2799623288064712
  2.8409950079415829  5.6883163581787306  5.6873346615251270
  4.2697159559220346  7.1034466191732655  7.1094882221289124
  2.8483168705168262  5.6882868463445124  8.5421879988181395
  4.2721125695007149  7.1219735178588310  9.9637258175345540
  2.8554042225691201  8.5488379405233896 -0.0083957715034644
  4.2564765307569079  9.9668471830935683  1.4147951123460394
  2.8556408416538703  8.5168874838029005  2.8555947697319457
  4.2621863609290775  9.9481706643679750  4.2620570352721261
  2.8561835171604946  8.5215636809675583  5.7030454371279093
  4.2787412546890318  9.9505274557660712  7.1376630118759525
  2.8440906255968428  8.5264981946809204  8.5300075881145982
  4.2724675587385592  9.9633306392872445  9.9631887129654899
  5.6702096435717744  0.0000527308753489 -0.0059645837333195
  7.1178400849466357  1.4199864550082126  1.4235680909655479
  5.7074990072815384 -0.0000116666240189  2.8624362438805169
  7.1376627402229822  1.4261487097256587  4.2787410882983208
  5.6972802061428434  0.0000001020263949  5.6972803842004032
  7.1178400096722401  1.4255330955165089  7.1178398682115791
  5.7050021242929363  0.0000000643413014  8.5306779080646553
  7.0980170873431359  1.4261491160783211  9.9569387998665366
  5.7056728371949728  2.8501785779772746  0.0030453995576024
  7.1178401001855978  4.2798730833815712  1.4235681290609963
  5.7030452613923339  2.8551128964845374  2.8561831436982250
  7.1094881703556077  4.2732300827629377  4.2697161907940560
  5.6902206164188547  2.8368427124060829  5.6902539630894156
  7.1178399983366871  4.2682119293006888  7.1178399757900461
  5.7051806663113256  2.8573131101787541  8.5304497569131108
  7.1261919663376174  4.2732299865126970  9.9659640061544881
  5.6934920265198672  5.6883893268346402 -0.0011808832640306
  7.1178399035078961  7.0970001867052250  1.4235680037209224
  5.6873349146669741  5.6883600457662746  2.8409948512778667
  7.1095448267094081  7.1033510870331602  4.2697126161834653
  5.6960274325720830  5.6883381387421830  5.6960272648428587
  7.1178401050620073  7.1084644311418099  7.1178399649789625
  5.6884519928298722  5.6883381174747845  8.5472278748108650
  7.1261348596337877  7.1033511422451792  9.9659674337318584
  5.7056547167355713  8.5265070926310944  0.0029495750868492
  7.1178401554276745  9.9565033474524132  1.4235680058139817
  5.7031035349094763  8.5215924589848058  2.8561819902848420
  7.1376192250874215  9.9508105924019361  4.2789550020186899
  5.6902540557336492  8.5398337389742256  5.6902207935739719
  7.1178400068157854  9.9511432106907307  7.1178397815333678
  5.7052304150674962  8.5193634951670258  8.5304991759444100
  7.0980607218403797  9.9508101243092391  9.9567249233977630
  8.5281811617709415 -0.0000116047094275 -0.0153004509538907
  9.9791849502959220  1.4102570588378154  1.4321789963164446
  8.5654708005751399  0.0000528729953245  2.8531005505748324
  9.9631902668334753  1.4133444323716973  4.2724657881269339
  8.5306780220042757  0.0000001637550820  5.7050022138648497
  9.9567252156219279  1.4258659440640833  7.0980610541025033
  8.5383994644412695 -0.0000000762945269  8.5383996331129470
  9.9736228145263475  1.4285057384188662  9.9734939374932168
  8.5326347619729415  2.8551128979268658 -0.0090473869096185
  9.9595483884178506  4.2591030516171191  1.4245976316756750
  8.5300069160087073  2.8501787242825345  2.8440903841302090
  9.9637255910859963  4.2547034917538200  4.2721125049958752
  8.5304989023685920  2.8573134393914867  5.7052306133838382
  9.9659674606423092  4.2733253490986325  7.1261351549675886
  8.5454592179342939  2.8368427103554907  8.5454261582953617
  9.9557177273891071  4.2803237384677804  9.9556785524002134
  8.5483453074813092  5.6883600742714355  0.0061410687240361
  9.9598393738085420  7.1175926555271856  1.4243273376337482
  8.5421878729206497  5.6883894841496740  2.8483169038067819
  9.9635675641534984  7.1219727601926470  4.2719543010413794
  8.5472279376161016  5.6883383299146244  5.6884521947096918
  9.9659638531712620  7.1034463769412364  7.1261918287127415
  8.5396526949197540  5.6883383498868865  8.5396528996955254
  9.9556785589805692  7.0963526876653464  9.9557177223215785
  8.5325766055095418  8.5215922248987415 -0.0090463596658308
  9.9792038522726525  9.9668478780610545  1.4323411712323726
  8.5300248787226476  8.5265067806589645  2.8441864526226834
  9.9632142096088412  9.9633323049099829  4.2724898345287068
  8.5304495313406647  8.5193629795175276  5.7051812139967515
  9.9569387307689059  9.9505277497629123  7.0980172833147641
  8.5454258978287232  8.5398336370300623  8.5454593414435038
  9.9734937001688202  9.9481706769089993  9.9736228800807343
  2.8678411535082002  0.0000001762749846 -0.0207056804340847
 -0.0207098563539181 -0.0000002707592542  2.8678459136618004
