Fe Cr
 1.0000000000000000
    11.3785387733721031    0.0000000000000000    0.0000000000000000
     0.0000000000000000   11.3785387712635462    0.0000000000000000
     0.0000000000000000    0.0000000000000000   11.3785387772899593
 Fe  Cr 
 126   2
Cartesian
  0.0213326211163251  0.0035886977539133  0.0035937063839373
  0.0100652523034680  0.0031940236079421  2.8348447485015127
  1.4266474483666844  1.4182491846745644  4.2516331526547857
  0.0051024983767842  0.0025623465106353  5.6847068881709912
  1.4251612350727585  1.4192955824607054  7.1207052162815909
  0.0085472156888930  0.0040735161306838  8.5450785627066654
  1.4259110260978010  1.4187286398849317  9.9775540432628453
  0.0097900235193469  2.8345694883396146  0.0031939876838179
  1.4263855108684793  4.2516332146241229  1.4179872139185392
  0.0095953632164665  2.8350394194395467  2.8350393571332164
  1.4216824731806661  4.2664095211400070  4.2664042182094830
  0.0041240893410678  2.8406565580932206  5.6861921192983171
  1.4218725222626447  4.2671192863008578  7.1097396732956026
 -0.0000859992640931  2.8444860197517174  8.5347746366983479
  1.4265511343605080  4.2557901915647829  9.9646410223622741
  0.0053044914649860  5.6847298228014322  0.0024102283581963
  1.4253391091562921  7.1207053479808504  1.4194733589355724
  0.0039782602116824  5.6861921346565580  2.8405106380019838
  1.4218562557167889  7.1097830917691285  4.2672446718627475
 -0.0002011477211426  5.6920015089017602  5.6919585485656423
  1.4218845209580380  7.1086650226451589  7.1087943803787388
  0.0008302187559238  5.6909134291915020  8.5325973629830330
  1.4247275606296250  7.1161263333107456  9.9615258436798406
  0.0084195700021105  8.5450658281695215  0.0042337890222899
  1.4259060028482942  9.9775540541384018  1.4187237236872552
  0.0001485981686015  8.5347746049918456  2.8447207867369313
  1.4263909198116915  9.9647686584472428  4.2557775103971132
  0.0008559181942626  8.5326580891925783  5.6910139066641374
  1.4248796950633671  9.9613239363449910  7.1161491543236037
 -0.0047597633134555  8.5267902855898434  8.5269026103958829
  1.4255111705475003  9.9662867194150717  9.9660112942525636
  4.2456194483217109  1.4187236563193732  1.4187287045519987
  2.8410461221160732  0.0035936637463422  2.8233021695552418
  4.2585324892656873  1.4180836193178177  4.2557903082254747
  2.8416130046344179  0.0028438912127476  5.6801508749909599
  4.2616476202860980  1.4199071506422580  7.1161264194207385
  2.8405665545221805  0.0043300538771994  8.5492228888250317
  4.2571621511642084  1.4191233300017201  9.9662866290809831
  2.8410411867845520  2.8233022087721027  0.0035885676568686
  4.2584048277315887  4.2557776969443770  1.4182437778277284
  2.8414407929883807  2.8348447821241862  2.8345694461740547
  4.2717118223151536  4.2739535262197217  4.2740657046731663
  2.8422245031612348  2.8393301345630495  5.6847298531648880
  4.2661217828872147  4.2682588378432129  7.1099425891150396
  2.8404008968486334  2.8362149316845500  8.5450657104310501
  4.2670380997781274  4.2660815625722064  9.9563699809333244
  2.8417906913109583  5.6801508215703640  0.0030217314412221
  4.2618496019935668  7.1161491445753731  1.4197550386192070
  2.8420723090911437  5.6847069558134615  2.8395322517924364
  4.2660961849411905  7.1098422304407070  4.2681979844679505
  2.8450675353738055  5.6920617882580755  5.6921910290634026
  4.2671531517321366  7.1088975205220537  7.1088546249493820
  2.8450795293535696  5.6911164866300314  8.5337369350819774
  4.2628278528300356  7.1146640287200533  9.9601997057840954
  2.8403045219089718  8.5492229212766961  0.0040682394013765
  4.2568867765852643  9.9660113586417474  1.4191234696324069
  2.8405611156142903  8.5450784761059815  2.8360874119881716
  4.2668034620086237  9.9561353446082119  4.2660815797234823
  2.8450958948030571  8.5336114186249858  5.6910729735649488
  4.2629739089376963  9.9603455342326672  7.1146640060447153
  2.8452695172694318  8.5344520442980976  8.5344465086356553
  4.2573567618979267  9.9658166888934119  9.9658167262213162
  5.6739507309848847  0.0040681685418574  0.0043301389071801
  7.1024681102999425  1.4194734968158378  1.4192955723542229
  5.6781076700674760  0.0042338141993798  2.8362151227975332
  7.1134337632422371  1.4227621893941829  4.2671192123305879
  5.6894366395959448 -0.0004448483432543  5.6911165622117021
  7.1143792038580553  1.4227502214340511  7.1086650065166044
  5.6887269662757163 -0.0006349559758615  8.5344520046990393
  7.1070242834908024  1.4197549692948523  9.9613238273635805
  5.6780948511514397  2.8360874365238176  0.0040735340393150
  7.1133903505965153  4.2672446713777807  1.4227785541622469
  5.6883988609107217  2.8447207231032032  2.8444860445931321
  7.1113356513242563  4.2647513258584757  4.2647270320848261
  5.6905760773642715  2.8438044454910654  5.6909135179792649
  7.1111033887375337  4.2661787607718296  7.1120689297941349
  5.6962708475589947  2.8493944886285085  8.5267902698791964
  7.1133313942466954  4.2681980117019576  9.9570773987922454
  5.6895620151072555  5.6910730108905385 -0.0004611777778505
  7.1145085335442486  7.1087942892508247  1.4227501956754844
  5.6905153813229248  5.6910139352758202  2.8437787399265249
  7.1111045044420482  7.1120700555791485  4.2661787224817989
  5.6884960346204769  5.6887861276266412  5.6887871450267538
  7.1111914274247123  7.1119820861985161  7.1119821750984071
  5.6870687062034913  5.6890182888948804  8.5361290114020107
  7.1142759288320621  7.1088545184830707  9.9560203627948649
  5.6887214908010586  8.5344464622572893 -0.0006349035346027
  7.1070470846262150  9.9615259590073393  1.4199072753130682
  5.6963831665862275  8.5269026219380368  2.8493944186267433
  7.1132307253586902  9.9570516352539915  4.2682588398156831
  5.6870443186110302  8.5361046539083638  5.6890183842324973
  7.1143188802147446  9.9560202583827930  7.1088976232012291
  5.6943336872606425  8.5288396878788273  8.5288397594941596
  7.1085093782938076  9.9601996278811402  9.9603454782675218
  8.5430226640485412  0.0030217380849687  0.0028438917046096
  9.9715402091473315  1.4179873250723156  1.4182492020056991
  8.5384436770861285  0.0024102280145790  2.8393302916190906
  9.9567692831692707  1.4229522194624988  4.2664096774274931
  8.5309823821331694 -0.0004328682594631  5.6920618051042018
  9.9559287693475564  1.4227784573991262  7.1097830728596705
  8.5321004753698357 -0.0004611565895582  8.5336116319730362
  9.9673959868150561  1.4182438970114206  9.9647686250317982
  8.5384665171006109  2.8395321509939992  0.0025623253361458
  9.9567638243859733  4.2664041802712784  1.4229523044815731
  8.5369813242366774  2.8405105899114660  2.8406566181437172
  9.9511571288377727  4.2720163862971399  4.2720163576546399
  8.5312148915095189  2.8448358931042104  5.6920015085982794
  9.9584220529043552  4.2647269546409623  7.1118378215430633
  8.5321594854780720  2.8437788268616799  8.5326580556579508
  9.9492199920379942  4.2740658395873599  9.9514616932510709
  8.5311116782938559  5.6921911356806323 -0.0004328855060129
  9.9560541707657997  7.1097397212682045  1.4227621477663355
  8.5311719785377687  5.6919584910443533  2.8448359264476002
  9.9584464099477898  7.1118378489621961  4.2647512923398772
  8.5342994546158337  5.6888739812061120  5.6888739660495133
  9.9569947596461539  7.1120688882888521  7.1120700680147770
  8.5343874244302906  5.6887871860920756  8.5346773324824508
  9.9549146796481693  7.1099426076384020  9.9570516430156673
  8.5320569501248684  8.5337369071443465 -0.0004449028171412
  9.9673831734427765  9.9646410437341686  1.4180836302997530
  8.5322599448899936  8.5325973374864112  2.8438044847312196
  9.9491075902682855  9.9514616265351794  4.2739535183073132
  8.5343862620985806  8.5346773568281211  5.6887861216159976
  9.9549754120389728  9.9570773170939280  7.1098420995931377
  8.5341551444174009  8.5361291287845784  8.5361047566500758
  9.9570919109904974  9.9563700098414945  9.9561352580821385
  2.8417050314232002  0.0029296285944749  0.0029296958484330
  1.4252470910250554  1.4193876852286793  1.4193875751928431
