Fe Mn
 1.0000000000000000
    11.3736730339444954    0.0000000000000000    0.0000000000000000
     0.0000000000000000   11.3738819121936459    0.0000000000000000
     0.0000000000000000    0.0000000000000000   11.3736730349205200
 Fe  Mn 
 126   2
Cartesian
  0.0153045508965392  0.0136026460022689  0.0000110300406862
  1.4471959541455697  1.4217351414745423  1.3962222997046436
  0.0124516338268376  0.0078744019055932  2.8309203556476148
  1.4263115934557706  1.4218004147948240  4.2432169057006668
  0.0041999811833243  0.0035563845164347  5.6868030595014822
  1.4263115669582775  1.4216700483875817  7.1304561173833045
  0.0124979923249570  0.0078743998456982  8.5427062772243261
  1.4471960059690483  1.4217352263160625  9.9774507937732242
  0.0153045192081570  2.8298677356150934 -0.0000109019402475
  1.4431677889155854  4.2343612330172213  1.4003150664507200
  0.0124978650579038  2.8355961735830033  2.8309667115592427
  1.4254625002896035  4.2648893482411765  4.2561666730077459
  0.0042001221199711  2.8399142066199747  5.6868701711992635
  1.4254093263731979  4.2647694696835128  7.1175020450789681
  0.0124517490293923  2.8355961629162287  8.5427526271096816
  1.4431030213139622  4.2343611918578903  9.9734226253365872
  0.0070498463669064  5.6799946875092777  0.0000311475198516
  1.4294118195743308  7.1086761548725166  1.4140064500394931
  0.0115736152363004  5.6821240957228127  2.8318607038804582
  1.4204667270552105  7.1087183889802921  4.2714273929238216
  0.0070005824607265  5.6813807726781267  5.6868413935469899
  1.4204667823326884  7.1086340816345954  7.1022456498370241
  0.0115575571248165  5.6821242632600262  8.5418284380083058
  1.4294118759265479  7.1086761379947090  9.9596665687361590
  0.0070499264140824  8.5373576479670064 -0.0000312656259928
  1.4431031038586251  9.9829913086877546  1.4002505005946944
  0.0115575556289720  8.5352282872219938  2.8318446053195099
  1.4254092347500116  9.9525829237065206  4.2561709443816946
  0.0070005260287548  8.5359718067250547  5.6868317131549855
  1.4254624786240058  9.9524630760360893  7.1175064501492251
  0.0115736121687097  8.5352282607464058  8.5418123770823353
  1.4431678053193622  9.9829912366636897  9.9733579632505887
  4.2396405992026009  1.4217352290264387  1.3962221793728840
  2.8434293363236791  0.0136026504948259  2.8281137299984427
  4.2605250773631242  1.4216700428826079  4.2432169335693342
  2.8434182175408336  0.0011923846483459  5.6868364494088910
  4.2605251102832806  1.4218004175556123  7.1304561511779809
  2.8434072210134120  0.0136028029528462  8.5455592487108465
  4.2396404526418081  1.4217352668574557  9.9774507840530369
  4.2437334710905237  4.2343611182986711  1.4002504447518906
  2.8434072279009537  2.8298677088996311  2.8281136825891506
  4.2614272474683128  4.2647694233396090  4.2561709742829033
  2.8434183045589347  2.8422781678830820  5.6868365461088581
  4.2613740650951657  4.2648892903293270  7.1175064489571875
  2.8434292480192660  2.8298678785602638  8.5455592760451378
  4.2436687458704334  4.2343611685419544  9.9733579265958507
  2.8434181839916652  5.6714998951744500  0.0000000636245922
  4.2574247663112734  7.1086762004421296  1.4140064297968242
  2.8434494383831903  5.6799946188086849  2.8363684322610871
  4.2663698274876642  7.1086338660028332  4.2714274339227973
  2.8434182354658377  5.6872590882947529  5.6868365679608486
  4.2663697379888905  7.1087183103844245  7.1022455598416308
  2.8433869863018013  5.6799947164359113  8.5373046435768813
  4.2574246613448530  7.1086761640410900  9.9596666614199130
  2.8434182320377479  8.5458524603992121  0.0000000934594419
  4.2436688085623349  9.9829912134958505  1.4003151940971377
  2.8433870774599099  8.5373576729569471  2.8363684585380962
  4.2613740709877375  9.9524631270486399  4.2561666891678920
  2.8434182814444622  8.5300932244866132  5.6868366282513154
  4.2614272896074974  9.9525830190859956  7.1175022046531389
  2.8434494595508890  8.5373575116414138  8.5373046667558263
  4.2437334202442774  9.9829911379201306  9.9734226097318057
  5.6715320039505315  0.0136027154267918 -0.0000110886625525
  7.0866350948834231  1.4218002887386627  1.4171066500432310
  5.6743387082724448  0.0078743765891730  2.8309665955726202
  7.1165767750177906  1.4217352803725289  4.2731586494480416
  5.6826365288265324  0.0035565481116916  5.6868699210234013
  7.1165768557084670  1.4217352409859700  7.1005144284895128
  5.6743848750097206  0.0078743436745994  8.5427527647158374
  7.0866351560140011  1.4216701559010432  9.9565662846513838
  5.6715321418878659  2.8298677665690803  0.0000109727735998
  7.0995849110479492  4.2648893501308498  1.4179557513293235
  5.6743850204452002  2.8355961831185672  2.8309202840030876
  7.1060744427245615  4.2629314193278489  4.2625730113114111
  5.6826364301233170  2.8399141325036918  5.6868028612490296
  7.1059914829753739  4.2629313115257776  7.1110168612031233
  5.6743385988927573  2.8355961834267349  8.5427063577421389
  7.0995891632072015  4.2647693679645453  9.9556640661439353
  5.6797866114957287  5.6799945648908041 -0.0000312407060969
  7.1148456867129894  7.1087183751585172  1.4229514414181419
  5.6752789544862203  5.6821239685178178  2.8318446836461448
  7.0991605618930036  7.1086761431693759  4.2557423982718410
  5.6798359366775610  5.6813805741691876  5.6868316611229899
  7.0991605329484821  7.1086762059029409  7.1179307427046030
  5.6752628370056630  5.6821240493390883  8.5418122625433863
  7.1148456782694183  7.1086339490758910  9.9507216890793035
  5.6797867218645388  8.5373576151309312  0.0000311719503702
  7.0995891946810925  9.9525829029232060  1.4180088032650799
  5.6752628072318370  8.5352282383435139  2.8318606453045505
  7.1059913664757088  9.9544209495013298  4.2626561257268358
  5.6798358928670130  8.5359718184130156  5.6868414194269548
  7.1060744027896350  9.9544210284652408  7.1110998704893165
  5.6752789831977042  8.5352283345134481  8.5418283770501251
  7.0995848443059044  9.9524630804238718  9.9557172297120129
  8.5302547828360282  0.0011925187398872 -0.0000000116740686
  9.9738743145612396  1.4216700432340019  1.4171067392348027
  8.5302211831812098  0.0035564384610397  2.8392182562634294
  9.9439327170920819  1.4217353412517006  4.2731586475880556
  8.5302547415409915 -0.0016418084249286  5.6868364955955606
  9.9439327286175612  1.4217352750042305  7.1005144892903127
  8.5302882640662876  0.0035562606719459  8.5344547212667496
  9.9738744568296198  1.4218003351455910  9.9565663084758533
  8.5302547950014418  2.8422780035912218  0.0000001138721578
  9.9609203955264416  4.2647695302689757  1.4180088749132282
  8.5302883295242111  2.8399141729635335  2.8392182287961183
  9.9545181039804831  4.2629314212662903  4.2626561189145411
  8.5302547755584399  2.8451121654801224  5.6868364928039217
  9.9544351131818516  4.2629313305620649  7.1110999694234804
  8.5302212942573963  2.8399140353634347  8.5344549327379049
  9.9609246647095890  4.2648894061089102  9.9557169900724229
  8.5302547592055813  5.6872589983811448 -0.0000000636036342
  9.9456638835652278  7.1086340387648494  1.4229514683046871
  8.5302596272275615  5.6813806800863142  2.8364175562913543
  9.9613489666155175  7.1086762076227892  4.2557422599957864
  8.5302547758634137  5.6860270689938499  5.6868365772366376
  9.9613489166715894  7.1086761260794438  7.1179307403736001
  8.5302498041751722  5.6813806212887474  8.5372554805097884
  9.9456638178630925  7.1087182831066773  9.9507216034708197
  8.5302549397276710  8.5300933565410553 -0.0000001453817506
  9.9609246925711599  9.9524629793348467  1.4179557954144104
  8.5302499225497854  8.5359718530877142  2.8364177421221202
  9.9544352810125414  9.9544211088835439  4.2625731681068917
  8.5302547458917726  8.5313252504487611  5.6868365456130903
  9.9545181746615174  9.9544210531967927  7.1110169756764696
  8.5302597289830793  8.5359718397395135  8.5372553500070012
  9.9609203806915776  9.9525830509301070  9.9556640727320218
  2.8434183380273450  0.0179500794285949  0.0000000199490989
  2.8434181877889744  2.8255202770079739  0.0000000758383700
