Fe Co
 1.0000000000000000
    11.3672558063827207    0.0000000000000000    0.0000000000000000
     0.0000000000000000   11.3672558075099523    0.0000000000000000
     0.0000000000000000    0.0000000000000000   11.3672558064211575
 Fe  Co 
 126   2
Cartesian
  0.0443134676188908  0.0014645728388614  0.0014958612715223
  1.4209070351948383  1.4209069915180164  1.4209070075791022
  0.0014645663787260  0.0443134538883133  2.8403181174878593
  1.4187480442287184  1.4230463183549549  4.2450180326888072
  0.0019942402823051  0.0033614526409728  5.6803694040197117
  1.4209336940837949  1.4209337880820132  7.1045348105198354
  0.0033614646200437  0.0019944305432984  8.5287002965176040
  1.4230463261265374  1.4187481081581141  9.9640518068894721
  0.0014958734103786  2.8403494423157305  0.0443135298867986
  1.4187676558647329  4.2450179766324014  1.4230658845950150
  1.4131140720771624  4.2563713965989578  4.2562756067175922
  0.0033037830802466  2.8385586587803351  5.6354705353623205
  1.4171365407219068  4.2614736078414364  7.0936365910317871
 -0.0040720510398928  2.8458704777736945  8.5215917928126039
  1.4209069370546967  4.2527404892506402  9.9563292264110306
  0.0020025685300482  5.6803588882155172  0.0033616812034786
  1.4208801895204737  7.1045348976921892  1.4208802010959924
  0.0032553356635730  5.6354704340339721  2.8385100548491788
  1.4170989683341060  7.0936480427974153  4.2614967202195277
  0.0006096777127076  5.6796529409148651  5.6796867970017226
  1.4209069121051570  7.1044825824833939  7.1045872291832657
  0.0028355159287107  5.6809334718230433  8.5283462309203202
  1.4246773849609635  7.1154331068061563  9.9475962000381166
  0.0033616416890260  8.5287108208053812  0.0020025110363876
  1.4230658707370456  9.9640516722454784  1.4187676234409028
 -0.0040565162705529  8.5215917413690274  2.8458860809215021
  1.4209069429721182  9.9562940230085744  4.2527757838130364
  0.0028508910045669  8.5283380469658248  5.6809615934874040
  1.4247149016586187  9.9475730979186299  7.1154217760572651
 -0.0047822182165558  8.5206792427648086  8.5206813303476476
  1.4286998416729306  9.9527940881937411  9.9526984380801089
  4.2450179846722937  1.4187676546587480  1.4187480018835397
  2.8403495698589736  0.0014958391227976  2.7975005230309100
  4.2527404609911112  1.4209069579506890  4.2527404615094220
  2.8458704735527300 -0.0040721139888731  5.6874779686326091
  4.2614735892895981  1.4171365694252804  7.1154331503267203
  2.8385585514809684  0.0033038938301204  8.5735992304933326
  4.2563714102071719  1.4131140765139307  9.9527940320425010
  2.8403180991184125  2.7975005429431636  0.0014644745148039
  4.2527757396657559  4.2527757539298712  1.4209069855767043
  2.7975005368202166  2.8403180439329216  2.8403494835392884
  4.2562505402254569  4.2631551066215385  4.2632116956375796
  2.8384522492073767  2.8398114323124219  5.6803589351273382
  4.2656137191706840  4.2656137491945865  7.1045349373735114
  2.8398113784990549  2.8384522341278355  8.5287108557674252
  4.2631550904056770  4.2562505673203077  9.9458580701864321
  2.8458860748642536  5.6874779946164642 -0.0040565768160696
  4.2614966294615320  7.1154217203669070  1.4170989705705659
  2.8384524922575118  5.6803693992808864  2.8398196313277007
  4.2655600321618312  7.1045348434195743  4.2655601352343480
  2.8465960983069900  5.6883884365638160  5.6883905217951733
  4.2630876748136384  7.1027606543854418  7.1027286574215962
  2.8389783228226109  5.6807234723480269  8.5281363243112409
  4.2595834941340947  7.1134248787045165  9.9495155694803579
  2.8385100845538882  8.5735991585288023  0.0032552992321133
  4.2562756561363422  9.9526984170934174  1.4131140999218705
  2.8398197051635274  8.5287003708354483  2.8384525061000412
  4.2632117928947251  9.9459146785963526  4.2562505835217133
  2.8389630054169190  8.5281081910105723  5.6807317872449614
  4.2595541916251038  9.9494863418046187  7.1134249230467743
  2.8412040908863316  8.5293828948716506  8.5294167276623121
  4.2568424549055628  9.9522272384749186  9.9522272136367427
  5.6354705603974855  0.0032552534449954  0.0033038654776340
  7.1045349212029087  1.4208801319707816  1.4209337764480698
  5.6803588669166052  0.0020026073284780  2.8384522023864145
  7.1154331060443283  1.4246773474113954  4.2614736058273976
  5.6809334751268725  0.0028356398103198  5.6807235766393802
  7.1044825327690875  1.4209070152048691  7.1044825646842922
  5.6796530485471743  0.0006097347177321  8.5293829144176652
  7.0936479671229407  1.4170989444909250  9.9475730272162011
  5.6803694232241115  2.8384524614743900  0.0019944222751714
  7.1154217172365044  4.2614967167952811  1.4247149570844146
  5.6874779746958346  2.8458860655728739  2.8458704641953769
  7.1134248818671715  4.2595835018136583  4.2595541809380704
  5.6807235242939802  2.8389784051250566  5.6809334794511601
  7.1027606793951747  4.2630877592875418  7.1063411706328425
  5.6883884983768764  2.8465961295377444  8.5206792474735416
  7.1045349131185018  4.2655600767512647  9.9435097027696884
  5.6809615519603662  5.6807317525106704  0.0028510122744809
  7.1045872783762727  7.1045871637874756  1.4209069909652150
  5.6807317562461970  5.6809616679986137  2.8389630245121995
  7.1027286338833520  7.1063091060761652  4.2630876867088219
  5.6840248987103301  5.6809653702771525  5.6809521339069731
  7.1045348770100345  7.1045348779450439  7.1045348893579492
  5.6809654050247929  5.6840249474589832  8.5281177043149690
  7.1063091250072716  7.1027286082778636  9.9459821886952806
  5.6796868152338353  8.5294167986812575  0.0006098763869158
  7.0936366920733880  9.9475962499003892  1.4171365301900087
  5.6883905551668912  8.5206813554981586  2.8465961383179064
  7.1045348343189048  9.9434560877305991  4.2656137111537547
  5.6809521100882394  8.5281043474637972  5.6840249852308080
  7.1063410917287593  9.9459820545348627  7.1027607166440427
  5.6883560679181278  8.5207137220276952  8.5207137700062621
  7.0956448928239793  9.9495155404665443  9.9494862584670614
  8.5215918101949466 -0.0040566002133646 -0.0040721342028226
  9.9640517121426821  1.4230658931335807  1.4230462894716069
  8.5287109244175916  0.0033617069238299  2.8398113899488915
  9.9527940759323688  1.4286998584066513  4.2563713609376155
  8.5206792843208312 -0.0047821936130469  5.6883884500264061
  9.9475729661359260  1.4247150980272660  7.0936479703495330
  8.5283379943543594  0.0028509628044613  8.5281081111152641
  9.9562939230052105  1.4209069910307182  9.9562939673289321
  8.5287003627042477  2.8398195829329866  0.0033614796753156
  9.9526983858640197  4.2562756041939984  1.4286999000314868
  8.5735991332321593  2.8385100789300646  2.8385586012376902
  9.9522272319336729  4.2568424305619770  4.2568424596468812
  8.5293828664454256  2.8412041459889728  5.6796529490556766
  9.9494862579267913  4.2595541987199255  7.0956449034434028
  8.5281081492154751  2.8389630320668005  8.5283380108290565
  9.9459146694502465  4.2632116911024021  9.9528192030768743
  8.5206813791222142  5.6883905160286021 -0.0047822077297938
  9.9475961902939929  7.0936365837794506  1.4246774244747453
  8.5294166900929120  5.6796868376367637  2.8412041453461074
  9.9495155604766516  7.0956448120773752  4.2595833897515218
  8.5207137432673186  5.6883560755773450  5.6883560696078916
  9.9459820802876955  7.1063411899684308  7.1063090315810582
  8.5281044101456427  5.6809521610120655  8.5250448243314434
  9.9434560526138469  7.1045348728649120  9.9434561229797591
  8.5283462674301695  8.5281363620453039  0.0028355945395794
  9.9563293478611463  9.9563292985925091  1.4209070071189018
  8.5281362666163290  8.5283462800575762  2.8389783877588504
  9.9458580694959888  9.9528191419106271  4.2631550567341208
  8.5281176150660922  8.5250449065218987  5.6809653696470201
  9.9435096192231480  9.9435097673304309  7.1045349348975666
  8.5250448920154511  8.5281176054950834  8.5281044299420685
  9.9528192772498674  9.9458581265281598  9.9459146229420092
  2.8432560370627384 -0.0014421357808458 -0.0014421996839561
 -0.0014421586740266  2.8432560218145380  2.8432560934134452
