Fe Ti
 1.0000000000000000
    11.3756985900659622    0.0000000000000000    0.0000000000000000
     0.0000000000000000   11.3728703792098447    0.0000000000000000
     0.0000000000000000    0.0000000000000000   11.3756985937679431
 Fe  Ti 
 126   1
Cartesian
  0.0157800671425573  0.0212520831014689  0.0000566008297343
  1.4090853341688987  1.5001526056899392  1.4347960829780959
  0.0171179119829310  0.0030807636686656  2.8267962478428572
  1.4156035134913967  1.4164364695642002  4.2593038181132377
  0.0014432184424984  0.0020521612328531  5.6878656516935759
  1.4155328063938561  1.4163246088159807  7.1165266712353246
  0.0171284152916264  0.0030807307070341  8.5488919003057600
  1.4091285361203822  1.5001528407704319  9.9408591667570345
 -0.0368425443267464  2.8338445066162063 -0.0001333965257509
  1.4741869985330169  4.2044051955991115  1.3697489120391335
 -0.0200438710092706  2.8720971347324360  2.8640355313400576
  1.4240552045581738  4.2680078435753916  4.2677440790661336
  0.0041193401242415  2.8476231550530113  5.6879256440078656
  1.4241432771215181  4.2679208178142298  7.1080090839918748
 -0.0201108318451126  2.8720970499482226  8.5117301679094446
  1.4741756112359079  4.2044051307275518 10.0059609517166361
  0.0150725998983029  5.6731778106231845 -0.0000434159995280
  1.4179062073103548  7.1161447064833547  1.4260830730902831
  0.0140790142038362  5.6684639083875235  2.8298673484243215
  1.4252733027356046  7.1055466142256201  4.2656230008742240
  0.0058808499816333  5.6820686947611652  5.6878699509593629
  1.4252727784909465  7.1054313421769795  7.1100842126268153
  0.0140572756482349  5.6684639962591499  8.5458531029793274
  1.4178414928629335  7.1161447862947860  9.9496800324984864
  0.0178381026047133  8.5400286024703487 -0.0000092222634138
  1.3932328488680825  9.9213237800232523  1.4507829557559868
 -0.0139264097142755  8.5151269939989032  2.8578226646540985
  1.4280344461598036  9.9521411480546433  4.2582274641537579
  0.0025653482310991  8.5263648366232641  5.6878363614703860
  1.4281157741968566  9.9520016037309826  7.1174087653638400
 -0.0138980031130379  8.5151269756320307  8.5178477586621408
  1.3931416142762867  9.9213238094962577  9.9250067876838859
  4.2787207024367699  1.5001528092185770  1.4348392860447812
  2.8439810821988214  0.0212521024765471  2.8281446925395270
  4.2723164325334970  1.4163245406312142  4.2591721038395445
  2.8439246887927530  0.0138281497667790  5.6878492654967703
  4.2722455436958358  1.4164365595592061  7.1163947407039458
  2.8438680891840584  0.0212522150970139  8.5475539660714244
  4.2787638814156228  1.5001527513948880  9.9409025645442135
  4.2136737302119052  4.2044050913658637  1.3697377239327888
  2.8437913301472650  2.8338445320881473  2.8807670822464875
  4.2637060339837278  4.2679207241749575  4.2676895260493675
  2.8439247316359215  2.8400104169355838  5.6878493785796262
  4.2637940902193368  4.2680077997184052  7.1079543915327488
  2.8440578081423502  2.8338444716628026  8.4949314569921235
  4.2136623559417155  4.2044050884440987 10.0059496065160438
  2.8439246063260435  5.7288525640754138  0.0000001276920269
  4.2700077966570875  7.1161448244649339  1.4260183857586308
  2.8438812400165614  5.6731778529240886  2.8288519797872356
  4.2625764828742501  7.1054312189979782  4.2656143642401636
  2.8439246255158954  5.6781253921217880  5.6878492475387175
  4.2625759767223670  7.1055465501655410  7.1100756142206718
  2.8439681225002058  5.6731778371212194  8.5468466237809562
  4.2699430219414518  7.1161448294101319  9.9496154684144376
  2.8439247267637162  8.5238568567437181  0.0000000371027107
  4.2947078549923310  9.9213237322527910  1.4506918596163256
  2.8439152774345593  8.5400285205208135  2.8260864907749768
  4.2597333923115679  9.9520015730168936  4.2582898288519688
  2.8439247418922524  8.5269513101044829  5.6878492821263835
  4.2598147374664475  9.9521410839262092  7.1174711118957852
  2.8439341102362525  8.5400285736150039  8.5496118890901602
  4.2946165134124668  9.9213237284825979  9.9249155008846159
  5.6720692838412461  0.0212521651050207 -0.0000565982586382
  7.1032285085162403  1.4164365868618038  1.4283209466410407
  5.6707209427578551  0.0030806912812224  2.8268066744481977
  7.1129304666359658  1.4203691755570353  4.2690278193730187
  5.6864060997574173  0.0020520819042309  5.6878329930811073
  7.1129526102225427  1.4203690567500438  7.1066927096748840
  5.6707313204894314  0.0030807267518974  8.5489023504458110
  7.1030968339707057  1.4163246424756140  9.9473067367414671
  5.7246918866584791  2.8338446322057687  0.0001333458408453
  7.1116688192890578  4.2680077280136874  1.4198694410487291
  5.7079601195930385  2.8720970572022280  2.8639685493069749
  7.1156266376189290  4.2723953633728913  4.2716576785336127
  5.6837299365712486  2.8476232014423024  5.6877729650226039
  7.1155822719069306  4.2723954785150520  7.1039966552117351
  5.7078931379812854  2.8720971945167739  8.5116630224257648
  7.1116141275897844  4.2679208612135549  9.9559172224605597
  5.6727766394308077  5.6731778261672945  0.0000434297149059
  7.1095477433990037  7.1055465330310863  1.4186512798347233
  5.6737920570012630  5.6684640068030561  2.8298456141243760
  7.1030802168461156  7.0974638134582317  4.2591332887168702
  5.6819684198518301  5.6820686057055152  5.6878285972559057
  7.1030578304796457  7.0974637993367091  7.1165430123392177
  5.6737701769460687  5.6684638922965291  8.5458312412056046
  7.1095389530175721  7.1054313123687400  9.9570466832920452
  5.6700111575098360  8.5400286643774663  0.0000093072003278
  7.1021520295366960  9.9521410661176706  1.4158902016506190
  5.7017473373483973  8.5151271053936526  2.8578510025467816
  7.1079663139073839  9.9547483538362460  4.2640516811215390
  5.6852839428142978  8.5263648256918891  5.6878620608639032
  7.1079764886115706  9.9547484597949261  7.1116569797663587
  5.7017756705821556  8.5151270043029683  8.5178759663405490
  7.1022143879012827  9.9520015579370860  9.9598897971916109
  8.5317740442532592  0.0138282957632861  0.0000000037413373
  9.9604511981328301  1.4163245643954807  1.4283919205035989
  8.5317902455314236  0.0020521439285616  2.8424813819800225
  9.9505955778540436  1.4203691285530113  4.2690058047818997
  8.5317739275614120  0.0014176722164058  5.6878493943441679
  9.9506174662809830  1.4203690095647157  7.1066708691778491
  8.5317576110375359  0.0020521791808787  8.5332171822441740
  9.9603194467272953  1.4164364696649883  9.9473775409031671
  8.5317738938254717  2.8400103983519744 -0.0000000061487706
  9.9519335850663726  4.2679208941679132  1.4197814138378120
  8.5318502296813019  2.8476232387913583  2.8398053496636453
  9.9479656827052345  4.2723954653797156  4.2717019432196510
  8.5317738019648246  2.8465945030182098  5.6878492267622809
  9.9479212546667153  4.2723955058328169  7.1040410557050322
  8.5316974787789519  2.8476231709987347  8.5358933384005162
  9.9518790691245567  4.2680077403695122  9.9558289108631612
  8.5317740127717432  5.6781253228605140  0.0000000053599928
  9.9540090248137414  7.1054313080515943  1.4186517976500390
  8.5317946214540594  5.6820686849049427  2.8380437947986028
  9.9604900756586243  7.0974637134153591  4.2591555562298353
  8.5317737555022077  5.6914058609462170  5.6878493797658534
  9.9604677744489560  7.0974637005236696  7.1165654594014107
  8.5317532298517289  5.6820686091363779  8.5376548292272236
  9.9540002698222096  7.1055466458683467  9.9570473067361949
  8.5317738899787017  8.5269512531648815  0.0000000596025675
  9.9613334809149467  9.9520014481472092  1.4158087061332487
  8.5317610861099347  8.5263648681806181  2.8413592099631542
  9.9555714244034430  9.9547482510411172  4.2640417142412375
  8.5317738719220628  8.5207695653317845  5.6878492508900313
  9.9555815515306758  9.9547483770881691  7.1116468364211514
  8.5317868500524678  8.5263649112563815  8.5343394038159435
  9.9613957306639396  9.9521411160713846  9.9598083842575775
  2.8439246509109308 -0.0171810335823297  0.0000001233716468
