Fe Pt
 1.0000000000000000
    11.4002198660570162    0.0000000000000000    0.0000000000000000
     0.0000000000000000   11.4002198679394944    0.0000000000000000
     0.0000000000000000    0.0000000000000000   11.4002198626556002
 Fe  Pt 
 126   1
Cartesian
  0.0246554031282207  0.0155259877446649  0.0155350232250310
  1.3418431291732777  1.5082118706141900  1.5082118394461737
 -0.0058817203032664 -0.0387693205636324  2.8559313541589977
  1.3723986214544870  1.4778767612102301  4.2214483852304765
  0.0020006177004755  0.0126761863806526  5.6901396746828850
  1.4208193493321162  1.4288586170524458  7.1302259211424701
 -0.0129352530463623  0.0079474786585551  8.5387463708228513
  1.3944542102173494  1.4556370895469593  9.9382307219067378
 -0.0058764716818249  2.8559367833182514 -0.0387693711246943
  1.3721782022772988  4.2214483765620674  1.4776563406013987
  1.3665655936626935  4.2258682425341130  4.2258851664543231
 -0.0045817481480754  2.8547127891218169  5.7398536051486744
  1.4214219039824589  4.2863763646016118  7.1157263178938237
 -0.0284906996215822  2.8785785460953015  8.5222214823830065
  1.4222899806023226  4.2743551882104134  9.9684306431790670
  0.0020721317566572  5.6901419598849943  0.0126973580742852
  1.4211962800281268  7.1302258976508490  1.4292356523069114
 -0.0046577752120440  5.7398536555984832  2.8546367781916695
  1.4213014554808832  7.1156918721765994  4.2863789020957865
  0.0015806694421784  5.6856408713519127  5.6856382372071907
  1.4186242194401413  7.1133532842456662  7.1132985487778795
 -0.0048834778628475  5.6899294966266485  8.5454521591395700
  1.4202961291916607  7.1236282028434577  9.9744394315770144
 -0.0128678280484954  8.5386471374550332  0.0079476049452786
  1.3944177465743353  9.9382307045278484  1.4556008063911059
 -0.0285236434810521  8.5222214472758289  2.8785456180978262
  1.4221720817447976  9.9687061654320956  4.2742155526178980
 -0.0048898977428484  8.5454785358181677  5.6899332474891793
  1.4204609567626674  9.9741839690964902  7.1236243635981564
 -0.0230475099857350  8.5284090386440994  8.5284175146786705
  1.4061265942909407  9.9537444005909013  9.9537989813553267
  4.3120441131771523  1.4556007109072724  1.4556371631520897
  2.8345289353377723  0.0155350544260784  2.8253995864011081
  4.2818441135766943  1.4277650371818744  4.2743551163946556
  2.8293135885625471  0.0206710769897698  5.6778842723342828
  4.2758353481120279  1.4297587485875385  7.1236282418148384
  2.8454475385272056  0.0045967129280253  8.5610686295932563
  4.2964758311795190  1.4439283386637738  9.9537444045385559
  2.8345199915463750  2.8253995806794765  0.0155260662506997
  4.2815686894941933  4.2742155582876604  1.4278828792574751
  2.8888243556143118  2.8559314226207211  2.8559367953951313
  4.2809872400422702  4.2868023201687677  4.2865511497065754
  2.8373575874930901  2.8479828874939779  5.6901418925442915
  4.2796803976296642  4.2858267106409462  7.1152023527272403
  2.8421072461493586  2.8629227937667152  8.5386470471541696
  4.2775845200986016  4.2751505609456348  9.9728180724357358
  2.8293838848051074  5.6778841874658212  0.0207412916133219
  4.2760908754353846  7.1236244013141858  1.4295940110549530
  2.8373788377648586  5.6901397500654882  2.8480543066076556
  4.2797050716493201  7.1153392067767562  4.2859255738867112
  2.8296548298692303  5.6799379989685370  5.6799262609263934
  4.2690931953710507  7.1072340421403437  7.1073204025918750
  2.8443888208022212  5.6942193162965671  8.5520743052581221
  4.2694969853706786  7.1150679054528503  9.9805561132044041
  2.8454581809426736  8.5610685202497550  0.0046074834393620
  4.2965305100520794  9.9537990263554317  1.4439284049077648
  2.8421074604814920  8.5387463484511574  2.8629901108880973
  4.2774567876520715  9.9726902446624770  4.2751505512680001
  2.8444009107529533  8.5521348391036245  5.6942580681858308
  4.2697187040194180  9.9807778051517833  7.1150679511367683
  2.8460927071985047  8.5399487134311194  8.5399466236266299
  4.2768452041497822  9.9734296922509227  9.9734296526094184
  5.6892062145310707  0.0046074419044313  0.0045966393734097
  7.1200489631595687  1.4292357190102811  1.4288586376291872
  5.7116277119717225  0.0079476331928487  2.8629227831314519
  7.1345484975971249  1.4286330508581084  4.2863765002266021
  5.6982003963135419  0.0056661276103271  5.6942193977998903
  7.1369763486183944  1.4314307621017992  7.1133532863298266
  5.7103282545014045  0.0039622454318084  8.5399486672440794
  7.1266505155788771  1.4295940732041876  9.9741840362465126
  5.7115285044556412  2.8629901868077678  0.0079475256234180
  7.1345829361725057  4.2863788311143223  1.4287534375794821
  5.7280533959636548  2.8785457082380081  2.8785786703346936
  7.1335385994350045  4.2878031284827438  4.2879450198144582
  5.7048227051120080  2.8549384720492976  5.6899294893464099
  7.1355877269161185  4.2824293416344439  7.1147139973495825
  5.7218573435042952  2.8731024846191127  8.5284089729623140
  7.1349357253700028  4.2859255295282903  9.9705696416329221
  5.6981399561606905  5.6942580269204308  0.0056540819166604
  7.1369215643019439  7.1132985464991503  1.4314307512109063
  5.7047963821595360  5.6899332238261149  2.8549449080682954
  7.1355608292629729  7.1146871244845284  4.2824293719445317
  5.6975899867935880  5.6955284312100494  5.6955321519311681
  7.1414997836360454  7.1087749969216851  7.1087750808578223
  5.7048848934289813  5.7003891795540671  8.5453650153071266
  7.1430407602398347  7.1073204454827659  9.9811815934197874
  5.7103260877109401  8.5399465693484125  0.0039623381705966
  7.1266466346424444  9.9744394335051894  1.4297587665198721
  5.7218658438055074  8.5284175346103837  2.8731024166175758
  7.1350724251920461  9.9705944857019819  4.2858266477932210
  5.7049097432408988  8.5453899166398308  5.7003891689503847
  7.1429543466939283  9.9811816817676124  7.1072340721589393
  5.7197373932914362  8.5305374043195830  8.5305373891004415
  7.1352068134211395  9.9805560685179522  9.9807777897153276
  8.5723905660456978  0.0207414207826777  0.0206711261987346
 10.0288264234949249  1.4776564622151880  1.4778767766904148
  8.5601328914543231  0.0126973877488628  2.8479828545222645
 10.0243896999589577  1.4834892598263254  4.2258683911740311
  8.5703485689262244  0.0204001752795846  5.6799381091338610
  9.9638959286920574  1.4287535118270338  7.1156918378702096
  8.5560167518653394  0.0056541891024399  8.5521347847160296
  9.9760593178181463  1.4278829160857924  9.9687062195287410
  8.5601351357729509  2.8480543197770576  0.0126761926979308
 10.0244065405836604  4.2258851384007423  1.4834893117803440
  8.5104212256259242  2.8546367633957388  2.8547127387819278
 10.0235986304551314  4.2266762818301391  4.2266762456391795
  8.5646366400366762  2.8484743461080306  5.6856409672810297
  9.9624716074547539  4.2879450560940970  7.1167362791316160
  8.5603415520016775  2.8549448845902790  8.5454785246295604
  9.9634725488921330  4.2865511409850399  9.9692874960295139
  8.5703367088525830  5.6799262934666084  0.0204001882212945
  9.9638984509693209  7.1157263320922910  1.4286331110193575
  8.5646338960205348  5.6856382244869366  2.8484742578774016
  9.9623299394462776  7.1167362802695315  4.2878032080990547
  8.5697946025595471  5.6804803159708701  5.6804801912093055
  9.9678454414652329  7.1147140394145678  7.1146871799588425
  8.5547464191264435  5.6955322372018671  8.5526848043645955
  9.9644481804695815  7.1152024073060245  9.9705944595884244
  8.5560554759842962  8.5520743361886531  0.0056661723115549
  9.9759195586099185  9.9684306084491752  1.4277649966274959
  8.5603452657783343  8.5454521437980375  2.8549383009456517
  9.9637236619214331  9.9692875974332704  4.2868022794505949
  8.5547425756059141  8.5526848149760344  5.6955284482175523
  9.9643492324664447  9.9705696829870210  7.1153390376623316
  8.5498856686876135  8.5453650349248100  8.5453899175813390
  9.9751243200008091  9.9728180527143149  9.9726903179180724
  2.8187803002539704  0.0312748413340363  0.0312745481476833
