Fe W 
 1.0000000000000000
    11.3872071044720364    0.0000000000000000    0.0000000000000000
     0.0000000000000000   11.3795702302962631    0.0000000000000000
     0.0000000000000000    0.0000000000000000   11.3872070984332190
 Fe  W  
 126   1
Cartesian
 -0.0227966301907577  0.0001245673625749 -0.0449949373800846
  1.3485136494297700  1.3767390797221426  1.4979451064706644
  1.3735373704152227  1.3698489036072319  4.2156099204906736
  0.0034602057384377  0.0000251336912168  5.7374952411749494
  1.4177682484220984  1.4303605213403567  7.1226067048006616
 -0.0112197142214987 -0.0000133500489660  8.5349996467523326
  1.3896507349192715  1.4501233880546212  9.9259327743845187
 -0.0051750976290168  2.8336580221525556  0.0167845138528395
  1.4213976414311662  4.2611857703228990  1.4253019693521485
 -0.0178589742977353  2.9028007667377440  2.8645999415610586
  1.4276353251708656  4.2673854371012956  4.2717580038601932
 -0.0034899149385230  2.8355277629502353  5.6787317111300242
  1.4219474776548393  4.2662518511478638  7.1182110075805474
 -0.0163121373696701  2.8533508641580023  8.5267451324724650
  1.4172349821354748  4.2614160857808452  9.9605842948973802
  0.0067356302366311  5.6897783800729638  0.0104933021573988
  1.4214996203784935  7.1183844984658986  1.4254041818028358
 -0.0029263765673253  5.6897853223664425  2.8497278183993870
  1.4277096876358142  7.1122311750144620  4.2716330317342859
  0.0049879318340988  5.6898325149842224  5.6849564696496566
  1.4219276730016444  7.1132333341967069  7.1182489209938709
 -0.0045720740098908  5.6898111550133708  8.5384212922082483
  1.4171039039321893  7.1181674744470840  9.9607575504589736
 -0.0052417564310543  8.5458737838332297  0.0167544077618890
  1.3488567152531725 10.0028309495352463  1.4982880721280027
 -0.0177981450026017  8.4767697112793670  2.8646607677740854
  1.3734548112463538 10.0096893452875300  4.2160067537363695
 -0.0035459770150098  8.5440222857115327  5.6788307299330620
  1.4179063362714892  9.9488472861870392  7.1225932065630904
 -0.0163917594820386  8.5262520381118136  8.5268049168053945
  1.3894782587543359  9.9296877292505652  9.9261662993834303
  4.3078428113778076  1.4498825594652174  1.4573233203753355
  2.8917966174193848 -0.0001246441704771  2.8695983744091711
  4.2798305016618148  1.4310686654525049  4.2715737076021538
  2.8346943459138676  0.0000014846771907  5.6883568688190946
  4.2791835778265819  1.4297046588577380  7.1169178575344239
  2.8453340705961390 -0.0000858536228993  8.5311762653888898
  4.3010024510897074  1.4521359260755040  9.9329336973165692
  2.8271964367232632  2.8238391295988965  0.0196172800333337
  4.2732513744481064  4.2614027183988457  1.4296979212191201
  2.8300475966547256  2.8336965147983184  2.8520436580635873
  4.2671644247337586  4.2650744664865563  4.2677715470697262
  2.8279263832088222  2.8216531842995529  5.6789824569002665
  4.2611366358259195  4.2601592847237866  7.1113308378462765
  2.8437119368203936  2.8439063856216653  8.5387320365601624
  4.2659972360104206  4.2574059376122975  9.9681462851743117
  2.8410724683070758  5.6897853806769128  0.0057294433054627
  4.2734246295300000  7.1181539914156824  1.4295667801926319
  2.8363085695116550  5.6897916555878130  2.8400660341176103
  4.2671991810575252  7.1145528709633608  4.2677782615175737
  2.8424754843582205  5.6898363425019189  5.6901790081643409
  4.2611843282561876  7.1194347262894384  7.1113737397703796
  2.8429315406581286  5.6897775618976141  8.5469762076864644
  4.2658623605343111  7.1221644537023581  9.9680116134791614
  2.8271847547094207  8.5557312029651058  0.0196054301530547
  4.3080760357477041  9.9294466159487396  1.4571511086629698
  2.8300173152137327  8.5459118937432859  2.8519768148894391
  4.2797369198028639  9.9482497471948896  4.2717332615085510
  2.8279536442124686  8.5578866521808159  5.6791447598124920
  4.2793939434065429  9.9500080397275870  7.1169616888671436
  2.8436327050007719  8.5356464794346039  8.5388399894760720
  4.3010752201902305  9.9274341464631615  9.9330064321541958
  5.7028326237814229  0.0000855648799509  0.0014676389514877
  7.1114154814807886  1.4307230576498418  1.4288954051019456
  5.6990090411567955  0.0000132672048863  2.8580212147690851
  7.1135577949176545  1.4263628036498128  4.2737103544991468
  5.6900917964327551 -0.0000017594133834  5.6859369731948908
  7.1179479730027078  1.4231289948339250  7.1160912358262065
  5.6992674199108952 -0.0000002319269381  8.5347414597379583
  7.1170476278276142  1.4295624389546229  9.9546146633812622
  5.6951688618437428  2.8439238163166927  0.0031689539608010
  7.1157598286667323  4.2663367675507011  1.4248742498364906
  5.7072040167056732  2.8533181534207332  2.8631933087956556
  7.1233957513075303  4.2725645085889132  4.2731185032549082
  5.6978025516536288  2.8490058671656344  5.6894911982276053
  7.1296213085918421  4.2659469704736575  7.1043309402448527
  5.7093777470805431  2.8609290796674869  8.5245524952506191
  7.1226350365679094  4.2601355845777977  9.9728246410191304
  5.6870327608674236  5.6897926429993024  0.0038701795908507
  7.1157978779432316  7.1133184780852305  1.4248543639063884
  5.6955876612972176  5.6897591486484531  2.8513737520156619
  7.1234319742794723  7.1069775466362044  4.2731177535029312
  5.6889550726309848  5.6898053176889363  5.6907169203063539
  7.1296778396124996  7.1136230640076228  7.1043878509766181
  5.6970128615025359  5.6897852464442096  8.5369961179210989
  7.1226781693906513  7.1194109272418276  9.9728721129052431
  5.6952769022173904  8.5356637282159404  0.0030898856908180
  7.1114025131796250  9.9492094698363189  1.4290332540829980
  5.7072635913463925  8.5262198182601860  2.8631136979747853
  7.1135315037404903  9.9531170987791313  4.2736386176837158
  5.6978503958672313  8.5304963201825021  5.6895456658965857
  7.1179174677376320  9.9564413050835245  7.1160608249881765
  5.7094562310194368  8.5186407979047285  8.5246312995325635
  7.1170909961852260  9.9498655069955824  9.9548249937683568
  8.5456522148020024 -0.0000013596909938  0.0121074571227817
 10.0180019646410958  1.3698805912958083  1.4733468221033077
  8.4965137738983891 -0.0000250989752596  2.8433414931915428
 10.0181857827001934  1.3680079017583451  4.2158527392314467
  8.5545094273358622 -0.0000001383966600  5.6794991842020428
  9.9603698898274988  1.4264531399402025  7.1204775801993057
  8.5480718149046808  0.0000017151719323  8.5439170088142387
  9.9622758293715119  1.4313202619047123  9.9542721028496786
  8.5548642848179384  2.8216834635157073  0.0188479199098651
  9.9623757505322565  4.2673390450127666  1.4190920926181601
  8.5551780418721339  2.8355481727338572  2.8503477800709049
  9.9565391870326838  4.2772566204684379  4.2774153415697445
  8.5602859619164526  2.8261530338357828  5.6737206680403114
  9.9608911322657239  4.2725924663430987  7.1105770677415805
  8.5444633931653726  2.8490741309680514  8.5361586437552255
  9.9662302598799304  4.2650173413318742  9.9668094774443556
  8.5438297982563718  5.6897337922686955  0.0043262973966563
  9.9622507031833685  7.1121848336933882  1.4191667064299243
  8.5490524233452447  5.6897376963673052  2.8418137547496789
  9.9565937329391527  7.1023134534768984  4.2774694887312217
  8.5442035569175232  5.6897852144118497  5.6898053326654505
  9.9608903612982971  7.1070054864570649  7.1106129387157546
  8.5432918024825284  5.6897649790697900  8.5450539252175108
  9.9662373342204962  7.1144956747397341  9.9668445357219504
  8.5550265386889937  8.5579170730864362  0.0188753740428808
 10.0183990662698417 10.0097213238387361  1.4732642652770169
  8.5552771746572081  8.5440426175065216  2.8502915323457181
 10.0181562720958190 10.0115626132946609  4.2158230923706617
  8.5602882541243002  8.5534175699248287  5.6737227816337068
  9.9602984189174073  9.9532074079081916  7.1204509637298958
  8.5445175391942847  8.5305642474524213  8.5362061873925033
  9.9624354226549379  9.9485016589444086  9.9541783830473154
  2.8492174675415347  0.0000002297551326 -0.0024157819507068
