Fe V 
 1.0000000000000000
    11.3823664927967574    0.0000000000000000    0.0000000000000000
     0.0000000000000000   11.3823664943478491    0.0000000000000000
     0.0000000000000000    0.0000000000000000   11.3823664933070852
 Fe  V  
 127   1
Cartesian
  0.0209935583706602  0.0000000111576206 -0.0000000161962405
  1.4119199953416772  1.4336716257016258  1.4336716277630353
  0.0036693055821595  0.0000000088516105  2.8419223081236327
  1.4242507877001842  1.4214781187198005  4.2640113066975820
  0.0017935508798824 -0.0000000006820509  5.6911832689381505
  1.4241135191580989  1.4213408163138881  7.1183551521894861
  0.0036693145712944  0.0000000092146367  8.5404441708568886
  1.4119200130602882  1.4336716232442355  9.9486948501909040
  0.0036692965037538  2.8419223211344868 -0.0000000036620024
  1.4241135018316142  4.2640112975896445  1.4213408732604917
 -0.0048895028185045  2.8504811326110899  2.8504811168043598
  1.4231132582300225  4.2710874238019567  4.2710363001275393
  0.0009508355135308  2.8446407822906425  5.6911832368636199
  1.4231132376140212  4.2710362673849618  7.1112791221978489
 -0.0048894787541349  2.8504810884361533  8.5318853677720661
  1.4242507577005865  4.2640113180044477  9.9608883706549527
  0.0017935373853534  5.6911832440630024  0.0000000103615255
  1.4242507596156821  7.1183551911097744  1.4214781194511925
  0.0009508198995561  5.6911832609968034  2.8446407935474816
  1.4231132382071090  7.1113302201506601  4.2710874156853746
  0.0032813223358276  5.6911832418181749  5.6911832305769554
  1.4231132605183452  7.1112790873674472  7.1113302039603088
  0.0009508183844741  5.6911832346321249  8.5377256841418223
  1.4241135183462297  7.1183551714085178  9.9610256265313399
  0.0036692792450723  8.5404441664190305 -0.0000000026412665
  1.4119200190276138  9.9486948636132659  1.4336716020805300
 -0.0048894808164777  8.5318853909932066  2.8504811322763239
  1.4241134977974181  9.9610257078076057  4.2640113446526762
  0.0009508436285662  8.5377256923751208  5.6911832857236986
  1.4242507855436237  9.9608884032835032  7.1183552127435297
 -0.0048895019019363  8.5318853837181035  8.5318853850286338
  1.4119200164970285  9.9486948667958792  9.9486948986664174
  4.2792632550416076  1.4336716331626420  1.4336716170034360
  2.8455916289547218  0.0000000256292579  2.8245980998165185
  4.2670697339535408  1.4213408246911285  4.2640113309442960
  2.8455916101948917  0.0000000274777351  5.6911832329381236
  4.2669324568456553  1.4214780869660943  7.1183552070056146
  2.8455916083992494 -0.0000000034266730  8.5577683766886796
  4.2792632478687471  1.4336716305361479  9.9486948929041699
  2.8455916181824885  2.8245980681343470 -0.0000000092580829
  4.2669324824241972  4.2640113201835099  1.4214780589713307
  2.8455915994915908  2.8419223439996246  2.8419223464611951
  4.2680699852108086  4.2710362681774887  4.2710873967683520
  2.8455916203903890  2.8437980761465123  5.6911832557629491
  4.2680699787343626  4.2710873988058946  7.1113301977274164
  2.8455916228807783  2.8419223261347222  8.5404441477446440
  4.2670697565379792  4.2640113311035037  9.9610256162029245
  2.8455916142985767  5.6911832304917347  0.0000000051641474
  4.2670697439855783  7.1183551763232558  1.4213408800761889
  2.8455916083468509  5.6911832519097345  2.8437980476461919
  4.2680699783016589  7.1112790726794355  4.2710362781693494
  2.8455916462545572  5.6911832428659235  5.6911832736803376
  4.2680700174806239  7.1113302164924939  7.1112791021303501
  2.8455916453972478  5.6911832579111907  8.5385684358284291
  4.2669324782115687  7.1183551820159314  9.9608883587910952
  2.8455916213804353  8.5577684499071047 -0.0000000197288494
  4.2792632165561253  9.9486948735390222  1.4336715836996357
  2.8455916228517091  8.5404441600028118  2.8419223350522516
  4.2669324524576000  9.9608883820348666  4.2640113127167840
  2.8455916323411743  8.5385684106314574  5.6911832699297422
  4.2670697364523091  9.9610256963916601  7.1183551535626268
  2.8455916151390941  8.5404441628903669  8.5404441400811688
  4.2792632263061714  9.9486948667991637  9.9486948767807117
  5.6701897237228271  0.0000000030018466 -0.0000000055435330
  7.1096029199569646  1.4214780807030467  1.4213408378607510
  5.6875139315155083 -0.0000000102167958  2.8419222933734587
  7.1166790297078677  1.4224783693601830  4.2710363025787350
  5.6893896915999207  0.0000000010067669  5.6911832477870643
  7.1166279391364373  1.4224783632226303  7.1112791076526127
  5.6875139635944949  0.0000000104065411  8.5404441861546747
  7.1096029692842997  1.4213408260028475  9.9608884115240528
  5.6875139614950072  2.8419223219541205 -0.0000000048839203
  7.1166278982863469  4.2710873849013211  1.4224783654780377
  5.6960727274560181  2.8504811329352204  2.8504811372707630
  7.1135046519989347  4.2679130419086011  4.2679130488189090
  5.6902324188563354  2.8446407932555280  5.6911832737314034
  7.1135046680014558  4.2679130225941311  7.1144534453780421
  5.6960727399450919  2.8504810995672436  8.5318853428028589
  7.1166790383228671  4.2710362522266552  9.9598880965695109
  5.6893897296762734  5.6911832506269038  0.0000000027675699
  7.1166790280826717  7.1113302375210914  1.4224783752590402
  5.6902324185831725  5.6911832414513510  2.8446408032173389
  7.1135046529504340  7.1144534506143753  4.2679130654121433
  5.6879019221219664  5.6911832483554834  5.6911832600658867
  7.1135046669618811  7.1144534585139656  7.1144534558079240
  5.6902324342190207  5.6911832366465802  8.5377256836984170
  7.1166279004743460  7.1112790797094361  9.9598881209698842
  5.6875139765746550  8.5404441662965827  0.0000000052441872
  7.1096029565926582  9.9610257012967356  1.4214780834938379
  5.6960727895979240  8.5318854085845590  2.8504811157051844
  7.1166279117384885  9.9598881431009598  4.2710874096580289
  5.6902324180328385  8.5377257091898162  5.6911832206609798
  7.1166790119816552  9.9598881223099287  7.1113301834264337
  5.6960727164045757  8.5318853906537164  8.5318853575781777
  7.1096029420068536  9.9608884102797557  9.9610256520729905
  8.5367748784757236 -0.0000000045772348  0.0000000243378310
  9.9639467470595573  1.4213408123287867  1.4214781033631565
  8.5367748750764072  0.0000000115163338  2.8437980782814294
  9.9569218348642696  1.4224783584894112  4.2710874060356456
  8.5367748741983522  0.0000000037082422  5.6911832687814492
  9.9568707115651733  1.4224783735965383  7.1113301940918356
  8.5367748684584903 -0.0000000065432780  8.5385683935325343
  9.9639467977901273  1.4214780987040208  9.9610256611607308
  8.5367748623479240  2.8437980822209421  0.0000000015560191
  9.9568707188104906  4.2710362579082544  1.4224783810644257
  8.5367748317184287  2.8446407869028234  2.8446407860737368
  9.9600450577900581  4.2679130326400436  4.2679130320876704
  8.5367748758532169  2.8423103211239091  5.6911832510362137
  9.9600450784904684  4.2679130309329265  7.1144534453495147
  8.5367749028004081  2.8446407897233033  8.5377256994477282
  9.9569218476575632  4.2710874070468741  9.9598881161467752
  8.5367748741770413  5.6911832513019238  0.0000000160184678
  9.9569218563867121  7.1112790880986534  1.4224783815439237
  8.5367748634663982  5.6911832362083308  2.8423102568850864
  9.9600450480400404  7.1144534602795844  4.2679130234519693
  8.5367748810705955  5.6911832469417911  5.6911832451886371
  9.9600450757067751  7.1144534366655590  7.1144534603647260
  8.5367748696038248  5.6911832495931929  8.5400562049303783
  9.9568707285161118  7.1113302347417848  9.9598880967423487
  8.5367748618687092  8.5385683801114869 -0.0000000006305611
  9.9639468029977660  9.9608883703076661  1.4213408237942209
  8.5367748926380802  8.5377256932232406  2.8446407911666407
  9.9568707093470223  9.9598881237436778  4.2710362876806833
  8.5367748613706471  8.5400561829366648  5.6911832362596178
  9.9569218147069449  9.9598881352940190  7.1112790974473414
  8.5367748711573714  8.5377257102124027  8.5377257190366027
  9.9639467476614669  9.9610256677002784  9.9608883690634045
  2.8455916312165423  0.0000000033713722 -0.0000000055938249
