Fe Re
 1.0000000000000000
    11.3824519858891922    0.0000000000000000    0.0000000000000000
     0.0000000000000000   11.3937417505476368    0.0000000000000000
     0.0000000000000000    0.0000000000000000   11.3824549661763381
 Fe  Re 
 126   1
Cartesian
  0.0419110890042828 -0.0076073559466035 -0.0027629557057549
  1.4180423023717403  1.4108185877667194  1.4273682136900883
  0.0094160300176658 -0.0023354533257470  2.8361472483347256
  1.4317442277987191  1.4339832363853089  4.2528396975334690
  0.0013057242401001  0.0051523362879304  5.6905627038396656
  1.4349716711580793  1.4244538551226174  7.1212711825246098
  0.0107766991994980  0.0052778686494743  8.5498749373499514
  1.4227176069550584  1.4527837458402755  9.9676678203691793
  0.0713393672053176  2.8876130733853809  0.0546446888873264
  0.0633834518207209  2.9031271032309665  2.7823911595807282
  1.4174684484839284  4.2736118585363130  4.3066862921136897
  0.0014087923074951  2.8436925413154839  5.6945560302937217
  1.4165698512344496  4.2729502677562232  7.1169606588383472
  0.0024667161451197  2.8426900860012019  8.5400158274938782
  1.4227583367629031  4.2797072263687133  9.9186352014814947
  0.0498014794235070  5.6499782293059138  0.0529984005914289
  1.4308712711008182  7.1783844277789823  1.4149331359112682
  0.0464387740192429  5.6572307569135472  2.7992602310413006
  1.4175279988784062  7.1109000721791125  4.2611831100456286
 -0.0022172733570355  5.6960118594814144  5.6925194388723002
  1.4169230736099865  7.1127611000208457  7.1114283855110436
 -0.0039511221317369  5.7032524346851874  8.5347305666705964
  1.4303878343263303  7.1159844618714123  9.9803957092890379
  0.0007537864612873  8.5555873425380256 -0.0038691702873571
  1.3931930125066783  9.9377593537566220  1.4521717247163892
 -0.0107972658387537  8.5391111188289326  2.8563845054785966
  1.4250602294286554  9.9725350777468069  4.2574835276905034
 -0.0025385994054669  8.5455327061831525  5.6916082885404649
  1.4256631745445953  9.9755551206605784  7.1169385020275335
 -0.0055042766454190  8.5380850678193081  8.5319919346510549
  1.3859186639814094  9.9372853791579079  9.9317543693892922
  4.2608449524177612  1.4527430543207887  1.4228863689409481
  2.8482854279639529 -0.0074596140978135  2.8031785813719026
  4.2366144504945717  1.4377938076063337  4.2453117797603932
  2.8431919819789617 -0.0010482343980186  5.6861946749850176
  4.2516242772607500  1.4208460419314741  7.1203259778073198
  2.8450714208655179 -0.0086341784343364  8.5841187179635501
  4.2555375363457815  1.4597541404419865  9.9723443455739726
  2.7981408456856451  2.8893645258321010  0.0474989937537216
  4.3093274207765004  4.2797721498699071  1.4232183838297450
  2.7906797469309002  2.8876854544285302  2.7740802181885029
  4.2586610361775952  4.2727080012856975  4.2523978323725595
  2.8468202770544040  2.8509890742055233  5.6905711808050778
  4.2654054775626973  4.2718744840769798  7.1159433850632263
  2.8503812810502458  2.8403751122088026  8.5476085766497807
  4.2547700866875182  4.2816329110142268  9.9735426372285367
  2.7912441802583632  5.6466246559575293  0.0544268073472474
  4.2477361486694232  7.1161184987064194  1.4150238699779221
  2.7926080137555811  5.6501458872431414  2.7960012050577183
  4.2572867597646002  7.1041101155112640  4.2540282733557895
  2.8477708094738010  5.6965104460171947  5.6921737164162822
  4.2707448403676178  7.1168442060269435  7.1138337972037915
  2.8475167861084425  5.7036224123298549  8.5308598457588172
  4.2421239321275435  7.1102627605866466  9.9858869090811080
  2.8501358091477935  8.6090609495049808 -0.0044509306673502
  4.2964555230220132  9.9372419688846900  1.4598061233957742
  2.8495162282272823  8.5557375479792981  2.8448532907983655
  4.2629986893267100  9.9749584950053674  4.2608568506310647
  2.8457900183260976  8.5450199452298872  5.6917567858372911
  4.2638278179560363  9.9752665279081718  7.1156554541746617
  2.8452424051483436  8.5532054913732036  8.5455515050502804
  4.3021631096377284  9.9373811343942755  9.9257948478608284
  5.6439765022521042 -0.0087423937212415  0.0003059112964365
  7.1069059352820600  1.4246111099117404  1.4104788588617154
  5.6783186983960565  0.0053475668736093  2.8347652772961820
  7.1134864281168593  1.4366092280143612  4.2627222903987114
  5.6829034925209614  0.0125722554290742  5.6832767997386773
  7.1144665054278065  1.4357121707156613  7.1136511279167651
  5.6760795314870256  0.0123454390428144  8.5519493996819325
  7.1076801642140079  1.4207710290465294  9.9762244266008278
  5.6803872867893848  2.8403357633273454 -0.0043606576576177
  7.1111614080360592  4.2728905048688635  1.4291222132398400
  5.6880665777195398  2.8427446643638192  2.8434441818684393
  7.1079627517415211  4.2675971632990057  4.2565993054146434
  5.6850093854478230  2.8459089058456204  5.6905793652925407
  7.1100951566004360  4.2666026899489866  7.1179557446150410
  5.6854026300270029  2.8449622244572739  8.5427127873613919
  7.1120755393069919  4.2719448708251386  9.9626587838782346
  5.6972666748267065  5.7034742571863593 -0.0019517612842116
  7.1164840577559847  7.1126706114731446  1.4287328394360082
  5.6932619379118083  5.7034422437646430  2.8496329949786308
  7.1176840026080779  7.1136037183213752  4.2703201447246464
  5.6879248500694430  5.6925626257544666  5.6901783997181052
  7.1187832266272153  7.1146155374432105  7.1092648002945404
  5.6924210684952126  5.6985593085944775  8.5356643227756273
  7.1143372135934753  7.1168967626294837  9.9573594578259872
  5.6825882463231672  8.5531383321892207  0.0004042977513003
  7.1111304655957515  9.9756742562518657  1.4200358850383374
  5.6960781625454340  8.5381041472996024  2.8511489857583427
  7.1135506049762895  9.9691785678506477  4.2655491621618262
  5.6862442536684590  8.5390390460255805  5.6841915261574707
  7.1132572917984866  9.9689145281892344  7.1147272073353829
  5.6900139364962614  8.5310547697284100  8.5380879283228648
  7.1124376109759817  9.9750882233757139  9.9643178348955246
  8.5418139521395116 -0.0009780574271154  0.0024056203290050
  9.9752136471119641  1.4339681039123864  1.4138491611775861
  8.5374861605349874  0.0051151039355961  2.8443647358902822
  9.9796488797464367  1.4529121434188190  4.2483251769120747
  8.5448874582509280  0.0120456762865426  5.6831908835920846
  9.9654478912260593  1.4366349821272595  7.1145246329840912
  8.5447818727351432  0.0125466343247953  8.5451446350026057
  9.9826404005795517  1.4379921407830827  9.9914537010959013
  8.5374898739135077  2.8510730031270999 -0.0013859634466044
  9.9214860619126064  4.2735689251624924  1.4282565582349673
  8.5334430167617192  2.8436154696302385  2.8440866828883249
  9.9766121281381235  4.2673413277367054  4.2513817243663015
  8.5391081426766942  2.8497552851293322  5.6888687108858047
  9.9715546141629581  4.2675589849789706  7.1200496440379615
  8.5374703538481764  2.8459461951943088  8.5429259997196656
  9.9756958560362001  4.2726440529353740  9.9692783350913157
  8.5359717162813258  5.6965249587581575 -0.0020053907451806
  9.9668652587424731  7.1108867897119836  1.4280078471330004
  8.5354952365556702  5.6959347685473674  2.8479428529878001
  9.9703900381832344  7.1026426552615076  4.2576200210462876
  8.5379088705724229  5.6825158244317908  5.6902469122327757
  9.9578503353045917  7.1135966622892708  7.1103998310611303
  8.5378851371179980  5.6925119309765195  8.5401239008028647
  9.9741688195796510  7.1039144712850968  9.9707453287985643
  8.5363580849727025  8.5449829326108926 -0.0001811982926362
  9.9704799353585098  9.9723349759428483  1.4204620645039123
  8.5363700487925769  8.5454293402042971  2.8481341737257919
  9.9635243505709390  9.9699160408452467  4.2645616882682873
  8.5429341418241407  8.5454230386557182  5.6851881539474389
  9.9624557119033934  9.9691699115174419  7.1146063198584333
  8.5438789571418372  8.5389664584000418  8.5417871454851468
  9.9671473887071453  9.9749377038215084  9.9649509412775483
  2.8502695420926218 -0.0551529400946877 -0.0044398745407201
