Fe Zr
 1.0000000000000000
    11.4593197499840844    0.0000000000000000    0.0000000000000000
     0.0000000000000000   11.1742979478341482    0.0000000000000000
     0.0000000000000000    0.0000000000000000   11.4593197548245644
 Fe  Zr 
 126   2
Cartesian
 -0.1001038132477373  0.1240747997934030 -0.0427102310360901
  1.0801540352424468  1.2629466926967206  1.7902062071173097
 -0.1311388813196606 -0.0197040976614696  2.9959204556967522
  1.4074694667971961  1.4030278918416639  4.2642809428291990
 -0.0235477696167011 -0.0083815106799603  5.7152432923485001
  1.4124430232771852  1.4159294226483268  7.2001254479203274
  0.0077336240318501  0.0283780974826946  8.5904614577579625
  1.2305498632915881  1.5762413793089771  9.8318525438014586
 -0.1950518691214697  2.6141215943570177 -0.2018653421901571
 -0.2151357254077450  2.6900729707602795  3.0798751239144053
  1.4301458478068079  4.1602014348110687  4.3154051445871948
 -0.0455628324526106  2.7962981252943049  5.7280198756735254
  1.4327336416793341  4.1685424269580311  7.1638670803823228
 -0.0986210394127256  2.8310806233231016  8.5625907929307150
  1.3897044924446977  4.0662864808504606  9.9268005663178442
 -0.0670801100110132  5.5909789649456210 -0.0725862282114707
  1.4450163601195556  6.9166616593775876  1.4200236598256235
 -0.0422780371699466  5.5878854311082291  2.9073503292532084
  1.4412438777498815  6.9525198108887043  4.2594012685663847
  0.0133572590623521  5.6019215180638540  5.7312368622394079
  1.4383605795910135  6.9880185994414958  7.1725508380344714
 -0.0137061543030477  5.5781013929894128  8.5960574080940866
  1.4401739702057106  6.9567683574297563 10.0606471062441329
  0.0337422841783936  8.4078909763851133  0.0077590066519093
  1.3218672181780906  9.8109890707745873  1.5426253502689771
 -0.0280807098981391  8.3698351803024185  2.8927501807431342
  1.4444877508864491  9.8124101545774973  4.2748216670373633
  0.0074825219894807  8.3701232635692886  5.7183311399057200
  1.4283575357331679  9.7765115002973655  7.1642608242454813
 -0.0097156363639919  8.3514010417683178  8.5830503638380389
  1.3598289633865281  9.7736804803111337  9.9598244766091515
  4.4917303560577038  1.5783688004087886  1.6350784349834260
  2.9087041219680514  0.1255135231625184  2.9667731151180936
  4.3959423696460806  1.3591780434392300  4.3280652965496849
  2.8647697592110863  0.0217611268053679  5.7271910513363258
  4.3423722917471661  1.3941371691410023  7.1628494142652261
  2.8673329081933119  0.0294612730652891  8.5763217749402969
  4.5122922152775899  1.5002870446811398  9.8117670394611647
  3.2226146567504674  2.9274134159572065 -0.3522540734689630
  4.3991883069766846  4.0648480287915723  1.4762896652618491
  3.0674936060517175  2.6119938470394155  3.0593161159325182
  4.2892939584493108  4.1616779594626436  4.3012441855304964
  2.8847871172608213  2.7741599483899329  5.6905272557927464
  4.3207064340679251  4.1987992655367412  7.1756877175885254
  2.8900284868869108  2.7867272177153302  8.6272047249725503
  4.4283411423302663  4.2100711932481252  9.8957608446919192
  2.9750396003029400  5.5536706998169976 -0.1105473527955599
  4.2636943456117313  6.9569540023654284  1.4246939405616821
  2.9374996781504539  5.5915105388141848  2.9318190335666219
  4.3069781742856366  7.0133556845431526  4.3087054940463823
  2.8685339505408489  5.5881443310520904  5.7271718036130759
  4.2892094239095329  6.9946874686587170  7.1730525455447838
  2.8526219449273449  5.5523883767029067  8.6167428044034455
  4.3251651262928075  6.9948237888130373  9.9988242648632664
  2.8524386444066052  8.4479980648813466  0.0126011837040558
  4.3642342693855696  9.7731490401437018  1.5050846735625214
  2.8571091729083422  8.4077053881835919  2.8312798401253536
  4.3108858090589610  9.7861893774544466  4.2955794004677701
  2.8585552697582370  8.3766706717541961  5.7193480252628506
  4.2838935597323600  9.7625792468067125  7.1602049214303385
  2.8555895842210028  8.4123421525419886  8.6323345785505232
  4.3397645411290409  9.7767745568838329  9.9846269105980081
  5.7478199017553013  0.0301603843115074 -0.0022696019331150
  7.1229425562678914  1.4162014537893381  1.4523714727032535
  5.7336591824131986  0.0286838343019544  2.8568787766177679
  7.1645589515097763  1.3692680651809419  4.3411252216052247
  5.7686287693593057 -0.0548111559143230  5.7552203216926108
  7.1815510183923621  1.3727043884011056  7.1424487507731627
  5.7624336522128319 -0.0603845613050020  8.5614903255806638
  7.1604345839880041  1.3940637371534095  9.9813423525114047
  5.6966970561253261  2.7873329863724976 -0.0249442992364423
  7.1596056650583035  4.1686000509409844  1.4323546314468882
  5.7604805372163330  2.8311839987818930  2.9635273680140601
  7.1876350753535840  4.2451728658855012  4.3362137467075392
  5.7735404974915028  2.8210936469182508  5.7321439941334722
  7.1867370950279517  4.2668297896447189  7.1374628382541765
  5.8094003807715300  2.8340252124645491  8.5144513517067768
  7.1476571973233183  4.1987427303949367 10.0033574554838456
  5.7072365456215950  5.5522489513878543  0.0120721791777739
  7.1517632926325208  6.9879893228347338  1.4261405532732601
  5.7279947623595184  5.5784700852455975  2.8784709383361196
  7.1690265958924009  6.9971625241349047  4.2963543841654799
  5.7307208777877214  5.6250963153142086  5.7221441299850468
  7.1718600067150513  7.0176858394121631  7.1523395568968766
  5.7750809936966672  5.6382935069443096  8.5487314993291594
  7.1507461649538406  6.9945365061212499 10.0343873625566715
  5.6918158858246537  8.4121400856610098  0.0088290605089726
  7.1595869214943457  9.7765158560493717  1.4361186784502711
  5.7411206761974807  8.3513044782303218  2.8745629724587713
  7.1545593692236897  9.7395633845017109  4.2983062139354162
  5.7287690833873484  8.3674972557382485  5.7366115425418798
  7.1730794300852212  9.7071039843936457  7.1512837167386447
  5.7519481728846875  8.3784872357321554  8.5719323332228257
  7.1636518637856206  9.7627381625817424 10.0402619618503444
  8.5962818384167434  0.0218188653142611  0.0003183665646121
 10.0596212205131987  1.4036341280531599  1.4576140238905950
  8.6081019860661385 -0.0084374317595739  2.8882921855209522
  9.9468659689425305  1.3563362915325494  4.3769857128941743
  8.5698780013420048 -0.0764680221346873  5.7543221458401783
  9.9829245567382667  1.3695759494306268  7.1591213601293680
  8.5687101878430969 -0.0546467403926709  8.5551415925923244
  9.9950057293778229  1.3592809455815713  9.9282833229854663
  8.6325411619399688  2.7744321452965632 -0.0199718039409469
 10.0087367823809448  4.1609001928221483  1.4349177882187398
  8.5952640765958641  2.7962244845029840  2.9099575907081139
  9.9939050170548800  4.2507472095389405  4.3300188708245484
  8.5748639333737451  2.8176567536250938  5.7491357826429166
  9.9875564450788694  4.2450086213687923  7.1362949489918401
  8.5915360766935205  2.8207854578911276  8.5505097348248302
 10.0228764099147725  4.1619835087184978 10.0346382579832181
  8.5966757279738637  5.5881481763318890 -0.0040573685263886
 10.0647495025288514  6.9523176722326934  1.4231746532149625
  8.5926198347636173  5.6020809737926340  2.8514785120638111
 10.0043473572873758  6.9861724545965620  4.3195330282550515
  8.5836981339659051  5.6575560099974753  5.7406646262575132
 10.0278308096683357  6.9968853252044010  7.1553052646620081
  8.6018293758859574  5.6248948067027964  8.5933848049520059
 10.0154656004521545  7.0132589114133053 10.0171894296888393
  8.6049662305446191  8.3766411762838526  0.0059457073114636
 10.0491576915550365  9.8122712081293315  1.4202064783410187
  8.6054672694088445  8.3699721386842718  2.8567944622565586
  9.9811454515687625  9.7263649476587055  4.3426670805218270
  8.5847547311421977  8.3469741366365220  5.7394450121871055
 10.0257998484829685  9.7397651760227753  7.1694143047905543
  8.5877199481884823  8.3677742662988095  8.5954158071240805
 10.0284727236141826  9.7865583917460128 10.0131981412774742
  2.7568863452607304  0.4508272482093282  0.1088484326610743
  1.5412642810154298  3.7395331107906467  1.3244703093443664
