Fe Ir
 1.0000000000000000
    11.3964500156114532    0.0000000000000000    0.0000000000000000
     0.0000000000000000   11.3964500099591266    0.0000000000000000
     0.0000000000000000    0.0000000000000000   11.3964500191229963
 Fe  Ir 
 126   1
Cartesian
  0.1111304373836184  0.0542886978671932  0.0543135517192314
  0.0368369780451158  0.0305517953409320  2.8119904880736262
  1.4299219992470409  1.4193207160841230  4.3133252029931848
  0.0012384951974102 -0.0055429173877347  5.6950556954145499
  1.4163260288443338  1.4326260745192596  7.1191234810701332
 -0.0104588979131669 -0.0049837217264060  8.5362237758188346
  1.4026804047166155  1.4467786936598903  9.8996006103876457
  0.0371219607975382  2.8122755363868599  0.0305518189629919
  1.4297918209906613  4.3133252407571581  1.4191904787577450
  0.0462130818992271  2.8028994304896293  2.8028993888496130
  1.4210940107053325  4.2674644092404188  4.2675124709612184
 -0.0077234898394670  2.8569493827613219  5.6983901059094935
  1.4203283093940282  4.2740104045723539  7.1152345010399660
 -0.0239989439139652  2.8731277201774419  8.5242134636752542
  1.4296700515156133  4.2606618015066857  9.9824151930536686
  0.0012771444120868  5.6951189620024207 -0.0054876646332367
  1.4164864303389151  7.1191235062330280  1.4327864109474757
 -0.0078368680118386  5.6983900520211170  2.8568358676429240
  1.4203759249063277  7.1151501052140391  4.2737679576915433
  0.0003470699825689  5.6976714392297279  5.6975467854725794
  1.4173421181205976  7.1150330896963583  7.1149830287058222
 -0.0042300594117739  5.6936140918439309  8.5413341203178330
  1.4225559134179731  7.1193503574790498  9.9727737802068130
 -0.0106238010367849  8.5363142264985843 -0.0048928224078590
  1.4023339529083763  9.8996008317086410  1.4464320234395840
 -0.0240152799227448  8.5242134362950779  2.8731115362214599
  1.4296209488527636  9.9826033274316259  4.2605084295268929
 -0.0041380041461698  8.5413492183852355  5.6935810451497275
  1.4228109194951133  9.9724134981547277  7.1192273722802870
 -0.0046050684388978  8.5406760549385936  8.5406577608691325
  1.4405898851464505  9.9812638097163298  9.9812494977543373
  4.3459616889086625  1.4464320311129060  1.4467785831276099
  2.7948237182865885  0.0543134854791487  2.7379819700782746
  4.2631473069973298  1.4194425970107984  4.2606617593348961
  2.8485368400382347  0.0004552071931661  5.6933030257354096
  4.2727887271631309  1.4265566462145247  7.1193503720242619
  2.8457028376759106  0.0034541174453959  8.5568310973585309
  4.2643130711925474  1.4085227012069053  9.9812637908274038
  2.7947990357523982  2.7379821304938674  0.0542887894355030
  4.2629592080140331  4.2605084073321944  1.4194915994823170
  2.8185606935538514  2.8119904877571740  2.8122755221834659
  4.2661270423197406  4.2691129969216330  4.2689955250049474
  2.8546001522380089  2.8478353622272858  5.6951189206931705
  4.2817718700040697  4.2774270149995228  7.1185170736942682
  2.8540052921755823  2.8597362776223103  8.5363142263255707
  4.2553128446329511  4.2588526109505445  9.9904452231054677
  2.8486572021434440  5.6933030552651083  0.0005756025852812
  4.2731490193936752  7.1192273762447549  1.4263016395779637
  2.8546555296303500  5.6950557321943922  2.8478739923090246
  4.2819023869690271  7.1184802492007604  4.2775693028178630
  2.8499723056259167  5.6983273288202669  5.6983870570431261
  4.2807073908585300  7.1181889441255972  7.1181982752414781
  2.8510356559883649  5.6954003603354719  8.5492598526681540
  4.2682491125693236  7.1262931138411121  9.9770635433306989
  2.8456583979933909  8.5568312286086883  0.0034097036971874
  4.2642986991659164  9.9812494742506708  1.4085226133452597
  2.8540963324192017  8.5362238265172365  2.8595713759132178
  4.2551173252968448  9.9902496971210990  4.2588527020735460
  2.8510579064877932  8.5491885249129584  5.6953553289758627
  4.2684989527377706  9.9773134438104361  7.1262931074207128
  2.8528684571368381  8.5435969015372812  8.5436673287740987
  4.2146707281487936 10.0308917883750439 10.0308917749838731
  5.6887313789300764  0.0034096676085339  0.0034541896785377
  7.1264389870887417  1.4327864355509894  1.4326260720418820
  5.7092482767273847 -0.0048928198186775  2.8597362161019304
  7.1303280296955407  1.4287842642250765  4.2740104189637451
  5.6963027504593224 -0.0019232131159264  5.6954003442397312
  7.1305794410360912  1.4317704104046505  7.1150331800636799
  5.7018951518909020 -0.0037559137474049  8.5435968021016588
  7.1263351451345596  1.4263016111600646  9.9724135368550932
  5.7093386634240479  2.8595713970282466 -0.0049838406089674
  7.1304124471609764  4.2737678652060689  1.4287366002842212
  5.7213491142178619  2.8731115824135927  2.8731277001204623
  7.1323412894577753  4.2803954181448445  4.2804391168302383
  5.7042284907900056  2.8533425731190269  5.6936140078809920
  7.1267607295120028  4.2738556495065181  7.1187958196998782
  5.7049046632164409  2.8537176252525618  8.5406760500703438
  7.1270822445044555  4.2775692901067854  9.9636601039944619
  5.6963739110024214  5.6953553532166890 -0.0019454988676382
  7.1305293868306840  7.1149830517173775  1.4317703702440869
  5.7042132469649474  5.6935810404791249  2.8532504729775816
  7.1267667418756284  7.1188018557274226  4.2738556752414825
  5.6954062817942948  5.6935705649245119  5.6935848660449944
  7.1206973676383880  7.1248651263219980  7.1248651556165719
  5.6934591324148309  5.6945199214351607  8.5520255180398035
  7.1273736431987160  7.1181982137139057  9.9648551054271266
  5.7019657158268284  8.5436673961445404 -0.0037558952018708
  7.1262121977488029  9.9727738931317855  1.4265565939377742
  5.7048864490689075  8.5406577713911620  2.8537176013377321
  7.1270454283923428  9.9637906367271221  4.2774270533427492
  5.6935370306991411  8.5521034096264614  5.6945198805037354
  7.1273642115943083  9.9648551561259566  7.1181888693703739
  5.6839686639841602  8.5615939047339360  8.5615938859937319
  7.1192694192840262  9.9770635756828678  9.9773134143639179
  8.5522594761228525  0.0005756738840238  0.0004552713487127
  9.9322373960254087  1.4191905112444991  1.4193208149576952
  8.5504435884509764 -0.0054876697844757  2.8478354328487185
  9.9780500279216326  1.4280184538411353  4.2674644113843652
  8.5471755788347270 -0.0008597820534838  5.6983272760616135
  9.9717946429026334  1.4287366148533203  7.1151500435322008
  8.5502072182264932 -0.0019454803973173  8.5491885245587707
  9.9850540965390877  1.4194916057102145  9.9826033189548280
  8.5505068247099949  2.8478739755197426 -0.0055429356324649
  9.9780981554447266  4.2675124964611220  1.4280184395604345
  8.5471724767751862  2.8568359474882565  2.8569493360450919
  9.9834869123889085  4.2620756006297684  4.2620756368152017
  8.5480158684286494  2.8487655561235821  5.6976713575605364
  9.9651671533795199  4.2804391041420393  7.1132212597470463
  8.5519814954758910  2.8532504865269352  8.5413491926752236
  9.9764495459097109  4.2689955853752837  9.9794354879196021
  8.5472352182090940  5.6983870844075737 -0.0008598118836192
  9.9715520970509370  7.1152344498723288  1.4287841942708608
  8.5478910946740410  5.6975467857497542  2.8487654563952245
  9.9651233341823318  7.1132211867145960  4.2803954233374588
  8.5499535732883132  5.6956088758412777  5.6956089828784551
  9.9717068288155133  7.1187958041727128  7.1188018590676183
  8.5519919264815130  5.6935848962550857  8.5501562092903107
  9.9681354553668609  7.1185171052166218  9.9637906166104120
  8.5501622198896570  8.5492598256255530 -0.0019231381643184
  9.9849007086373014  9.9824152067686232  1.4194424988289038
  8.5519484273359865  8.5413339966583024  2.8533426386532628
  9.9765669177430514  9.9794354857187848  4.2691129841523541
  8.5519776301049397  8.5501561876584162  5.6935705939387153
  9.9679931694838650  9.9636600888177274  7.1184801934503010
  8.5510426327681675  8.5520253897943164  8.5521034213425615
  9.9867098490731383  9.9904451646678307  9.9902496332539243
  2.7718382615575505  0.0772741570652188  0.0772745835752789
