Fe Ti
 1.0000000000000000
    11.3830079628407095    0.0000000000000000    0.0000000000000000
     0.0000000000000000   11.3830079653989689    0.0000000000000000
     0.0000000000000000    0.0000000000000000   11.3830079630171763
 Fe  Ti 
 127   1
Cartesian
  0.0055197943664597 -0.0000000582966243  0.0000000105552124
  1.3861223633551345  1.4596296520870864  1.4596297375525669
  0.0086166177748224  0.0000000376355800  2.8371353273958193
  1.4243860932420875  1.4214655668993443  4.2615352956652188
  0.0015734950531366 -0.0000000650741411  5.6915040624182724
  1.4242863803379571  1.4213659012200588  7.1214726068711061
  0.0086165086848878  0.0000000831453378  8.5458725162733913
  1.3861222978567540  1.4596296084272875  9.9233783159345048
  0.0086165395405107  2.8371353607166725 -0.0000000830550467
  1.4242863949173066  4.2615354017100522  1.4213658164015959
 -0.0223685310566967  2.8681205178532405  2.8681204589899290
  1.4259709138582952  4.2696292358682975  4.2696199606239178
 -0.0010071356952198  2.8467590918584320  5.6915039383925965
  1.4259709524657977  4.2696200083281299  7.1133787189426245
 -0.0223685159848560  2.8681204814365984  8.5148874298808295
  1.4243860678212938  4.2615353561704925  9.9615423749596754
  0.0015734991501640  5.6915039418671860 -0.0000000660458136
  1.4243860923458471  7.1214725274760475  1.4214655815493378
 -0.0010071148811949  5.6915040180205754  2.8467592321560526
  1.4259708647853568  7.1133880410419712  4.2696292811459866
  0.0010110620833836  5.6915039147412188  5.6915040588859371
  1.4259708777165403  7.1133787450092161  7.1133879874534722
 -0.0010071561240829  5.6915039968893142  8.5362487757586170
  1.4242862957992612  7.1214725482877244  9.9616420090939748
  0.0086165184191426  8.5458725542197698 -0.0000000674874562
  1.3861223773892384  9.9233783435630638  1.4596296618410094
 -0.0223684850978432  8.5148874811300441  2.8681204439168817
  1.4242864076777526  9.9616421132880060  4.2615353064429096
 -0.0010072050187484  8.5362488245831045  5.6915040619876907
  1.4243861322300855  9.9615423575277902  7.1214726616914099
 -0.0223685561387013  8.5148875227438499  8.5148875197739891
  1.3861222593250944  9.9233783029359799  9.9233783053730278
  4.3053814955432674  1.4596296438113492  1.4596295923575271
  2.8457519371749220  0.0000000695766827  2.8402322360649799
  4.2672175807046635  1.4213658914610148  4.2615353663214348
  2.8457519439429446  0.0000000200638331  5.6915039763870272
  4.2671178892252613  1.4214655871081467  7.1214725805433723
  2.8457519665417115  0.0000000552991976  8.5427757857748627
  4.3053815834086775  1.4596296620083411  9.9233783521364654
  2.8457519515894054  2.8402321774154973 -0.0000000342957119
  4.2671179372525820  4.2615353198912720  1.4214656288165881
  2.8457519961799913  2.8371353548054055  2.8371354367050499
  4.2655331120708677  4.2696199098847956  4.2696292512399623
  2.8457519497477448  2.8441786210544358  5.6915039964152028
  4.2655330753337575  4.2696292124176116  7.1133879988714517
  2.8457519981807735  2.8371354280807659  8.5458724810398063
  4.2672176089918805  4.2615353489131538  9.9616420442330949
  2.8457520483719376  5.6915040207120864  0.0000000125585330
  4.2672176199253720  7.1214724891988785  1.4213659991245549
  2.8457519871220316  5.6915039840801223  2.8441784734210671
  4.2655331611701746  7.1133787483893487  4.2696199172855884
  2.8457518988569963  5.6915039634290530  5.6915039741827771
  4.2655331344241691  7.1133881535179366  7.1133786475578580
  2.8457519977735504  5.6915039109563406  8.5388293717009276
  4.2671179118365767  7.1214725869810458  9.9615422493985779
  2.8457519416482104  8.5427757724459976  0.0000001044680924
  4.3053815984785224  9.9233783133162152  1.4596296598685468
  2.8457518879442603  8.5458726145921133  2.8371354692636364
  4.2671178942802195  9.9615422888331882  4.2615353422200792
  2.8457520328326869  8.5388295059941033  5.6915039546718660
  4.2672176611592176  9.9616420797512006  7.1214726284931107
  2.8457520027547698  8.5458725995947056  8.5458725181644937
  4.3053815633898749  9.9233784286668261  9.9233783102036917
  5.6859841124632924 -0.0000000483734524 -0.0000000681558692
  7.1072873682268964  1.4214656136343446  1.4213659005657568
  5.6828874531805029  0.0000000072119404  2.8371355002446657
  7.1153812070954583  1.4197811529033260  4.2696199016643321
  5.6899305091216918 -0.0000000129164481  5.6915040935978309
  7.1153719425353925  1.4197811644076026  7.1133788211338436
  5.6828874498222532 -0.0000000310922150  8.5458725422968396
  7.1072873341195217  1.4213659519739776  9.9615423479935856
  5.6828874658002535  2.8371353162692925  0.0000000018645737
  7.1153719389282459  4.2696291363056389  1.4197811374488614
  5.7138724412648774  2.8681205418561833  2.8681204649021201
  7.1173690249242432  4.2716171199362458  4.2716171091217072
  5.6925110963517591  2.8467591282453797  5.6915040470158855
  7.1173690466709267  4.2716170442987247  7.1113908892752455
  5.7138724937261314  2.8681205137803962  8.5148874716678300
  7.1153811991471265  4.2696198942055581  9.9632268610477155
  5.6899304600043417  5.6915039940277161  0.0000000599940371
  7.1153811823449429  7.1133880619740886  1.4197811308246877
  5.6925111250758222  5.6915039911092258  2.8467591342570318
  7.1173691076477521  7.1113908575032339  4.2716170898479406
  5.6904929559588862  5.6915039528375839  5.6915039207986675
  7.1173690686609365  7.1113908319852976  7.1113909743220924
  5.6925111446174483  5.6915039654147055  8.5362487612982498
  7.1153719679703862  7.1133788038399945  9.9632268357261857
  5.6828874180708233  8.5458725539680511  0.0000000110102603
  7.1072873704985247  9.9616421115277145  1.4214656051365282
  5.7138725279807749  8.5148874183233847  2.8681204956636872
  7.1153719338212875  9.9632267829841741  4.2696290842569118
  5.6925110614279104  8.5362487759433012  5.6915039991542447
  7.1153811832301619  9.9632267935111951  7.1133880598702408
  5.7138725103715684  8.5148873939425922  8.5148874846979421
  7.1072873043470350  9.9615424128242758  9.9616420827322756
  8.5372558887582262  0.0000000286896521  0.0000000489915782
  9.9672246155905579  1.4213658973667980  1.4214655806192744
  8.5372559979076019 -0.0000000548020756  2.8441784454072381
  9.9591400148802514  1.4197811044997928  4.2696291925323786
  8.5372560415738725 -0.0000000238745708  5.6915039924674691
  9.9591308535042273  1.4197811256760544  7.1133879729208678
  8.5372559811009054 -0.0000000284683886  8.5388295381650643
  9.9672247070033819  1.4214655786646784  9.9616420769614020
  8.5372559701013486  2.8441785869617151  0.0000000109844849
  9.9591307289808118  4.2696199717287708  1.4197811130487699
  8.5372559597986672  2.8467590923614958  2.8467591667044236
  9.9571428804996440  4.2716170650707062  4.2716170735930730
  8.5372558829888625  2.8447410301831373  5.6915039963995078
  9.9571429026070799  4.2716171608140447  7.1113909658465086
  8.5372559571702702  2.8467591282634466  8.5362488310820073
  9.9591400407802269  4.2696292265408387  9.9632268213774573
  8.5372560501014512  5.6915039772530740  0.0000000154077949
  9.9591399702882164  7.1133787499299252  1.4197811141840457
  8.5372560379713605  5.6915039812005990  2.8447410274829550
  9.9571428965724547  7.1113908332554683  4.2716170544043415
  8.5372559308053741  5.6915040029871680  5.6915039707602491
  9.9571429540289618  7.1113909089739211  7.1113909115873790
  8.5372559376154733  5.6915040059814279  8.5382670339860045
  9.9591307255750188  7.1133880124915123  9.9632267926797109
  8.5372559359349083  8.5388294331601262  0.0000000868926278
  9.9672246568259730  9.9615423343675271  1.4213659014410454
  8.5372560500942445  8.5362488343051197  2.8467591058349657
  9.9591307608085327  9.9632268563706585  4.2696199679692226
  8.5372559528867793  8.5382670525008884  5.6915039296552594
  9.9591400670982111  9.9632269424152042  7.1133787283643946
  8.5372559766310250  8.5362488465870996  8.5362488847388054
  9.9672246002659346  9.9616421006464773  9.9615422371077891
  2.8457519584011477  0.0000000499379320 -0.0000000575704680
