Fe Re
 1.0000000000000000
    11.4231687107435107    0.0000000000000000    0.0000000000000000
     0.0000000000000000   11.4027196098145183    0.0000000000000000
     0.0000000000000000    0.0000000000000000   11.4231687167530680
 Fe  Re 
 126   2
Cartesian
  0.0584520195231364 -0.0000000175570372  0.0584522119425657
  1.4278958662023047  1.4844750167428413  1.4278965011627549
  1.4516318394875440  1.4265970373938996  4.2966614443196702
 -0.0099643018642252  0.0000909242922126  5.6672827459557320
  1.4278962150112671  1.4087662019998732  7.1394803628942158
  0.0037895950744694 -0.0000837663912598  8.5666017902639435
  1.4041602348076969  1.4265970279276836  9.9822997017715149
  0.0130670829455763  2.8391042250843590  0.0131219673692701
  1.4278962333230050  4.2699451636048025  1.4278959102480520
 -0.0093094054895416  2.8187802664846449  2.8652555475420951
  1.4191796317965604  4.2767727681434762  4.2776849400375285
 -0.0003627991820759  2.8415036341722479  5.7067530600121703
  1.4278959781671612  4.2775474970181362  7.1394803693380160
 -0.0007747945122957  2.8493064070597187  8.5664014361757275
  1.4366125441201809  4.2767733216907819 10.0012761453583305
  0.0025185869369984  5.7013598725861980  0.0025184014663025
  1.4278960694852885  7.1327746752771599  1.4278960665436913
  0.0024130307426433  5.7013597961232598  2.8533791762488696
  1.4194032938245598  7.1257789541783563  4.2774784731769824
  0.0012735157678478  5.7013619372034565  5.7133843661747292
  1.4278959862415308  7.1252263402011629  7.1394802046490957
  0.0007245917401618  5.7013143764131433  8.5675236148703160
  1.4363890218351687  7.1257786375223100 10.0014824589964064
  0.0131218482706385  8.5636153159386517  0.0130669906886888
  1.4278960735386299  9.9182441623708453  1.4278964366162679
 -0.0094630679396237  8.5839398574921137  2.8651015157631519
  1.4513618821270391  9.9756713585521855  4.2968384076224186
 -0.0005421902410708  8.5610439911858283  5.7067284654951491
  1.4278960225337205  9.9937039734491293  7.1394801222787851
 -0.0007639288794832  8.5533024476745343  8.5663520703820417
  1.4044304410527493  9.9756717390690515  9.9821225287929831
  4.2968383848260023  1.4270478627362526  1.4513613916341461
  2.7973402196836590 -0.0000000405404912  2.7973402546368384
  4.2704405101848666  1.4104642264406926  4.2703452800056674
  2.8520026768996778 -0.0000836877325513  5.7123593237578447
  4.2793596224557477  1.4245297461514170  7.1421541539491598
  2.8657567521410394  0.0000910413819086  8.6116782172353084
  4.3154149806728705  1.4545842967759677  9.9638124641683046
  2.8651018087489826  2.8187797410255504 -0.0094635935534229
  4.2774784115915061  4.2769406605334446  1.4194029702942057
  2.8427248520136845  2.8391043591424414  2.8426702757194535
  4.2872965941401890  4.2801997391480207  4.2872236527668068
  2.8565668381096878  2.8493062497387274  5.7125593023615595
  4.2880082369606862  4.2758809549697689  7.1388589717586370
  2.8561548978826914  2.8415037405553747  8.5722079959015556
  4.2843619267478816  4.2777561019498958  9.9946880940816278
  2.8533794040153588  5.7013598602719640  0.0024127583714886
  4.2776845586760643  7.1259468349039938  1.4191794858528017
  2.8532736283594593  5.7013598099879488  2.8532737898061891
  4.2872240739657066  7.1225198087602459  4.2872966065505045
  2.8550676825257404  5.7013142831216248  5.7114373343923788
  4.2880527822352654  7.1266817639017379  7.1388832139655296
  2.8545185428677664  5.7013618961361034  8.5655764960541774
  4.2842725819898142  7.1249635906996556  9.9945990130083278
  2.8652556596710057  8.5839395166324675 -0.0093096666761742
  4.2966612857641646  9.9761225006513694  1.4516317155026077
  2.8426703130900965  8.5636152833924459  2.8427249701537427
  4.2703453453701385  9.9922556728300282  4.2704401873719817
  2.8565563016447895  8.5533022546210624  5.7126089606231991
  4.2795120097375339  9.9783365766799434  7.1420640630792107
  2.8563343650402331  8.5610441169028011  8.5722322311037491
  4.3151484267823310  9.9481348831627798  9.9635456526050223
  5.6672828512581495 -0.0000909461207964 -0.0099645177693363
  7.1394804981045725  1.4090159665773241  1.4278964943013082
  5.7123592457129719  0.0000839631332084  2.8520027244418023
  7.1420639121341241  1.4243830587069244  4.2795119195039710
  5.7120006978228588 -0.0000001143744089  5.7120004967110676
  7.1394804763207240  1.4345999493323509  7.1394803359262546
  5.7010141248286805  0.0000000956516676  8.5779465302657893
  7.1368967363572535  1.4243830904347743  9.9994486175594162
  5.7067283998207339  2.8416755132224418 -0.0005421157129051
  7.1394803475025057  4.2774931822687137  1.4278962706221443
  5.7126089654922509  2.8494175779213053  2.8565562405257081
  7.1388828327605651  4.2760376204463775  4.2880528841084411
  5.7108889764521757  2.8500804381224509  5.7108419661487604
  7.1394803866897512  4.2776927760205270  7.1394807227251071
  5.7156495763617965  2.8524790634673671  8.5633554687401414
  7.1400778357395254  4.2760377732458696  9.9909079647438510
  5.7133844181451217  5.7013577743830295  0.0012736727170852
  7.1394807141691334  7.1251721791415665  1.4278962161895892
  5.7114369835913337  5.7014051612071164  2.8550672940201709
  7.1388589236883169  7.1268387561268502  4.2880083080372566
  5.7106699270936225  5.7013598785077759  5.7106692525346112
  7.1394804352904240  7.1250266199903161  7.1394805695583337
  5.7121578890079228  5.7013597205677202  8.5668030977025715
  7.1401018632952260  7.1268387976511853  9.9909523619656699
  5.7067528441019384  8.5612156662451682 -0.0003627920471535
  7.1394806849925478  9.9939536771256527  1.4278962402809989
  5.7125590285599275  8.5534133798234304  2.8565666018997788
  7.1421542783995573  9.9781897544472518  4.2793596546552983
  5.7108421404624030  8.5526396550514683  5.7108889163699246
  7.1394803283251091  9.9681201567753135  7.1394803462994387
  5.7156051231881264  8.5502407294545026  8.5633111994880640
  7.1368066057319899  9.9781898094442720  9.9996010188653255
  8.5666017580021485  0.0000837941240336  0.0037896606107405
  9.9821222729858139  1.4270482527897215  1.4044307256802218
  8.6116778297685368 -0.0000910763752473  2.8657566023624668
  9.9635456084057168  1.4545849820428782  4.3151485991940426
  8.5779468296500223 -0.0000000897653061  5.7010140434387022
  9.9996012254000597  1.4245299580151745  7.1368063397083867
  8.5669601912287803 -0.0000000353192295  8.5669605753166795
 10.0085206351708678  1.4104638799405047 10.0086154081042515
  8.5663521414086166  2.8494172721322109 -0.0007642487684687
 10.0014825013789199  4.2769407636788523  1.4363887517369809
  8.5722325364173813  2.8416756777787695  2.8563341332554222
  9.9945992798117445  4.2777559484327137  4.2842725787833338
  8.5633113718327305  2.8524787426110771  5.7156052494216052
  9.9909524732398900  4.2758809327325604  7.1401018469858144
  8.5680716986064827  2.8500803335719653  8.5681188202913603
  9.9916642587012827  4.2802000300390590  9.9917367769519476
  8.5675236059890221  5.7014055533815924  0.0007244069273160
 10.0012760906045024  7.1259466352409140  1.4366123331997702
  8.5655763252771298  5.7013578989227591  2.8545185216960807
  9.9946883644464251  7.1249639205107851  4.2843616364272439
  8.5668030971034010  5.7013602794207578  5.7121576555165099
  9.9909079849013356  7.1266820097982286  7.1400779208775162
  8.5682913199796857  5.7013598068790277  8.5682912156437094
  9.9917368495798353  7.1225196081887550  9.9916645119347365
  8.5664016949597972  8.5534135793443458 -0.0007743426469685
  9.9822996857058310  9.9761224992283761  1.4041601117705149
  8.5722081245240318  8.5612158461532939  2.8561550246503544
  9.9638118364379356  9.9481347696938798  4.3154152481855625
  8.5633555035838835  8.5502405986222580  5.7156493800572337
  9.9994489031636373  9.9783367016939408  7.1368967392162270
  8.5681190436427936  8.5526393680808095  8.5680717356632634
 10.0086156440155456  9.9922556849570778 10.0085205670762392
  2.8751725311384657  0.0000009196494535 -0.0193804849175022
 -0.0193794665863426 -0.0000002525120442  2.8751720008284001
