Fe Ni
 1.0000000000000000
    11.3840982182047714    0.0000000000000000    0.0000000000000000
     0.0000000000000000   11.3840982173361240    0.0000000000000000
     0.0000000000000000    0.0000000000000000   11.3840982170841372
 Fe  Ni 
 127   1
Cartesian
  0.0149174789845826 -0.0000001272379700 -0.0000000882891271
  1.4225365646604620  1.4234882425520710  1.4234882633472279
 -0.0045524658715277 -0.0000000234090941  2.8505768911530902
  1.4207811748310688  1.4252610951182090  4.2653880641142106
 -0.0000824651646043  0.0000000194383692  5.6920493623271096
  1.4207631956976503  1.4252432757209590  7.1187101944672397
 -0.0045524942565863 -0.0000000629320564  8.5335211919081324
  1.4225363372321864  1.4234881596718507  9.9606100668186812
 -0.0045524047295809  2.8505769365156839  0.0000000155663806
  1.4207633585436010  4.2653881182881239  1.4252434133511396
 -0.0127832925900281  2.8588076119821211  2.8588076214973328
  1.4218457284532064  4.2736588363236727  4.2736216335743853
  0.0002347492605165  2.8457899517873932  5.6920490698098654
  1.4218458591251486  4.2736217629061244  7.1104392305283541
 -0.0127829535956893  2.8588078490720576  8.5252904545653294
  1.4207810608428870  4.2653881037466244  9.9588370941490982
 -0.0000825220062884  5.6920489708321940  0.0000000858734946
  1.4207809994449672  7.1187102392980099  1.4252612047381314
  0.0002345684952639  5.6920490528314174  2.8457900216122440
  1.4218456488661280  7.1104764807313341  4.2736589022918503
 -0.0018461608807425  5.6920490466591556  5.6920491625143459
  1.4218456851126946  7.1104392758436452  7.1104765155622687
  0.0002345388537171  5.6920489881630729  8.5383081131940362
  1.4207632153459071  7.1187101444406311  9.9588547749564267
 -0.0045525849988145  8.5335213472403009 -0.0000000342606502
  1.4225362993143800  9.9606098038708790  1.4234883712352759
 -0.0127831499359018  8.5252906131622410  2.8588078613882888
  1.4207634338985689  9.9588547019184563  4.2653882070676445
  0.0002344210824780  8.5383081840197033  5.6920491593829423
  1.4207811906975414  9.9588369496973019  7.1187100072585867
 -0.0127831801810980  8.5252904634019355  8.5252906622808791
  1.4225362863433935  9.9606100133588775  9.9606098142326225
  4.2695128930340882  1.4234882674518639  1.4234880606419189
  2.8460245241045237  0.0000000212222099  2.8311072379425282
  4.2712858147179764  1.4252435871359519  4.2653879464804385
  2.8460245936653297 -0.0000000657128283  5.6920491384197653
  4.2712678698918358  1.4252612162459781  7.1187101314770800
  2.8460245119008500  0.0000000335534087  8.5529908819724945
  4.2695127754193392  1.4234882393987929  9.9606099598089255
  2.8460244877470755  2.8311072687383629 -0.0000001658968073
  4.2712679019555901  4.2653880679154090  1.4252612360528063
  2.8460245522111909  2.8505771443665897  2.8505769701716037
  4.2702035007069821  4.2736216872221311  4.2736590573224280
  2.8460245556554811  2.8461069054844814  5.6920491312296386
  4.2702032137286752  4.2736589354719534  7.1104763954280532
  2.8460246438659547  2.8505770405715558  8.5335210862448498
  4.2712857487281397  4.2653881694651412  9.9588548260028578
  2.8460246171677799  5.6920490538635029  0.0000001187387709
  4.2712858751649616  7.1187101660634404  1.4252433301916956
  2.8460246361964026  5.6920491197135279  2.8461071910373668
  4.2702033727667192  7.1104392496603017  4.2736216156695388
  2.8460246312473063  5.6920490971811208  5.6920491813741378
  4.2702033125646368  7.1104765885561019  7.1104392612116980
  2.8460245680470391  5.6920490003353938  8.5379912584152144
  4.2712680504934584  7.1187100958990950  9.9588368474860207
  2.8460246444055222  8.5529911303140658 -0.0000000462676707
  4.2695127925316365  9.9606098311382123  1.4234883772659606
  2.8460245031607223  8.5335212075060287  2.8505769025368548
  4.2712679604723265  9.9588370572623148  4.2653879268504769
  2.8460244246440003  8.5379911599529574  5.6920490559231327
  4.2712858735934747  9.9588548744991243  7.1187100688209330
  2.8460243834739769  8.5335213333795732  8.5335212586842619
  4.2695127209806714  9.9606099729750213  9.9606099036872724
  5.6771318109231048  0.0000001528692205 -0.0000001357806041
  7.1114126694289244  1.4252613201301314  1.4252433854487561
  5.6966014847965534 -0.0000000021184101  2.8505770317291654
  7.1196834381731486  1.4241788130111823  4.2736218829041102
  5.6921314898322084 -0.0000000378558795  5.6920490580141463
  7.1196464201796159  1.4241786653674633  7.1104392048221250
  5.6966012982002550 -0.0000000259856913  8.5335212545000285
  7.1114127453712337  1.4252432363859784  9.9588371626062422
  5.6966016149109215  2.8505770267282897  0.0000000484658415
  7.1196462289860314  4.2736587975022626  1.4241788799094088
  5.7048321213201296  2.8588076396398159  2.8588078919183357
  7.1185288205645714  4.2725043615144811  4.2725042424411530
  5.6918144413676552  2.8457899814138314  5.6920490968519859
  7.1185289581494757  4.2725044498976974  7.1115939078105157
  5.7048323698676979  2.8588077346860019  8.5252905655649993
  7.1196835479474760  4.2736216498527213  9.9599195407170402
  5.6921315089647111  5.6920490125043015  0.0000000630507998
  7.1196834632172186  7.1104765186293362  1.4241787527752001
  5.6918145253826653  5.6920491368223001  2.8457901568585489
  7.1185291516857436  7.1115939388433977  4.2725042818818304
  5.6938953499908225  5.6920491262785529  5.6920493712159459
  7.1185288552270505  7.1115941467567758  7.1115938067204931
  5.6918144842125971  5.6920491301498046  8.5383082349836368
  7.1196461892751808  7.1104394556518953  9.9599193934681303
  5.6966014055182956  8.5335211702749163  0.0000000888256020
  7.1114124453312666  9.9588549574559959  1.4252612336985875
  5.7048322490698471  8.5252905644490191  2.8588075456494169
  7.1196462230215385  9.9599193530127863  4.2736588816571510
  5.6918144486706375  8.5383083397691504  5.6920491437948657
  7.1196835613017644  9.9599194039713908  7.1104764088814951
  5.7048322419764812  8.5252903720893549  8.5252904313230928
  7.1114127095369346  9.9588371716107744  9.9588546557373245
  8.5380735671783956 -0.0000000427161991 -0.0000000769388830
  9.9647348536955835  1.4252433836815188  1.4252612106116136
  8.5380736142300631  0.0000000645786304  2.8461071570282068
  9.9565009913687543  1.4241788242854174  4.2736588982614885
  8.5380736016134158  0.0000000838673905  5.6920490884639330
  9.9564636518125145  1.4241787929161296  7.1104764458437693
  8.5380737113527161  0.0000001064769458  8.5379914199561959
  9.9647344229334376  1.4252611399913628  9.9588547805050815
  8.5380735865957416  2.8461071177604422  0.0000000211905578
  9.9564640159870788  4.2736218393884755  1.4241786353603372
  8.5380737704391088  2.8457900912155938  2.8457899265448838
  9.9576185481247776  4.2725043048606670  4.2725045316133672
  8.5380736824645691  2.8478704870721931  5.6920491814481640
  9.9576184242774062  4.2725043292172336  7.1115940338726160
  8.5380735540280082  2.8457900408033292  8.5383082139705966
  9.9565009441518786  4.2736590504421441  9.9599194141075973
  8.5380737183568272  5.6920491462565783 -0.0000001248851530
  9.9565010555390590  7.1104393050195336  1.4241788404400493
  8.5380736799542643  5.6920491466325185  2.8478707558645571
  9.9576184000328727  7.1115937275161096  4.2725044737340490
  8.5380735848952050  5.6920490814314046  5.6920490556286891
  9.9576184793975759  7.1115937905236049  7.1115937809096641
  8.5380736174297951  5.6920490892656863  8.5362276298181641
  9.9564639698628365  7.1104765056011097  9.9599193659306735
  8.5380736733970846  8.5379911128591832 -0.0000000202832807
  9.9647348621937297  9.9588366998501900  1.4252434204930580
  8.5380736991773531  8.5383082082616113  2.8457899422060553
  9.9564638502271450  9.9599193365533694  4.2736218560452830
  8.5380736920135796  8.5362277069010037  5.6920489507703422
  9.9565012492754512  9.9599194015707031  7.1104392888429988
  8.5380736417031393  8.5383083255017507  8.5383081584757896
  9.9647346859985717  9.9588548408658752  9.9588370084239060
  2.8460245301121225  0.0000000674186813 -0.0000001288363835
