Fe Pt
 1.0000000000000000
    11.4069388397151279    0.0000000000000000    0.0000000000000000
     0.0000000000000000   11.4069388330296100    0.0000000000000000
     0.0000000000000000    0.0000000000000000   11.4069388390935238
 Fe  Pt 
 126   1
Cartesian
  0.0826550533934878  0.0483813313956443  0.0486036059685372
  0.0306182814383951  0.0291178789009878  2.8207898036258445
  1.4290781090606406  1.4228034140400725  4.3165974795194115
 -0.0016665168308488 -0.0061305631950815  5.7002571834365785
  1.4188909060196322  1.4327255690730953  7.1244229452769474
 -0.0189141475617492 -0.0033043563232118  8.5392007701048627
  1.3931012706076535  1.4589050504999688  9.8975096941784049
  0.0309449010542161  2.8211165492081620  0.0291180108440085
  1.4289313863320816  4.3165973749382935  1.4226566848236242
  0.0433307821896151  2.8084037896967748  2.8084037852841988
  1.4235489293898025  4.2721664318221482  4.2722250079164352
 -0.0075789857833444  2.8593885660723806  5.7009505535768445
  1.4219640313816790  4.2817652590295685  7.1176245888564296
 -0.0316675973377425  2.8834363835267376  8.5261096188060872
  1.4267748144323293  4.2686608487035791  9.9879492867981146
 -0.0016182766790231  5.7003942362308875 -0.0060952036298695
  1.4190091243608416  7.1244230080276081  1.4328437756637162
 -0.0076540110952466  5.7009505582968840  2.8593137963138529
  1.4219455686900886  7.1175282680195133  4.2815526026175892
  0.0009491256317865  5.7024966144386751  5.7023515508769984
  1.4187069180813614  7.1193854682598197  7.1192897028492137
 -0.0053554521867214  5.7006749758224782  8.5474061788524942
  1.4226735280557403  7.1300964662238560  9.9832562884631191
 -0.0191873085121401  8.5393681067255294 -0.0033412682491076
  1.3928298007405184  9.8975097863535346  1.4586333723687279
 -0.0317014910451600  8.5261096452082121  2.8834021221889818
  1.4267590197480085  9.9882289148007839  4.2684427549221029
 -0.0052765378069607  8.5474415159721104  5.7006076194177657
  1.4228446813949525  9.9829594895380982  7.1299557135933833
 -0.0160408594766868  8.5379749030118024  8.5379051381741782
  1.4136706478240979  9.9748720711354562  9.9749074977636507
  4.3611637261782654  1.4586333144217327  1.4589049741196665
  2.8033532273603798  0.0486035899775674  2.7690797200520687
  4.2707243511357351  1.4249599341102055  4.2686608509454143
  2.8540420147270869 -0.0023883325115935  5.6992820475951280
  4.2754172017111163  1.4290612062923829  7.1300965834741676
  2.8490958375955096  0.0025297527375803  8.5603289241487683
  4.2837660795841117  1.4380641562031860  9.9748719246527706
  2.8031310461859089  2.7690798293420475  0.0483813765817282
  4.2704446552439652  4.2684428276814712  1.4249757095698223
  2.8226168101264353  2.8207898755457892  2.8211164505265804
  4.2718603043111827  4.2782283867643764  4.2781020291332084
  2.8578298398737418  2.8533530219435947  5.7003941627470693
  4.2849678365852277  4.2860342870149442  7.1213302109766188
  2.8550761279320516  2.8709220217198013  8.5393680531262088
  4.2664864445141530  4.2680311388287757  9.9924286031857932
  2.8541229092393827  5.6992818627821356 -0.0023074104144831
  4.2757140629629227  7.1299556810399549  1.4288900172665062
  2.8578654134738843  5.7002570732065498  2.8534013251094281
  4.2850600948498849  7.1213093433002799  4.2861492058119186
  2.8524490823146555  5.7042360605445861  5.7042926790964499
  4.2809688890591699  7.1241661155719838  7.1242268380545521
  2.8525034939960316  5.7027879209816641  8.5550216821765499
  4.2733955965873704  7.1387522702166413  9.9850878807307986
  2.8492048212415328  8.5603289344524747  0.0026389496067194
  4.2838016125002385  9.9749074424435609  1.4380640181802740
  2.8550389964504008  8.5392006984473117  2.8706488457620147
  4.2662449228943391  9.9921870234972427  4.2680311550231291
  2.8525281460239791  8.5549276095440998  5.7027081723659698
  4.2735855333317900  9.9852778880912290  7.1387523277349914
  2.8502819955365251  8.5488527030584969  8.5488653224209443
  4.2464456443640906 10.0122279477674336 10.0122278791110091
  5.6983446604098091  0.0026389155462370  0.0025298361210522
  7.1342506411478768  1.4328438604238094  1.4327255684755600
  5.7193055241389601 -0.0033412432542849  2.8709220173687076
  7.1410489113028675  1.4297707576525902  4.2817653707301693
  5.7036519054382984 -0.0007689531727778  5.7027880084276772
  7.1393838819603950  1.4330277729063310  7.1193852779613254
  5.7098080962944326  0.0014525950351954  8.5488526964253193
  7.1287180026971830  1.4288900128266395  9.9829594939117321
  5.7194728132080259  2.8706488142297397 -0.0033044174953888
  7.1411453079037024  4.2815524191737255  1.4297892501343363
  5.7325640207943440  2.8834022098923016  2.8834362362726447
  7.1416026301256643  4.2883677361871895  4.2884461992761933
  5.7112674205035132  2.8570901004090010  5.7006749657338709
  7.1380944836992155  4.2829104394689201  7.1206032392272158
  5.7207684705411541  2.8677757110739321  8.5379750044882723
  7.1373641571643320  4.2861492564151309  9.9736133706016190
  5.7037457996161702  5.7027081465415215 -0.0007935010032254
  7.1392882450157575  7.1192898277795207  1.4330276792235406
  5.7112320776231629  5.7006074839671781  2.8570113641780583
  7.1380703931109606  7.1205790652982213  4.2829104880857027
  5.6993288686196832  5.7004776581935621  5.7004933205074675
  7.1335708483364053  7.1251027446020920  7.1251027250638108
  5.7016419895871708  5.7020559080211255  8.5569861699788046
  7.1345074858879469  7.1242266387965181  9.9777047843167335
  5.7098209371435127  8.5488653889429234  0.0014528124471164
  7.1285769790102131  9.9832562415190154  1.4290610904145007
  5.7206985559793715  8.5379051543604128  2.8677755595306200
  7.1373434041793535  9.9737056762042435  4.2860344328998599
  5.7016874086408418  8.5570315403368120  5.7020559497380878
  7.1344467198467996  9.9777046461993937  7.1241659843706859
  5.7039379964379853  8.5547353867343716  8.5547355577733875
  7.1199212575272632  9.9850879648295532  9.9852780443812605
  8.5593915588066967 -0.0023073208523876 -0.0023883185565055
  9.9420760944365920  1.4226567850762954  1.4228035075910601
  8.5582792973025583 -0.0060950959318524  2.8533530437644083
  9.9864486206298775  1.4281859344724326  4.2721664354169331
  8.5543808644301400 -0.0007144107032214  5.7042361825251469
  9.9771210620182806  1.4297891397244589  7.1175282187341109
  8.5559653479072946 -0.0007934328277595  8.5549276350489887
  9.9902306701162171  1.4249756889762866  9.9882289474107075
  8.5584164396794407  2.8534011946294360 -0.0061305738530344
  9.9865070780947498  4.2722248759790800  1.4281859099040639
  8.5577229730944584  2.8593136912931292  2.8593886544124367
  9.9928515527570827  4.2658220798858615  4.2658220432372049
  8.5563220975496943  2.8507855880071422  5.7024965612087462
  9.9703057259219250  4.2884462427204788  7.1170708331527353
  8.5580660066360963  2.8570114115396565  8.5474415788924940
  9.9804452149685279  4.2781020551254780  9.9868133099335488
  8.5544374663398131  5.7042929281154819 -0.0007143323729774
  9.9769083391697198  7.1176245870372812  1.4297707177764365
  8.5561769076824135  5.7023516200597522  2.8507857031984956
  9.9702273265191241  7.1170707900939520  4.2883678243082910
  8.5603316916794387  5.6983420086540439  5.6983418603096574
  9.9757630847227166  7.1206032015937106  7.1205791034473886
  8.5581960496910092  5.7004932925873604  8.5593446785900209
  9.9726392010875760  7.1213301283782302  9.9737057433771508
  8.5558856582425928  8.5550215602790995 -0.0007687689099316
  9.9900126285486053  9.9879492352489105  1.4249599225843468
  8.5579985610819236  8.5474060583371205  2.8570901872671728
  9.9805714655437310  9.9868131715420763  4.2782282554750122
  8.5581802078666094  8.5593446975070488  5.7004776025520805
  9.9725242372865104  9.9736135231359899  7.1213093795748064
  8.5566176422743965  8.5569860929971604  8.5570315814333497
  9.9906423139010592  9.9924286811023979  9.9921872095378514
  2.7947024407316565  0.0570322672061088  0.0570322195668041
