Fe Mo
 1.0000000000000000
    11.3890922639840149    0.0000000000000000    0.0000000000000000
     0.0000000000000000   11.3890922708482094    0.0000000000000000
     0.0000000000000000    0.0000000000000000   11.3890922686325489
 Fe  Mo 
 127   1
Cartesian
 -0.0065723780212740 -0.0000000712827937  0.0000000742348974
  1.3894193682699147  1.4578535624319320  1.4578536502234052
 -0.0047161958496254  0.0000000121958491  2.8519892420321131
  1.4219393902374855  1.4254075835469515  4.2660284164024835
  0.0057007557799698  0.0000000087568525  5.6945462466947419
  1.4218656024963752  1.4253337045841137  7.1230638151589920
 -0.0047160921562621  0.0000001165722392  8.5371029910098049
  1.3894193873857121  1.4578537219871197  9.9312385519010746
 -0.0047161340790586  2.8519890970219515 -0.0000001144331530
  1.4218654381596074  4.2660284465760148  1.4253336544137072
 -0.0115145221653490  2.8587877245289999  2.8587876833113599
  1.4237167131607247  4.2699122907172979  4.2699248174043021
 -0.0040911980078883  2.8513642105451988  5.6945462034415462
  1.4237167560975779  4.2699248803385688  7.1191799604903272
 -0.0115146113464117  2.8587878052020925  8.5303046770107454
  1.4219394598365380  4.2660284854321162  9.9636847673730919
  0.0057007943440943  5.6945461238819304  0.0000001744893619
  1.4219393933246947  7.1230638966875048  1.4254075000441095
 -0.0040911672294456  5.6945461567138000  2.8513641883825946
  1.4237166182230601  7.1191673700270615  4.2699122552236064
  0.0044441344950143  5.6945460465521922  5.6945461835812257
  1.4237166778994668  7.1191799865171648  7.1191675331271567
 -0.0040911598124315  5.6945460966031156  8.5377281005350056
  1.4218653914787649  7.1230637736962592  9.9637586502095949
 -0.0047162458166449  8.5371030327102861  0.0000000906134322
  1.3894194407758966  9.9312385850007505  1.4578537318907754
 -0.0115146441049212  8.5303046254166119  2.8587877316888113
  1.4218655238210167  9.9637585636656905  4.2660284019632950
 -0.0040911269172471  8.5377280336253829  5.6945461222146330
  1.4219394725869285  9.9636847059051874  7.1230637841178739
 -0.0115147116783489  8.5303046062856165  8.5303045747906143
  1.3894192477274345  9.9312385437889485  9.9312385692417369
  4.3051267405725699  1.4578536000844251  1.4578536427970616
  2.8472730811511071 -0.0000000007363202  2.8538453734763456
  4.2726806098764101  1.4253336389343774  4.2660284824689629
  2.8472730751922013  0.0000000361816853  5.6945460730808710
  4.2726067858743049  1.4254074950874169  7.1230637839560647
  2.8472731207650441 -0.0000000026493319  8.5352469662324850
  4.3051268154328381  1.4578538128810907  9.9312385451568037
  2.8472730563924391  2.8538452653776134  0.0000000551846316
  4.2726067457099601  4.2660284246691864  1.4254075367623125
  2.8472730860204498  2.8519892337367212  2.8519891205967127
  4.2708294721794040  4.2699249055090087  4.2699123774236307
  2.8472731817126289  2.8415723389774468  5.6945460232872147
  4.2708294201207702  4.2699122550733186  7.1191675486040173
  2.8472730165735007  2.8519891805318043  8.5371030892430202
  4.2726806348652913  4.2660283515446356  9.9637585608962738
  2.8472731252681354  5.6945461193121520  0.0000000533113153
  4.2726807105520486  7.1230637973314188  1.4253336328384416
  2.8472730647031557  5.6945461103152972  2.8415722628136368
  4.2708293869979865  7.1191800051908061  4.2699248002171055
  2.8472730330926037  5.6945461824135561  5.6945461011834242
  4.2708294511241922  7.1191674127022626  7.1191799410648677
  2.8472730762786616  5.6945461151819821  8.5475199875652006
  4.2726067448339933  7.1230637898189952  9.9636846404069175
  2.8472730840421785  8.5352468606982921  0.0000000051246082
  4.3051267610878377  9.9312385522708393  1.4578536976064531
  2.8472730792234349  8.5371030208046808  2.8519892297235123
  4.2726067982986864  9.9636846659810736  4.2660284798347838
  2.8472729704960926  8.5475198936261911  5.6945460404574026
  4.2726806072159240  9.9637586810225400  7.1230638341312291
  2.8472731191607847  8.5371029642764391  8.5371030590493557
  4.3051268770967992  9.9312386050563735  9.9312385791116338
  5.7011184143133820  0.0000000177012992  0.0000000466382897
  7.1133015154686330  1.4254076273365419  1.4253336549620639
  5.6992622240098285  0.0000000900375457  2.8519891935654997
  7.1171854765569886  1.4235563520306673  4.2699249718982708
  5.6888454778160904  0.0000000387725544  5.6945461945371640
  7.1171980005112294  1.4235564838812573  7.1191799678834702
  5.6992623208760751  0.0000000186673899  8.5371030180519885
  7.1133014813630373  1.4253335653835337  9.9636847243919018
  5.6992624321514480  2.8519892194637708  0.0000000399640072
  7.1171979523096001  4.2699123650545268  1.4235564035622095
  5.7060607235753826  2.8587877224358551  2.8587877538459705
  7.1235805776338994  4.2763075312796053  4.2763075565473816
  5.6986373377612214  2.8513642526479059  5.6945462038267340
  7.1235806025115265  4.2763075514223656  7.1127847462832632
  5.7060608894887750  2.8587875892400594  8.5303046234690854
  7.1171853828517317  4.2699248147636331  9.9655357878654502
  5.6888454310596446  5.6945462134989500 -0.0000000754481416
  7.1171853494224004  7.1191675055830226  1.4235562708405816
  5.6986373518827333  5.6945460774906360  2.8513642391404481
  7.1235804802365079  7.1127849357546706  4.2763075011366523
  5.6901019201003784  5.6945461728762776  5.6945461964194060
  7.1235805922105229  7.1127848256746313  7.1127848062104011
  5.6986372713902229  5.6945460742091427  8.5377279993854565
  7.1171978380503766  7.1191800382977783  9.9655359050155887
  5.6992623458082488  8.5371031326706870  0.0000000184966638
  7.1133015243538287  9.9637586771130024  1.4254076505868665
  5.7060606609143374  8.5303045876074926  2.8587876815585953
  7.1171978764931509  9.9655359481414827  4.2699122422377842
  5.6986373025297974  8.5377280145586703  5.6945462268453335
  7.1171853501463564  9.9655359220296216  7.1191673656210215
  5.7060607610098062  8.5303046282374879  8.5303045570973310
  7.1133015786456157  9.9636847490342326  9.9637586577678281
  8.5418191780165937  0.0000000731232324 -0.0000000132523128
  9.9703368858196484  1.4253336596037587  1.4254075837635165
  8.5418192151507295  0.0000000951584749  2.8415723290925756
  9.9664404840423391  1.4235564866313224  4.2699122664938853
  8.5418192263392339 -0.0000000135800884  5.6945462083581493
  9.9664530917737011  1.4235564601317274  7.1191674741272735
  8.5418190212877736 -0.0000000590740821  8.5475198921694009
  9.9703368783076129  1.4254074979280287  9.9637585270011062
  8.5418192277525105  2.8415723010413485 -0.0000000495848569
  9.9664530753555702  4.2699247729763101  1.4235563836652516
  8.5418190824992450  2.8513642314741920  2.8513642468858285
  9.9600577987480392  4.2763074945725004  4.2763074013724500
  8.5418192807420077  2.8428288430739630  5.6945461393906340
  9.9600578080874236  4.2763074645493750  7.1127848566289238
  8.5418192192451752  2.8513641827010683  8.5377280838321497
  9.9664404815467424  4.2699122655872674  9.9655357856699105
  8.5418192160722590  5.6945460424681471 -0.0000000560167402
  9.9664404589325777  7.1191799670752411  1.4235564637776519
  8.5418191189564929  5.6945461837878417  2.8428289413792323
  9.9600578433478724  7.1127847324913649  4.2763074868546820
  8.5418191154243832  5.6945462172762706  5.6945461309438308
  9.9600577905528755  7.1127847339941646  7.1127848106832516
  8.5418191753858732  5.6945461714644230  8.5462633855131109
  9.9664529829117292  7.1191673451626754  9.9655358403578589
  8.5418191721722749  8.5475199799244894 -0.0000000382193202
  9.9703368809021917  9.9636846735770348  1.4253336406591204
  8.5418191514347637  8.5377280431379994  2.8513642548430922
  9.9664530857968945  9.9655358902810018  4.2699248887542902
  8.5418192772648052  8.5462634489773155  5.6945461313427250
  9.9664405236364093  9.9655359144586999  7.1191800257061297
  8.5418191647218276  8.5377280713142341  8.5377279647430839
  9.9703369026177899  9.9637586273538794  9.9636846465821929
  2.8472731075590603  0.0000001273798699 -0.0000001449403398
