Fe Ta
 1.0000000000000000
    11.3762468686095435    0.0000000000000000    0.0000000000000000
     0.0000000000000000   11.3762468665105789    0.0000000000000000
     0.0000000000000000    0.0000000000000000   11.3762468661536040
 Fe  Ta 
 126   1
Cartesian
 -0.0083834529401898  0.0197299631387409  0.0193662708200137
  1.2485336766842170  1.5955278765785295  1.5955279243544875
  0.0200493571479531 -0.0469648348120452  2.8243190476230335
  1.3736138000837688  1.4707898167451896  4.2115625835511761
  0.0019991012010910  0.0140654898623366  5.6783830842368612
  1.4241803483601485  1.4197140355832580  7.1223673642966805
  0.0135113619247633  0.0064903141248565  8.5475325176027166
  1.3625409434904039  1.4818338823815376  9.8841212038382924
  0.0197426179616902  2.8240124306834558 -0.0469648532349502
  1.3732717845396563  4.2115626380268907  1.4704479195546016
  1.3671316152796056  4.1971995557762760  4.1972244246050083
 -0.0013390221585626  2.8454030409086966  5.7314753365873559
  1.4263244130415818  4.2672283573935426  7.1132577222673712
 -0.0153106110732245  2.8593754561236575  8.5160556985040561
  1.4274249569391251  4.2639760824860220  9.9500584834923647
  0.0020636948625801  5.6783903661693564  0.0140238809848319
  1.4243475868559952  7.1223671792225396  1.4198812115587556
 -0.0013411822233701  5.7314751747994084  2.8454006370244662
  1.4262231582042402  7.1132363432261414  4.2673505622260866
  0.0029413893288691  5.6700045425224932  5.6700105101244569
  1.4224569462464580  7.1110728806806902  7.1111823639834242
 -0.0038500495998485  5.6773110579886463  8.5289579859345785
  1.4205529168480506  7.1173026252005309  9.9553408819717948
  0.0134034525673338  8.5473070087495095  0.0063312223196362
  1.3622278181047249  9.8841212959957510  1.4815207277436102
 -0.0153137198211019  8.5160558663246348  2.8593724540983088
  1.4272298423004059  9.9500212616429611  4.2640784004523020
 -0.0038893889954319  8.5288334600542992  5.6774339748159459
  1.4206572772633892  9.9551790173967252  7.1173192748192173
 -0.0176789350611571  8.5189719520775338  8.5190413057308767
  1.3642373889342230  9.9011651305546451  9.9013504901445248
  4.3361872363539504  1.4815207203500993  1.4818338686632684
  2.8243320341806388  0.0193662706325600  2.8524451029964446
  4.2702499661985822  1.4166366646298676  4.2639760706495888
  2.8247227323209567  0.0192720007794937  5.6705495215867971
  4.2649675760747314  1.4235090456420298  7.1173024619354024
  2.8418074012979564  0.0021312305855536  8.5230914632310864
  4.3189580996634014  1.4798243818697447  9.9011649433177524
  2.8246954439958802  2.8524450356043078  0.0197296517246736
  4.2702872653036881  4.2640785240966546  1.4168320416736351
  2.8910265931030921  2.8243190647351906  2.8240126937104137
  4.2676881280265802  4.2663997950829460  4.2661866140812430
  2.8300377896745577  2.8419979332779679  5.6783906613140118
  4.2643174172057989  4.2640522533662057  7.1102048200561176
  2.8377304893990423  2.8306581334567533  8.5473069075641543
  4.2609569284797217  4.2556861321068089  9.9594160903742601
  2.8247898683832293  5.6705495914110182  0.0193389838223246
  4.2651295653331651  7.1173193709151539  1.4234044921926725
  2.8299963046743342  5.6783829979634186  2.8420623846224631
  4.2641926301074040  7.1103056164456087  4.2639209134309413
  2.8215329948604326  5.6650706142420351  5.6650212149005545
  4.2546209595984035  7.1022334647006442  7.1022784141201480
  2.8410075665492021  5.6824156219312316  8.5322095811191829
  4.2570880658769799  7.1076877287990072  9.9630723495886251
  2.8419305937679691  8.5230914018440309  0.0022544660894141
  4.3191437115759186  9.9013504085574127  1.4798244623768937
  2.8375715547718441  8.5475325420492485  2.8305503908568261
  4.2608925681647545  9.9593515712749809  4.2556861627702327
  2.8409986077598317  8.5322293845363166  5.6825175449430922
  4.2572360087710024  9.9632204982507595  7.1076875515316829
  2.8420235730266774  8.5508933087981589  8.5508187170599506
  4.3106987612396557  9.9096097499420797  9.9096097819247415
  5.6972173422519274  0.0022544896713320  0.0021312501033962
  7.0979413095255177  1.4198810832147446  1.4197139063877946
  5.6730014559287998  0.0063311065737592  2.8306581285157235
  7.1070509303077474  1.4177374826894769  4.2672284349685095
  5.6880989910955728  0.0030543038507192  5.6824154639613846
  7.1091262988203212  1.4216048067849556  7.1110727778461422
  5.6694899316872025  0.0020382707964718  8.5508933526117641
  7.1029891506677991  1.4234044445417293  9.9551789193527842
  5.6727763799330235  2.8305502384208259  0.0064902329482159
  7.1070724893235511  4.2673505542424399  1.4178386332742803
  5.7042528202399021  2.8593724066599084  2.8593754907309701
  7.1142900638387561  4.2715505306910604  4.2716325802245247
  5.6913505632445416  2.8479115369689736  5.6773112062860012
  7.1181233943981681  4.2699166646337074  7.1021131500969297
  5.7012671122498828  2.8617404992437590  8.5189719574947791
  7.1100029260915596  4.2639210561773853  9.9561160514963696
  5.6880793089352775  5.6825177482620504  0.0030632815168116
  7.1092355444029183  7.1111822302728260  1.4216046748170057
  5.6914750052172671  5.6774340202391356  2.8479510088174127
  7.1181955763155242  7.1021852347717633  4.2699166767436569
  5.6853003482510198  5.6833332544601722  5.6832554765538204
  7.1262870542048837  7.0940214579407748  7.0940214228762102
  5.6924796781248075  5.6853691676557219  8.5278985980838549
  7.1180751815599805  7.1022784867212607  9.9656875870029697
  5.6694154278903524  8.5508186179078898  0.0020381958472908
  7.1030059756056518  9.9553410727088192  1.4235090009240836
  5.7013367382657378  8.5190415322210988  2.8617405009927483
  7.1101038699028143  9.9559913051859290  4.2640519799710166
  5.6924099763077471  8.5278291037991565  5.6853693690065370
  7.1180301605016894  9.9656874809777314  7.1022335744374478
  5.7053585440043788  8.5149502925590035  8.5149500954875563
  7.1126208457551829  9.9630724386277905  9.9632204419018855
  8.5497589905111226  0.0193391967240529  0.0192718435042859
 10.0087461430171523  1.4704480078542514  1.4707898894614186
  8.5419178964615945  0.0140238522032136  2.8419980207507050
 10.0230842538174034  1.4769302194636023  4.1971993526570452
  8.5552872662854469  0.0225288205425759  5.6650705823980978
  9.9529581444916211  1.4178386254442892  7.1132362899741306
  8.5377911156450299  0.0030631852665483  8.5322292039208385
  9.9562301435785319  1.4168318212143862  9.9500214758256895
  8.5419254876396717  2.8420624588016548  0.0140654705948477
 10.0231090384768446  4.1972244299314871  1.4769302418733385
  8.4888332426963604  2.8454008083937024  2.8454030358170908
 10.0113901412158270  4.2089184306286773  4.2089185764925396
  8.5502983000348589  2.8411205053875350  5.6700046468392546
  9.9487582753395642  4.2716325927728303  7.1060187843867721
  8.5428745633099279  2.8479510592130612  8.5288335603404359
  9.9539087622712934  4.2661866800872383  9.9526205430342731
  8.5552379868520578  5.6650211983573016  0.0225286790751400
  9.9530801878048898  7.1132577734480140  1.4177373324951770
  8.5503037075276414  5.6700103832545965  2.8411204958210736
  9.9486758248871805  7.1060187510169630  4.2715504151337864
  8.5567420762446211  5.6635664085912021  5.6635663739696653
  9.9503918496663601  7.1021130758057192  7.1021851357127206
  8.5369753840220710  5.6832554492932719  8.5350080871818346
  9.9562564367329554  7.1102047942426285  9.9559910127174334
  8.5378930533164414  8.5322095077500713  0.0030541954496606
  9.9563326659899278  9.9500584688914699  1.4166366905696914
  8.5429973799058931  8.5289579062701630  2.8479116779226712
  9.9541219567152233  9.9526203759882304  4.2663997237593128
  8.5370530082057723  8.5350081757481462  5.6833333100286385
  9.9563875784657565  9.9561159995345143  7.1103060217762417
  8.5349394028757857  8.5278984327107974  8.5278289564683138
  9.9646224751869958  9.9594158994025328  9.9593516518671628
  2.8111046709714884  0.0329569977501364  0.0329570636560307
