Fe Ti
 1.0000000000000000
    11.3710487841023973    0.0000000000000000    0.0000000000000000
     0.0000000000000000   11.3725080774794449    0.0000000000000000
     0.0000000000000000    0.0000000000000000   11.3710592257934184
 Fe  Ti 
 126   1
Cartesian
  0.0064315878291253  0.0033734423928859 -0.0031876644190271
  1.3782950334810904  1.4288572234683867  1.4645053263144667
  0.0046126988081551 -0.0047198224845352  2.8383186809512386
  1.4219244442406016  1.4316444156141797  4.2493287461055997
  0.0007856957510636  0.0019317654444692  5.6848332195437585
  1.4230770044134164  1.4273106163062736  7.1145117114294267
  0.0082371837398088  0.0014907160628886  8.5382656262993422
  1.3870074220713229  1.4714848378923362  9.9263884263081135
  0.0644520955346746  2.8824600421490132  0.0554127525760808
  0.0343434961417415  2.9161832089825337  2.8084219095900171
  1.4263016112488707  4.2667030217152089  4.3034151708548967
 -0.0020157805415176  2.8440079074220450  5.6865869368804596
  1.4257333867935738  4.2660146425369394  7.1071564964333609
 -0.0236634562963716  2.8626614034100575  8.5046935869619436
  1.4264313901024142  4.2558788163206307  9.9100995160470795
  0.0568438694415731  5.6338410026076744  0.0504385405013409
  1.4199079803819115  7.1551027978308488  1.4231098177186468
  0.0480678232120880  5.6372907835526451  2.7947209386597813
  1.4241181829083966  7.0951425974049540  4.2544412908713864
 -0.0008134292361852  5.6866893906255243  5.6875915506784835
  1.4246504367912345  7.0977443887957756  7.1058485564229850
 -0.0039873838275441  5.6874382304131705  8.5259557421608623
  1.4211100510607071  7.1036900478809741  9.9586641596845382
  0.0085084500017164  8.5438801751307700 -0.0007781747558288
  1.3847663205417886  9.9247737675974435  1.4578551086129121
 -0.0258991672014446  8.5110054353228488  2.8685537657618538
  1.4229641557596515  9.9526861037114625  4.2498580592882673
 -0.0010857750796639  8.5267115340111364  5.6849862084405327
  1.4210653591610616  9.9524592248008279  7.1102839096062995
 -0.0230924830683107  8.5067784864297131  8.5041855703402671
  1.3791881231842069  9.9161548553450896  9.9151873899723029
  4.2873897993704615  1.4712176174663725  1.4556456679350991
  2.8457755544314471  0.0032538827234434  2.8361598461716686
  4.2455157036508639  1.4411137208510540  4.2406887625975056
  2.8425581703875595  0.0016163411561198  5.6821643182843511
  4.2584463201214966  1.4253326012139944  7.1131678737505810
  2.8424512605008703 -0.0012181509846866  8.5327800811935752
  4.2804120800577703  1.4754495881192922  9.9333499139564996
  2.7791104720473414  2.8790372611977562  0.0635619387583491
  4.3037967525338869  4.2560408877590143  1.4165980693639471
  2.7870672109087193  2.8827118373095932  2.7780769206309097
  4.2451088231405985  4.2634376118851502  4.2498281926691917
  2.8434572824199362  2.8402393577933935  5.6857171874783372
  4.2500529585497420  4.2636752411987873  7.1081046363423139
  2.8438368180400069  2.8271933126289386  8.5387790891061854
  4.2460427837024639  4.2560017065570701  9.9678547891335505
  2.7905995465333708  5.6391511321898378  0.0522753934023659
  4.2553206445330956  7.1036862017591051  1.4214987935344343
  2.7922280276038243  5.6338448440524251  2.7861406433827711
  4.2435401009446077  7.0903901560293123  4.2465977355884430
  2.8457164379145681  5.6882822141117639  5.6868942469440986
  4.2560613618836687  7.1017447386412931  7.1074116594309213
  2.8449869382732698  5.6888761421235685  8.5301009100935428
  4.2483354198660370  7.0982678371499661  9.9654275347983443
  2.8447899941980008  8.5365645848519431 -0.0019513520918014
  4.2987496967106837  9.9161879086848188  1.4636613558951928
  2.8436675435916730  8.5439399595949475  2.8342696633587887
  4.2603742438575178  9.9513633256699876  4.2540946983380614
  2.8417918928940389  8.5293390477301774  5.6853637315513694
  4.2621715657288091  9.9524348351238441  7.1112398603486247
  2.8410332549754700  8.5387080395725263  8.5373511059388001
  4.3094613057096174  9.9074747419883007  9.9043119793880887
  5.6810667397044634 -0.0012242820548680  0.0001547305156380
  7.0994032184799485  1.4274696627258410  1.4195166043818959
  5.6756842701036607  0.0015801912554257  2.8345391658313601
  7.1073174543023656  1.4254236479472553  4.2605017409471451
  5.6768995217195650  0.0101148993697894  5.6766644991325776
  7.1073179063534173  1.4236282708022883  7.1064566911705791
  5.6705852356620241  0.0092670569456677  8.5432191180227957
  7.1005799620694150  1.4252844800232116  9.9551829034573682
  5.6748383268781453  2.8270685006715928 -0.0009046926898008
  7.1066617784165587  4.2659738429800527  1.4170428411307125
  5.7090661724119967  2.8625796863271042  2.8664786610584865
  7.1083639804298011  4.2664696731966725  4.2583242587168515
  5.6847955699351100  2.8463779673008895  5.6854997567975376
  7.1086912582962141  4.2672127528235198  7.1050865343545242
  5.7051344038796481  2.8653276775464653  8.5086664105868408
  7.1056790515835075  4.2635760331436767  9.9638042419072530
  5.6837812817474438  5.6887210138148889 -0.0022778255045869
  7.1079782777193987  7.0977244066490437  1.4181495819734915
  5.6879333082753405  5.6875366292485374  2.8468073617369276
  7.1096390367138111  7.0979158337541657  4.2630697844944239
  5.6811345924583145  5.6832300716772437  5.6838079974458253
  7.1109562191991875  7.0982307213866678  7.1028699647429434
  5.6857221938398617  5.6837365737298109  8.5281049439595584
  7.1063986448915468  7.1017462051366298  9.9577993300915093
  5.6764922664077231  8.5386533260300777  0.0017882548017111
  7.1035593703084796  9.9526450608598100  1.4218122418156880
  5.7096548376419536  8.5068652499012511  2.8658755995404679
  7.1083898953213778  9.9544170259249096  4.2636877401261275
  5.6801002328258443  8.5188906756277074  5.6779962871378373
  7.1086574496344159  9.9550441196175239  7.1051450946407613
  5.7045153771974162  8.4970025107203160  8.5093188036439145
  7.1025709812725122  9.9523130384054657  9.9517703278336853
  8.5316106315707287  0.0017191764894550  0.0001898090609981
  9.9646268155566311  1.4315439144982907  1.4208904496202224
  8.5290762082220066  0.0019734613858018  2.8419900595915415
  9.9653523405733413  1.4407161367076344  4.2485096921547916
  8.5356768999641517  0.0103590322421993  5.6781548819763135
  9.9533023571505908  1.4253669718521231  7.1065588035011551
  8.5371303522592310  0.0100610926424965  8.5369117072039913
  9.9730237796237660  1.4411964362885865  9.9682222456349141
  8.5281742733953845  2.8402639945059112 -0.0009130763392727
  9.9104532589828356  4.2666685029155271  1.4163286002281241
  8.5273037445924107  2.8438996510522760  2.8445716874054376
  9.9576206599165200  4.2682547234904806  4.2561743662959408
  8.5285432096774372  2.8455882066963301  5.6852340401770709
  9.9554827665607188  4.2665734885500530  7.1054399331930158
  8.5283167995438109  2.8464492517639868  8.5288542045255831
  9.9640067303408397  4.2635000459094936  9.9686667093342720
  8.5269273333947471  5.6882887567580616 -0.0028725152435718
  9.9594231563639095  7.0950278203167620  1.4186635824359928
  8.5262438542440275  5.6865650773028662  2.8436356688882509
  9.9634728639960901  7.0860566009186741  4.2503493809154351
  8.5293886242821806  5.6825723385943450  5.6844498627901485
  9.9507534194738998  7.0978573435502215  7.1042453755293211
  8.5299305834915522  5.6831861315310848  8.5327586290698747
  9.9672299593098188  7.0903452796388065  9.9703138799252091
  8.5284506065450518  8.5293865733245955  0.0009633497514098
  9.9639646597525164  9.9526573439192099  1.4196567713963293
  8.5288204095924947  8.5266881612172281  2.8437989810807851
  9.9509095275834873  9.9533438790041071  4.2628976172049775
  8.5353130277221183  8.5204563113165399  5.6785523032749490
  9.9501291012941522  9.9543834926177954  7.1054813000296564
  8.5358001379107744  8.5188854928051452  8.5337439377607129
  9.9597480619611218  9.9513656967261372  9.9533955036418078
  2.8534600471410672 -0.0182716386403659 -0.0106613898796796
