Fe Ni
 1.0000000000000000
    11.3862930859386235    0.0000000000000000    0.0000000000000000
     0.0000000000000000   11.3854240649134759    0.0000000000000000
     0.0000000000000000    0.0000000000000000   11.3862930831898428
 Fe  Ni 
 126   2
Cartesian
  0.0161065989447835  0.0061230740439857 -0.0024664332877495
  1.4254775316179582  1.4479028749208842  1.4210429625971026
 -0.0048398122802113  0.0052801821773434  2.8514033225487601
  1.4223059144477230  1.4237964879473193  4.2673599215126252
 -0.0002633350096203 -0.0036668850205802  5.6961709561396932
  1.4207007451361324  1.4247470687266079  7.1198629792542363
 -0.0068521935279091 -0.0065967329786915  8.5286459434764108
  1.4164403203439397  1.4175716407039580  9.9548340582859804
 -0.0081724845341285  2.8519624700513493 -0.0068463081651628
 -0.0111446002909711  2.8573117482190193  2.8578030730172301
  1.4228346078359930  4.2749229175591186  4.2580852734925490
 -0.0017817443155563  2.8445845256753870  5.6893904591882229
  1.4225464995488710  4.2732123689706620  7.1129547683114183
 -0.0168297316149451  2.8574030418446790  8.5290254932364498
  1.4208202796881249  4.2634108727317708  9.9791130160407047
 -0.0001372267617254  5.6912573621856746  0.0004761155882061
  1.4199401285439770  7.1071493081366715  1.4266530972425322
  0.0004416250775871  5.6941829859167283  2.8461829162181007
  1.4223863293700254  7.1165125176950026  4.2775244364397320
 -0.0025697448619560  5.6950438085993911  5.6897423449954623
  1.4219403504868540  7.1119722356762134  7.1123220901402702
 -0.0013501781503949  5.6941614481762288  8.5435061502514245
  1.4206199844554990  7.1224541564303578  9.9577908172892649
 -0.0052156149673588  8.5325038534649167 -0.0026666454968510
  1.4251382039643767  9.9664001901179322  1.4213889240935724
 -0.0145209177757786  8.5252727659449317  2.8611224708858214
  1.4224538986495807  9.9610635456599592  4.2652639359835458
 -0.0003696733143106  8.5441423573809523  5.6963251613039088
  1.4219226168407326  9.9598762875189379  7.1188304556226747
 -0.0127185678407710  8.5321110332073324  8.5235172205962577
  1.4237628403892277  9.9637005330312807  9.9628691198485360
  4.2780637739591683  1.4176267058358483  1.4301561106043510
  2.8489730276644081  0.0062772077386626  2.8303716004438808
  4.2867415593582319  1.4121304278536899  4.2806117089719784
  2.8472987594977330 -0.0036936591017918  5.6966041476382427
  4.2715998391474788  1.4249935671274252  7.1201788281436675
  2.8471033531640182 -0.0053472956053856  8.5514294477494630
  4.2810895214061686  1.4122222165231428  9.9518620353076752
  2.8443296617446308  2.8216311906498972  0.0021910031553407
  4.2536581824108168  4.2632569229892061  1.4256863541617981
  2.8534428552445865  2.8519071841301531  2.8547772341077322
  4.2767330383219555  4.2760573419232530  4.2809464781641084
  2.8490761956614552  2.8447541176837334  5.6897501257029006
  4.2700847296166913  4.2732245697035918  7.1134323187977850
  2.8475510675186704  2.8457324074566954  8.5422240659325173
  4.2746899808827772  4.2642538632026641  9.9581667741108824
  2.8446753128688123  5.6885577923684121  0.0018517568331576
  4.2751130755165878  7.1224944433634008  1.4259340083620642
  2.8461830118620366  5.6913066396447398  2.8466470021724470
  4.2825956221027619  7.1227966686842166  4.2860534939215418
  2.8479494416185194  5.6950702548973062  5.6907488919472744
  4.2702345017107488  7.1108810049305200  7.1131746312708692
  2.8474411445006842  5.6939721981904876  8.5443001700530843
  4.2844090159216570  7.1296853178513979  9.9484854110754668
  2.8499397031293161  8.5478090106699884 -0.0033466149988122
  4.2699337129380952  9.9636514327119041  1.4228964282434982
  2.8492208413033064  8.5324636760887742  2.8518264883966342
  4.2711869396492599  9.9608383543467198  4.2660900752428867
  2.8479135897290977  8.5429626872976403  5.6972833351320240
  4.2724311123064211  9.9599306640621847  7.1198362275496132
  2.8474736736949668  8.5384934989597010  8.5320746573672821
  4.2694695306389239  9.9607750880998864  9.9634481643151442
  5.6813718341968027 -0.0053890385485217 -0.0004521881684371
  7.1130368629221632  1.4247799065494127  1.4257895165607712
  5.7042332176009509 -0.0065232044215411  2.8534462507825835
  7.1215745685411411  1.4248128413458876  4.2742135160773786
  5.6968119462305280 -0.0038275113986953  5.6965221987336196
  7.1211231120003893  1.4217150680034842  7.1117069697150104
  5.7005762299055727 -0.0042870787070669  8.5323236737479835
  7.1126771102812647  1.4249494506508555  9.9612246516185099
  5.6906465348810222  2.8457374636909760 -0.0009807896610578
  7.1198908572454025  4.2732276636415705  1.4240121493491711
  5.7038982383324290  2.8574035136459783  2.8634549200412227
  7.1198088011468004  4.2733615356745274  4.2735251306799391
  5.6975002162146096  2.8447211947504587  5.6982877742108933
  7.1192883877498740  4.2729201799283221  7.1135678343246900
  5.7101440016485370  2.8564302395785481  8.5227604108845441
  7.1194576123548226  4.2732009342433290  9.9627431639760733
  5.6885504542042105  5.6938945452924097 -0.0008328486407670
  7.1205700826964113  7.1119952227090364  1.4246268346161921
  5.6893767594972502  5.6941198619323128  2.8479002615652771
  7.1190683273300257  7.1123762383591700  4.2720438737018558
  5.6995281306801990  5.6942703990448624  5.6985012499498700
  7.1192835917404995  7.1152172974373578  7.1135545152860606
  5.6966509969499999  5.6931158729788489  8.5361667792970746
  7.1196117732606385  7.1108157425795575  9.9626366423542283
  5.7008111437850442  8.5384456582062196 -0.0009003055376081
  7.1140355713579417  9.9598878856941919  1.4246627671751393
  5.7093403514917851  8.5321611895947189  2.8593090209771614
  7.1217878576289610  9.9606876467997250  4.2762414994487044
  5.6953304292615110  8.5425817112436722  5.6957815863574748
  7.1210315324829647  9.9603497433998154  7.1118704760477467
  5.7080482084986475  8.5307698669032703  8.5248059743474371
  7.1130290022821194  9.9599142828185254  9.9604364536499972
  8.5362413872557585 -0.0036783740279944 -0.0007400931262233
  9.9655106670432705  1.4238016444337720  1.4242643851106316
  8.5367187963489286 -0.0036906391956498  2.8467981830247955
  9.9460470982748923  1.4131039279534263  4.2868573022921295
  8.5368543928230949 -0.0033862252155928  5.6960018043936875
  9.9586044107971752  1.4248196370469930  7.1113529480607944
  8.5363713473464831 -0.0038345880228138  8.5360442326024764
  9.9523122006134734  1.4121310382569221  9.9461768353950255
  8.5431495772151003  2.8447869892167401 -0.0025859315480511
  9.9747159289903173  4.2748812962909328  1.4238166248026107
  8.5434653735670771  2.8445404435445445  2.8483133015089517
  9.9556101691422327  4.2738210747436858  4.2772896195553027
  8.5349935617989345  2.8478189834054053  5.6978365814848395
  9.9593309724741594  4.2733687870825250  7.1130846847267417
  8.5346396088624985  2.8447142751943213  8.5353177570548606
  9.9519324330436945  4.2761307514424995  9.9561543417206000
  8.5421170103400286  5.6950818393146472 -0.0013641337854755
  9.9553614434188944  7.1164647360848878  1.4241870351303179
  8.5431229255624874  5.6950276495369430  2.8491445090731609
  9.9480926796711984  7.1241881636559494  4.2847617034407861
  8.5351570498580749  5.6946083767655704  5.6977449219188561
  9.9608240019090726  7.1124087503332651  7.1137823684397343
  8.5343219312058718  5.6942999210356318  8.5333632500778673
  9.9468038234036946  7.1228471130056796  9.9502878264459333
  8.5356085521000225  8.5429857974987975 -0.0013462121891870
  9.9675868371443634  9.9609857577325656  1.4241544581779897
  8.5364612290985438  8.5440771155499480  2.8469479962705262
  9.9594533662572289  9.9618421184376302  4.2733644139097269
  8.5368409608865594  8.5397409063274594  5.6959969127205099
  9.9566497952073654  9.9606581590725707  7.1110352340954028
  8.5370690706581573  8.5425494016490955  8.5375374006825719
  9.9667927693867853  9.9607965880701670  9.9616563690111128
  2.8493029033747344  0.0005988833309354 -0.0027096191437138
  1.4205768903360687  4.2689351224929517  1.4260159037001250
