Fe Co
 1.0000000000000000
    11.3689058050913552    0.0000000000000000    0.0000000000000000
     0.0000000000000000   11.3698960999171437    0.0000000000000000
     0.0000000000000000    0.0000000000000000   11.3689058072226583
 Fe  Co 
 126   2
Cartesian
  0.0527008265145521  0.0121814027259493  0.0033574243316685
  1.4328753012120126  1.4751086874948482  1.4092946969360360
  0.0078418882837040  0.0098596341957421  2.8343605134115961
  1.4241896871217428  1.4253382539630455  4.2508589309414990
 -0.0001584657129116 -0.0015798475236038  5.6851238371049186
  1.4221015661964380  1.4197977102420174  7.1125567503600022
  0.0000062393363515 -0.0062329915680158  8.5242553249509463
  1.4223000303938322  1.4114968454185783  9.9512633316817745
  0.0034705626885989  2.8522139910012867  0.0011869236865528
 -0.0010004672436059  2.8545773288559069  2.8433058943212570
  1.4203723133684307  4.2661755213734995  4.2218684664926620
  0.0043047887670545  2.8425389736839892  5.6769880734783902
  1.4207929087477265  4.2644490896112242  7.1042673625336397
 -0.0055185183470176  2.8526629403151444  8.5274933284128487
  1.4244707803373029  4.2515296438302661 10.0004934075762009
  0.0110009504340894  5.6752032665610548  0.0105970687345664
  1.4215327223101515  7.0762928426159029  1.4207049110400651
  0.0129763473499826  5.6772763590581032  2.8292407904718115
  1.4198064551040763  7.1018318221026568  4.2625552562339983
  0.0034037992301009  5.6822458933847457  5.6764922275797751
  1.4192406842399876  7.1029315071646586  7.1042079752504455
  0.0069106577508814  5.6811776867877297  8.5387719814239453
  1.4216629052342431  7.1112742556285466  9.9534878458638545
  0.0056952386520156  8.5223329446009064  0.0005499171575810
  1.4270457227320299  9.9515393790458422  1.4151370273789881
 -0.0036362819247543  8.5133890032771475  2.8459342006642263
  1.4242671593739740  9.9519530506342466  4.2532888328675549
  0.0020301626927323  8.5328277474680210  5.6866222533839901
  1.4247372676099075  9.9505054708913416  7.1123098338439856
 -0.0055028609674667  8.5260367294521693  8.5206350440703069
  1.4317101129395897  9.9584036536494445  9.9587927665187053
  4.2599598252158941  1.4115717177867653  1.4199663527097983
  2.8387586371061668  0.0123911294369558  2.7893085013478647
  4.2688620390080674  1.4110248307369357  4.2625468249595233
  2.8425535004553133 -0.0007904460030991  5.6857196182425085
  4.2590515658650245  1.4211925686393396  7.1129955709710382
  2.8430162544619493 -0.0024009105769085  8.5679808884987487
  4.2644192726393939  1.4091340717413441  9.9467918999209743
  2.8304075843641070  2.7886024152131701  0.0117622895813319
  4.2104217734826923  4.2513199273503242  1.4176450570993921
  2.8410793899737135  2.8521390506027910  2.8388467882147430
  4.2633289970110386  4.2698664082096220  4.2657951340755993
  2.8411949164652119  2.8439322007268855  5.6774850802797268
  4.2634582234364977  4.2653339815212776  7.1049265813231646
  2.8391362094631720  2.8383489508343160  8.5391885604366351
  4.2554737966460321  4.2538511715011520  9.9556346027706013
  2.8362497036936269  5.6820668522215296  0.0059332228502551
  4.2576384742956632  7.1113201256252800  1.4205386758227290
  2.8317046440807929  5.6752641850211489  2.8311905266989879
  4.2688541093332599  7.1075642509433274  4.2693725219739589
  2.8385894689275655  5.6831388964760592  5.6777337731729602
  4.2613406422918159  7.1008679653599156  7.1033186578767049
  2.8391746015891455  5.6817272406656993  8.5367301057257858
  4.2670475509748771  7.1202185446619302  9.9441558409403061
  2.8418179586449024  8.5573143907151508  0.0004197686702715
  4.2523040642474195  9.9583425875066407  1.4105918467122882
  2.8416520483517340  8.5222872454578589  2.8365249515490967
  4.2564266362294312  9.9524546364733055  4.2512604214000724
  2.8440791214574506  8.5306480149238268  5.6858827988451024
  4.2599254828192974  9.9513175546537713  7.1135382895749411
  2.8435168738738699  8.5317954906558882  8.5275287021639006
  4.2503542374967278  9.9563306753379681  9.9607684946111590
  5.6429817077610016 -0.0024643889491229 -0.0007411274728127
  7.0985984786225682  1.4197787962288086  1.4200817522088460
  5.6869081482587172 -0.0061554888852550  2.8422158539966116
  7.1080570639175811  1.4257373435762231  4.2620994505218812
  5.6843261050202036 -0.0013843754868405  5.6853005663169318
  7.1076515364424724  1.4222573079953080  7.1034198204272707
  5.6821753099932097 -0.0022366721525898  8.5289617734263636
  7.0981012951485711  1.4211720680878173  9.9520972481943151
  5.6719723043579808  2.8383725565722044  0.0030763866209749
  7.1068329967836359  4.2645017715056799  1.4214401934446368
  5.6836595733293764  2.8526863136863656  2.8477488647402933
  7.1064137829101481  4.2650955657522962  4.2632129831997574
  5.6832124211527777  2.8379736122499284  5.6869437592900516
  7.1050062937375600  4.2635956220485758  7.1061019503405394
  5.6918785221214918  2.8465638711393102  8.5193091400294758
  7.1062369886028005  4.2652906784081637  9.9476340220842356
  5.6744022391441984  5.6816541476351317  0.0031542564173120
  7.1069958630832346  7.1029588984828624  1.4229658304501034
  5.6723737620777319  5.6811526744889020  2.8353132912907211
  7.1040950751421770  7.1029461849346998  4.2588276620416030
  5.6877656393491822  5.6873332123060356  5.6877563664115485
  7.1047580368278691  7.1085096329617254  7.1063505414219161
  5.6824950446726108  5.6861907973888464  8.5285855850756835
  7.1077357771697773  7.1007799671103600  9.9498226973927277
  5.6836684087142029  8.5317749805220284 -0.0013068478260714
  7.0988469471595179  9.9504681206419061  1.4174763538693831
  5.6904857783178846  8.5260431945498301  2.8477407555394691
  7.1088697108254282  9.9462741745169261  4.2666522675116045
  5.6799408529022628  8.5306603524010001  5.6829819329262454
  7.1086652169226081  9.9453370593669046  7.1025370605499853
  5.6887356872104364  8.5246472913103108  8.5224282406811227
  7.0976056658772633  9.9513608151734605  9.9511969066273629
  8.5253801244771648 -0.0007376427154987 -0.0003204624854939
  9.9603018469176501  1.4253620991270011  1.4180229703592113
  8.5260397809836110 -0.0016229100852957  2.8423450398339414
  9.9404219774662437  1.4171470381052986  4.2707653417376070
  8.5272152347609715  0.0001151964935613  5.6838929893113237
  9.9489649072790183  1.4257619557087136  7.1031108253224717
  8.5258514206171068 -0.0013696297895143  8.5267853262198940
  9.9486068776346901  1.4110476037314674  9.9422740218767505
  8.5336699791668646  2.8439135297903477  0.0009879489000278
  9.9890941503949477  4.2661118345764910  1.4219030325732671
  8.5341091783638490  2.8425185199317786  2.8379381777683639
  9.9500748582110674  4.2659478479926598  4.2610620646598170
  8.5245328439975765  2.8414536240564470  5.6865383688624904
  9.9478982254274424  4.2650805764422079  7.1047380695241813
  8.5242239265792357  2.8379494542932870  8.5278516071171904
  9.9453689114509309  4.2699439547892339  9.9477987786346045
  8.5334229137607061  5.6831017496226535  0.0036241900985959
  9.9486419075455856  7.1018116206431623  1.4224037826593003
  8.5346515872462252  5.6822893432353174  2.8388121278528646
  9.9435413732534563  7.1089597767061106  4.2676228137439738
  8.5236504890040887  5.6882699895109914  5.6875519019075416
  9.9523253062935524  7.1029782115040243  7.1070361173963033
  8.5233031062590889  5.6873661377042133  8.5233895178967600
  9.9417479012785410  7.1075704502400816  9.9422897225687468
  8.5253210388920770  8.5306753180470096 -0.0018730259672092
  9.9578434496813184  9.9518799216551432  1.4180614893672725
  8.5244319517202296  8.5327392468586201  2.8402273425067714
  9.9496989830920199  9.9474160668971106  4.2613816444555450
  8.5274640742453496  8.5250977349226531  5.6836449643851230
  9.9445023893763533  9.9462411076896657  7.1021898080992401
  8.5281492823404506  8.5306288463070317  8.5312122660079144
  9.9598852495078933  9.9524297076826223  9.9547032583821640
  2.8384394579392782  0.0108590099302008  0.0039575096154633
  1.4250709808151576  4.2528528427395980  1.4173257170984077
