Fe Pt
 1.0000000000000000
    11.4063246101568208    0.0000000000000000    0.0000000000000000
     0.0000000000000000   11.4003267380297597    0.0000000000000000
     0.0000000000000000    0.0000000000000000   11.4063246154396136
 Fe  Pt 
 126   1
Cartesian
  0.0134620796685607 -0.0000927020581726 -0.0270094709277735
  1.3540823878492207  1.3887557829758714  1.4970669109162584
  1.3813140560868962  1.3734394625194672  4.2367467725429240
 -0.0021762102223005 -0.0000209788108655  5.7427662898262675
  1.4227093768507428  1.4293722894405700  7.1311466162440400
 -0.0122478908440054 -0.0000051656950130  8.5440762952991580
  1.4007765039123665  1.4569534753959548  9.9479185598964257
 -0.0114453273725644  2.8508784723209923  0.0122599784234288
  1.4255893212221284  4.2754157401180706  1.4258310769284084
 -0.0224545273809298  2.9045366184234194  2.8740134353741298
  1.4216505870629688  4.2845686590561778  4.2898066241951582
 -0.0060580008143533  2.8425428772984649  5.6906410253488868
  1.4185069460835105  4.2851791349547383  7.1179975138387377
 -0.0263688454018923  2.8703336225076339  8.5297970799205185
  1.4201731483672031  4.2746588021898182  9.9754772431596148
  0.0002384277107541  5.7002053587832258  0.0076253662684929
  1.4257501844736071  7.1249110065135888  1.4259918067328334
 -0.0055903018880250  5.7001634722182573  2.8571716331281238
  1.4216988366820145  7.1155180252536026  4.2895832563699727
  0.0029815997766765  5.7001522800875541  5.6955703278734218
  1.4184532525190483  7.1151995717439167  7.1177765049358470
 -0.0085684355035703  5.7002164523668162  8.5479193994996692
  1.4200174642555115  7.1257048891091150  9.9756964117075686
 -0.0115506257034328  8.5495654406576929  0.0122645924001302
  1.3545141083199475 10.0115708741767548  1.4974986978594294
 -0.0224324014255296  8.4957900507981954  2.8740356436211898
  1.3810511324513881 10.0271752559922387  4.2365671086369758
 -0.0060445091004588  8.5578403135679544  5.6905860312696666
  1.4229045257531294  9.9705420232843753  7.1311530816165707
 -0.0263886809374221  8.5300432712647893  8.5298602568862307
  1.4009310653209452  9.9435566500101285  9.9478606522688153
  4.3100453141497512  1.4567699965845105  1.4506501956120759
  2.8785906688752725  0.0000926032040834  2.8381187316602685
  4.2818183948475292  1.4303922353403018  4.2776182947782573
  2.8431273869536855 -0.0000303693778228  5.6984210514982783
  4.2807835605314351  1.4287730688954718  7.1283769599632771
  2.8498008146775304  0.0000215325393226  8.5768332562360072
  4.2958596168952594  1.4454328862806674  9.9622239195222786
  2.8367385934455633  2.8210994559076341  0.0148255076773710
  4.2822091555569513  4.2746217258985331  1.4315638948423302
  2.8393163910819004  2.8507614974219080  2.8631315347698822
  4.2823378944827075  4.2847182426254546  4.2878254853543627
  2.8360992095769144  2.8356332577817303  5.6913663254953608
  4.2772206812750424  4.2806377911238478  7.1125372798718010
  2.8477697480344051  2.8591213599753185  8.5443467485471754
  4.2755237764172502  4.2703614866060038  9.9825702543651555
  2.8505705336584732  5.7001630764090887  0.0010105939861699
  4.2824288659812728  7.1256678753359139  1.4314079827677662
  2.8439558712312687  5.7001213460285909  2.8513425365563863
  4.2824091929039163  7.1157196721390745  4.2878940873341431
  2.8478590997809587  5.7002053885385280  5.6986385253201925
  4.2772968233302464  7.1195970677422844  7.1125411338675582
  2.8483680414729373  5.7001657613234205  8.5569757321019839
  4.2753356658966615  7.1299654204344494  9.9823816900837343
  2.8367557211540859  8.5792270074131931  0.0148425778471118
  4.3099871810822314  9.9433729554450991  1.4508046366882883
  2.8393212571619224  8.5494483892113475  2.8630264676716362
  4.2816221727120434  9.9698209929477670  4.2776143174783856
  2.8360090824997974  8.5647224122579839  5.6912567002675720
  4.2809927421314855  9.9717935533415627  7.1283683792063091
  2.8477687170824733  8.5411118682984082  8.5442239147064072
  4.2956818488077007  9.9548937257028118  9.9620462226303541
  5.6810723410654536 -0.0000215505280709  0.0017801846829964
  7.1267525895199206  1.4297847010997249  1.4286764557478031
  5.7138295200953824  0.0000050371365884  2.8638288092468263
  7.1353509996624265  1.4331828261779067  4.2900027384236443
  5.7021835824396758  0.0000336073723249  5.6963645005474595
  7.1398773443782000  1.4294182265307318  7.1182253280906238
  5.7135699566071851  0.0000002095765187  8.5443359170449682
  7.1295371886620931  1.4285330906799349  9.9769130918636328
  5.7136817957248551  2.8592151344587799  0.0038124421725868
  7.1401291814084873  4.2851271914985718  1.4331280463634604
  5.7280450979874074  2.8702834014562209  2.8779700533748507
  7.1410286593272723  4.2852536875444960  4.2882818817619857
  5.7074588806223998  2.8519907300130241  5.6996121086472797
  7.1472517514343883  4.2765011996296041  7.1106896932368322
  5.7264981309854965  2.8717216613397052  8.5313915143003616
  7.1453646087015885  4.2807297310152075  9.9806089146244066
  5.7009301176626108  5.7001607350513339  0.0032132654618736
  7.1399081352566558  7.1151474794324905  1.4330742813214936
  5.7099864943585654  5.7001103911788089  2.8601495594868132
  7.1410091690270106  7.1149725399141621  4.2882797032531359
  5.7024821686440763  5.7001259570595009  5.7002375358276440
  7.1472161828069805  7.1238254346874745  7.1106539182322122
  5.7106051589934577  5.7001633412559105  8.5473004348820201
  7.1453682113285870  7.1196891620222704  9.9806848689119771
  5.7135591332286815  8.5412051968629914  0.0038115201439708
  7.1267592061547047  9.9709548221803903  1.4288715692689979
  5.7281086150179075  8.5299931457713107  2.8779500106868992
  7.1353670740386255  9.9670954124869393  4.2897896318142417
  5.7074374876343716  8.5483041147698753  5.6995640630910698
  7.1396802911872772  9.9709084653226636  7.1180284372495350
  5.7265139191296255  8.5286052788834485  8.5314075569882402
  7.1295289741060364  9.9715538070628931  9.9771218894878402
  8.5594845552226140  0.0000302730843226  0.0084538356838008
 10.0213384041707450  1.3731514510719214  1.4705304081959008
  8.5151396944480897  0.0000208918628447  2.8537575930504597
 10.0229153433788891  1.3774862895030688  4.2350499769461871
  8.5665978418896263 -0.0000000966133105  5.6913080792205761
  9.9681164670653395  1.4332313105525234  7.1225387196298477
  8.5615411221521978 -0.0000335554376560  8.5557220916484056
  9.9802913951270824  1.4305057891812285  9.9762836602643770
  8.5666488431065080  2.8356044742029742  0.0155722121659311
  9.9683226574008330  4.2848085987050171  1.4298823816697566
  8.5673197079699044  2.8424864556445968  2.8576254459223640
  9.9699997287654991  4.2867216363693350  4.2878576425587092
  8.5730927340321976  2.8297511717142925  5.6848757618441859
  9.9696259784976746  4.2853538011429864  7.1168963892546486
  8.5583420045490808  2.8520224642153185  8.5504681722781424
  9.9700115489800449  4.2846069498421464  9.9754966596991448
  8.5592675631370323  5.7001214682774490  0.0037219910443050
  9.9680994318383167  7.1157580381949543  1.4299303609561540
  8.5623355068798865  5.7001744018054996  2.8485994961272962
  9.9700481035272190  7.1136053363911698  4.2879063053827968
  8.5584469435524912  5.7001634011875799  5.6994588880425257
  9.9696239391198773  7.1150731964262661  7.1168770953209828
  8.5576680069660220  5.7002004983712551  8.5554233964335271
  9.9700804445593736  7.1156084789906711  9.9755678550910982
  8.5665393337503080  8.5646933708953252  0.0154818676690644
 10.0211590973665761 10.0268872602319128  1.4702673793994696
  8.5672646782583470  8.5577837533153094  2.8576392928940524
 10.0228558623845689 10.0228407566691846  4.2349904035054076
  8.5730302553894369  8.5705756511004285  5.6848128010444707
  9.9679029071720251  9.9671442259445353  7.1225546375513833
  8.5582937490831412  8.5483362064498536  8.5504470306581570
  9.9802877415397830  9.9699343557188822  9.9760875048909519
  2.8473102381946176  0.0000001146555229  0.0042711445660209
