Fe Pd
 1.0000000000000000
    11.4048355668521424    0.0000000000000000    0.0000000000000000
     0.0000000000000000   11.4063724381488765    0.0000000000000000
     0.0000000000000000    0.0000000000000000   11.4048355590712145
 Fe  Pd 
 126   1
Cartesian
  0.0111940598308891  0.0057321738034618 -0.0000268803004056
  1.4332379995181679  1.4810613089474620  1.4180135908696601
  0.0023842384523925  0.0101512720322252  2.8487934260208125
  1.4170065355936248  1.4305350454985495  4.2744172122253072
  0.0005185656188372  0.0021069125299689  5.7024004731824407
  1.4168761798950613  1.4303055801448967  7.1303655683106086
  0.0024153906553526  0.0101512162844816  8.5560110360119772
  1.4331951481331886  1.4810614579639692  9.9868647953036884
 -0.0511011426349863  2.8618386762177197 -0.0001071248341255
  1.4662082510071242  4.2282762849167712  1.3846823372691988
 -0.0112837616085255  2.8760975819758721  2.8625467461235470
  1.4179853039213763  4.2899379382296345  4.2834051421288644
 -0.0002024962447345  2.8616622206297402  5.7023909374695325
  1.4179549621131695  4.2899472385878488  7.1215124091752804
 -0.0113379597123647  2.8760976631595154  8.5423427279528763
  1.4665264442694301  4.2282762319192395 10.0198348616630408
  0.0106779075732266  5.6943454590476561  0.0000707908424281
  1.4148334893678918  7.1427555017694893  1.4366616271201562
  0.0068926295681263  5.6907420888578173  2.8442994116088620
  1.4216752060816136  7.1209961141052656  4.2876661533217657
  0.0091662876282313  5.7004877945120818  5.7023906305510277
  1.4216739932163067  7.1209793963844907  7.1170034137560370
  0.0069093529379996  5.6907421417635708  8.5605191869220878
  1.4145470914102964  7.1427554874642913  9.9684599710830426
  0.0032655735023163  8.5539788664616978 -0.0000146367924881
  1.3897108827230271  9.9423153100318675  1.4613154462567359
 -0.0228191273807311  8.5349204779518928  2.8740079323656111
  1.4192526816740676  9.9730818593410344  4.2711249377554674
 -0.0065211918169221  8.5473163720902559  5.7023503791188155
  1.4193560928605129  9.9728830446523098  7.1336517411537930
 -0.0227990413944234  8.5349206302524756  8.5308074854031641
  1.3898933244284060  9.9423151406326991  9.9433376044261852
  4.2692225489981253  1.4810615046704703  1.4179708569758749
  2.8511821720735999  0.0057321783844033  2.8400146810987983
  4.2855416789314136  1.4303056527120581  4.2744699680312666
  2.8512089356402885  0.0038605352091668  5.7024178076591161
  4.2854114271455419  1.4305350806109456  7.1304184700327671
  2.8512356040740108  0.0057321987592035  8.5648209481904942
  4.2691796893926908  1.4810614143129739  9.9868219092297537
  4.2358913023146085  4.2282763652999584  1.3850006618239525
  2.8511016653207659  2.8618385681937477  2.9023101461274772
  4.2844628211835101  4.2899472417531603  4.2833230687077579
  2.8512089234488878  2.8580547160733554  5.7024177667430420
  4.2844324161946492  4.2899379757404148  7.1214303270255961
  2.8513160473089538  2.8618386269197016  8.5025254683661391
  4.2362096361262553  4.2282763740294493 10.0201531028006059
  2.8512088649913037  5.7590436668907632 -0.0000000750021089
  4.2878706162246001  7.1427555688920519  1.4363754453514201
  2.8512796729222223  5.6943455138798305  2.8405309915059558
  4.2807438264601672  7.1209793963149428  4.2878321621268789
  2.8512088610833346  5.6955895223771460  5.7024177448959801
  4.2807425216505131  7.1209962229558466  7.1171693817311246
  2.8511380216127526  5.6943455251592408  8.5643046252234871
  4.2875843340466400  7.1427555459975025  9.9681737596085664
  2.8512089325709700  8.5794300826456613 -0.0000000296934206
  4.3125244313270050  9.9423153692714745  1.4614979668413155
  2.8511941590053609  8.5539788866402677  2.8479433142642145
  4.2830617715028989  9.9728830479216111  4.2711838810700922
  2.8512088022824060  8.5550252194697212  5.7024176942024125
  4.2831649655244588  9.9730818225190898  7.1337107173960934
  2.8512234981298881  8.5539788655879381  8.5568922916163270
  4.3127068988852413  9.9423153726478937  9.9435200761996381
  5.6912236868650341  0.0057322495335257  0.0000267303851081
  7.1256259573286069  1.4305351183910322  1.4342024952638954
  5.7000023511400943  0.0101512466892021  2.8488247457438947
  7.1387037784001715  1.4334255812423897  4.2875872296221491
  5.7018992581915073  0.0021068893623064  5.7024352459436782
  7.1387962131881242  1.4334256920104216  7.1173407173272789
  5.7000335552490355  0.0101512524631551  8.5560420906251196
  7.1256788082347775  1.4303054995805056  9.9705029061189521
  5.7535190769155173  2.8618387086427797  0.0001071240210413
  7.1346140948657499  4.2899378790678906  1.4332236349167020
  5.7137557324237322  2.8760975882591424  2.8624927705519658
  7.1380781976606089  4.2905909127222150  4.2868353491351501
  5.7026202204156125  2.8616623059979127  5.7024446868490246
  7.1380443309276904  4.2905909065268855  7.1179663062602865
  5.7137017292822101  2.8760976201696589  8.5422887879730673
  7.1345321017597234  4.2899471841575041  9.9715815968216432
  5.6917398747674746  5.6943454860903930 -0.0000709836646688
  7.1388750312955169  7.1209961495526501  1.4295336330558708
  5.6955083519519114  5.6907420997014277  2.8443163115560792
  7.1353022472790810  7.1103058081938135  4.2841128347615571
  5.6932516768004167  5.7004877874719604  5.7024448993397092
  7.1353217163657794  7.1103058375865915  7.1207422176326940
  5.6955251524127837  5.6907420990565125  8.5605361647196077
  7.1390412199061615  7.1209793052131500  9.9753005977694666
  5.6991521536358700  8.5539789264533006  0.0000145801238281
  7.1223337873554469  9.9730819144951699  1.4319560978117716
  5.7252169251755749  8.5349206254409218  2.8740280121201005
  7.1356515202969648  9.9808016732306424  4.2844471643345434
  5.7089388417161144  8.5473164851737451  5.7024852068446981
  7.1356560659742820  9.9808016636665684  7.1203929128239976
  5.7252368760608165  8.5349205755826514  8.5308276226602473
  7.1223926783202485  9.9728829577266698  9.9729826979514709
  8.5536267119040250  0.0038604799341487  0.0000000109435672
  9.9815745072245790  1.4303055867071686  1.4343327122992484
  8.5536093408989498  0.0021068121061268  2.8506901687863508
  9.9684572428646980  1.4334257364922915  4.2874947296630870
  8.5536266471717735  0.0040952945718270  5.7024177259449749
  9.9685496932551985  1.4334255581619288  7.1172483191735951
  8.5536439543874838  0.0021069070504531  8.5541452313209732
  9.9816272890396824  1.4305350086825823  9.9706330519463346
  8.5536267328628970  2.8580546126373187  0.0000000243324949
  9.9727213064776095  4.2899473293377284  1.4332539884707920
  8.5535998512244493  2.8616622183252067  2.8514113758113626
  9.9692089953746503  4.2905908644331152  4.2868691628480997
  8.5536266444277409  2.8513062048449456  5.7024177143560140
  9.9691752097259698  4.2905908331688138  7.1179999378762302
  8.5536535276744079  2.8616622079082417  8.5534242046421127
  9.9726392820429677  4.2899378537258288  9.9716120182859118
  8.5536266910731591  5.6955894241361005 -0.0000000128000899
  9.9682122349677229  7.1209793500339247  1.4295349908846213
  8.5535995315217619  5.7004878310523051  2.8420427602285629
  9.9719315859636435  7.1103057186391947  4.2840933949211326
  8.5536266145155366  5.6994013816447247  5.7024177678843682
  9.9719510034607239  7.1103058655820464  7.1207227528084927
  8.5536538399752526  5.7004877110999290  8.5627928190409648
  9.9683784030058860  7.1209961509946069  9.9753018307995927
  8.5536266864752815  8.5550251752982316  0.0000000966700993
  9.9848607535066165  9.9728829602628277  1.4318528430745556
  8.5535593146891831  8.5473165231216637  2.8577300683600475
  9.9715973043139989  9.9808017740520469  4.2844427348740011
  8.5536266117768651  8.5564291521994402  5.7024177096860642
  9.9716018771076076  9.9808015979855451  7.1203884846012091
  8.5536940383574400  8.5473164471916192  8.5471055750648670
  9.9849195601827301  9.9730817390945035  9.9728794722733927
  2.8512089428408385 -0.0798177898813412  0.0000000935910595
