Fe Mo
 1.0000000000000000
    11.3923440934439508    0.0000000000000000    0.0000000000000000
     0.0000000000000000   11.3923441018048024    0.0000000000000000
     0.0000000000000000    0.0000000000000000   11.3923440941629917
 Fe  Mo 
 126   2
Cartesian
 -0.0230055502758856 -0.0186229994442994 -0.0190002313424383
 -0.0367523958536877 -0.0450741249751969  2.8849182846914925
  1.4170601054739151  1.4311202556905314  4.2881736643813255
  0.0044383370277668  0.0014255582995680  5.6923781854851105
  1.4251150355263065  1.4228104109967359  7.1338401345750757
 -0.0051313612450845 -0.0005413520935663  8.5472110546889191
  1.4050427814209960  1.4426660487834375  9.9452954856068203
 -0.0368322502753490  2.8848384641482916 -0.0450742072923169
  1.4169658205277216  4.2881736490163176  1.4310260529333987
 -0.0722926280944581  2.9203785750317484  2.9203786142793779
  1.4235361679729970  4.2774219436491023  4.2776089137939453
 -0.0087178820193559  2.8567840493356287  5.6956129099282826
  1.4250934618701367  4.2659231905206187  7.1238112692078293
 -0.0055729704661012  2.8536035063366922  8.5439246429997233
  1.4236548670838944  4.2691278639102528  9.9633140171567884
  0.0046137236978236  5.6925556040067748  0.0014539322358684
  1.4252756695031135  7.1338401053332783  1.4229710156579620
 -0.0086980560489153  5.6956129848116035  2.8568038687756983
  1.4250068083969181  7.1238437765335805  4.2659411396992075
  0.0036084204254575  5.6931072826678886  5.6932195654007707
  1.4223828709292876  7.1206994979389817  7.1206971445767797
 -0.0036738518063895  5.6917242643517563  8.5425380334931571
  1.4254969198253364  7.1238314090566908  9.9729148594834829
 -0.0049869913849853  8.5472592538024266 -0.0003881869156706
  1.4054200929354819  9.9452955478273282  1.4430432733703555
 -0.0055175284944211  8.5439246599765095  2.8536590034409022
  1.4235017498861837  9.9631698061062206  4.2691760676747199
 -0.0036733938334011  8.5424580996833015  5.6917581716441408
  1.4254685630146018  9.9727395105001317  7.1240088407208022
 -0.0064028464479582  8.5379137343158131  8.5379377697373524
  1.3789688079034246  9.9315486570121827  9.9314688607014023
  4.2951346649953823  1.4430432506984985  1.4426659461388494
  2.8667089775814105 -0.0190002092029055  2.8710916068305545
  4.2771160743837244  1.4244312005108364  4.2691278331260500
  2.8468533607568527  0.0010720537640469  5.6825469361889356
  4.2675152767567592  1.4225891203243732  7.1238314012191806
  2.8551632142816739 -0.0069829368397631  8.5282133769140405
  4.3089613263501185  1.4691172494771323  9.9315487067838184
  2.8670862946817626  2.8710915867699836 -0.0186229888679917
  4.2772603734136494  4.2691761140695892  1.4245842655479015
  2.8931602708477624  2.8849183307240991  2.8848384922631896
  4.2785319524430525  4.2784493464501452  4.2784733727119395
  2.8466321449435106  2.8434723199539338  5.6925556830288429
  4.2758028685126108  4.2738490608459889  7.1246628572699802
  2.8484742246110129  2.8530730571198246  8.5472592093496562
  4.2777020156209948  4.2724624336457619  9.9627835579464232
  2.8470140498907099  5.6825469402084581  0.0012326478432561
  4.2676906166295669  7.1240088310738328  1.4226174058741201
  2.8466604163060714  5.6923782921469632  2.8436477153687791
  4.2758024069646217  7.1246289984480944  4.2739290860799564
  2.8497461088981262  5.6956899322776726  5.6956875413467607
  4.2685205722067376  7.1231675755334427  7.1232797509415695
  2.8470356515680777  5.6925758386123295  8.5504639088152281
  4.2808468227671206  7.1207741673491602  9.9596030512541081
  2.8550689686085491  8.5282134175876170 -0.0070771835115805
  4.3088814404938693  9.9314688183587556  1.4691171953808182
  2.8486272078532706  8.5472110825497136  2.8532174026642685
  4.2776465298689619  9.9627281804596208  4.2724624008866821
  2.8471221365331290  8.5504459619274034  5.6925433067941320
  4.2808270241097581  9.9595832604024590  7.1207741995303051
  2.8485927804804407  8.5387781831047143  8.5389651225805956
  4.3444217357577743  9.8960084861738267  9.8960084421313947
  5.7122167065270455 -0.0070772003159458 -0.0069829579675302
  7.1065899468401845  1.4229710253028065  1.4228103547169053
  5.6931709203574261 -0.0003881816929748  2.8530730890472413
  7.1166188600485718  1.4229926800362513  4.2659232400785605
  5.6899662186551527  0.0010504097079443  5.6925757906427714
  7.1197329707383235  1.4257031436907524  7.1206995142097904
  5.7014650227218979 -0.0005067609604273  8.5387781420670290
  7.1164212049843547  1.4226175133266177  9.9727394942292342
  5.6932191304623858  2.8532173760187942 -0.0005412309812757
  7.1165863410677428  4.2659411335321931  1.4230791737477555
  5.6965055170670427  2.8536589962857759  2.8536035769397472
  7.1219360113154755  4.2813052379725844  4.2812734733435498
  5.6978920577117220  2.8517598514594891  5.6917242406446880
  7.1249354084047782  4.2704689139482159  7.1154785368018887
  5.7024923407210002  2.8544888835545370  8.5379137483671492
  7.1158011514875472  4.2739290878573568  9.9646276772191182
  5.6899841635047439  5.6925432696813481  0.0009639005945548
  7.1197305485706028  7.1206971336909914  1.4257031750270042
  5.6979721271111892  5.6917581445137539  2.8517594171090526
  7.1249515460161437  7.1154947103057138  4.2704688816286627
  5.6945119357884373  5.7008924736710771  5.7009084758504995
  7.1272561299639712  7.1131740164794559  7.1131739656368245
  5.7053482667170323  5.6978930356721396  8.5351135896433838
  7.1172626262530141  7.1232798322666371  9.9719095361941275
  5.7016519198696987  8.5389650843219922 -0.0005067505782024
  7.1165987190967357  9.9729148238275513  1.4225891131298998
  5.7025163578388636  8.5379377452541991  2.8544888930982011
  7.1157673033022908  9.9646273117289894  4.2738490486253955
  5.7053165669770074  8.5350818898458414  5.6978929164335490
  7.1171502694639841  9.9719095786770620  7.1231675786927449
  5.7200589295482898  8.5203711605934007  8.5203710935477197
  7.1196559073158188  9.9596030148622567  9.9595832323826432
  8.5578831012748129  0.0012325862416638  0.0010719946488993
  9.9522563628359784  1.4310259540646706  1.4311202089984760
  8.5478744251698853  0.0014539289214307  2.8434723001432083
  9.9628211220039482  1.4245497920442287  4.2774220031634496
  8.5447425142356543 -0.0016601260051133  5.6956900202159781
  9.9744889509258012  1.4230791111224939  7.1238439189836109
  8.5478868266647154  0.0009638381556720  8.5504460283321695
  9.9712540852380318  1.4245842933591548  9.9631697440229168
  8.5480519086122975  2.8436476382367482  0.0014255426031197
  9.9630081259811050  4.2776089039936940  1.4245498255887337
  8.5448171503454944  2.8568038202900077  2.8567840730954646
  9.9444142359809646  4.2960159329983592  4.2960158795512848
  8.5472105256049407  2.8444775721497972  5.6931073186689174
  9.9591248542552613  4.2812734950082270  7.1184941602219487
  8.5486720532187270  2.8517594137146642  8.5424580509446475
  9.9619808280076310  4.2784732668792209  9.9618982468291737
  8.5447401963003244  5.6956875787926080 -0.0016600907224302
  9.9745069842228347  7.1238113160754217  1.4229926049704380
  8.5473228963924992  5.6932196012498659  2.8444775408459932
  9.9591566502744175  7.1184941051275556  4.2813052160227638
  8.5372170575182960  5.7032131110805881  5.7032130802393972
  9.9699612090910943  7.1154785393675084  7.1154946918133852
  8.5395377391141132  5.7009085719187276  8.5459181989269482
  9.9665810788863265  7.1246628469819209  9.9646273320266054
  8.5478542920832528  8.5504639350238492  0.0010504429700572
  9.9713022492984660  9.9633140571546157  1.4244312178707750
  8.5487058315901763  8.5425380363051069  2.8517598509954305
  9.9619567685910475  9.9618982530575284  4.2784492917358783
  8.5395215819005443  8.5459182837416012  5.7008923755384124
  9.9665010587979239  9.9646277060459720  7.1246290113984267
  8.5425372177129084  8.5351135693089724  8.5350818127855970
  9.9679676663277679  9.9627835559300184  9.9627282041289114
  2.9262323699206250 -0.0781462664977573 -0.0781462988281840
  1.3458967914043170  1.5021893524340435  1.5021892988513705
