Fe Ta
 1.0000000000000000
    11.3789651736901192    0.0000000000000000    0.0000000000000000
     0.0000000000000000   11.3808252379444799    0.0000000000000000
     0.0000000000000000    0.0000000000000000   11.3789694130320118
 Fe  Ta 
 126   1
Cartesian
 -0.0069485442216941 -0.0001481618034434 -0.0034182501158202
  1.3600687894684487  1.4588400098461765  1.4846851741516123
  0.0142367328802053 -0.0055336595668106  2.8306268842454516
  1.4225299043304125  1.4355827634461171  4.2526010230382072
  0.0007207174031375  0.0032499675631858  5.6894029409589999
  1.4255310147076397  1.4282819023298534  7.1214774354313981
  0.0174209854140195  0.0028297517393362  8.5546615846812948
  1.3665988047706992  1.4984612427627526  9.9109919758888712
  0.0756215748185814  2.8764907615268074  0.0568301353116323
  0.0371524966000941  2.9144900115820556  2.8077783065284612
  1.4245598460451943  4.2679988039950185  4.3040037186935178
 -0.0059673310892731  2.8484511707681528  5.6901480440797663
  1.4246765739489982  4.2670429923562176  7.1142545131615558
 -0.0189008248244136  2.8582591211706521  8.5156865973707205
  1.4251102381109833  4.2629386544364376  9.9122322479715894
  0.0552561660396370  5.6375406131015282  0.0513977124903182
  1.4191379873262728  7.1611603334878158  1.4258260637839693
  0.0405719116943030  5.6445551696166421  2.8042611175991379
  1.4237487508828339  7.1034346191113986  4.2551532690626770
 -0.0000853565750616  5.6908863078007030  5.6906794283543514
  1.4240243367806733  7.1061426556992258  7.1124358210389662
 -0.0091062443734755  5.6942156532846031  8.5270005303788334
  1.4211785398058372  7.1081952959554719  9.9669000975948503
  0.0133904153863144  8.5564852969017888 -0.0015696967730858
  1.3557372089524602  9.8982928924843172  1.4887344224253345
 -0.0241726909924510  8.5204616644190736  2.8688067331987481
  1.4220112115384058  9.9585721134087564  4.2536348045379517
 -0.0055855101218506  8.5300300269824891  5.6895821594235034
  1.4212947563067855  9.9600609422654731  7.1179871547315203
 -0.0194621270816710  8.5175223877301249  8.5149635742452414
  1.3514255752830349  9.8928323329508370  9.8935547792520921
  4.3126899710422402  1.4983237008817498  1.4780308461566665
  2.8480471542553611 -0.0001668761584500  2.8513965137223583
  4.2462490272303288  1.4431832492894514  4.2426438614112145
  2.8446702739722198  0.0002901760076409  5.6856760505624173
  4.2605332519943024  1.4268888754220594  7.1192936413601409
  2.8451350146799705 -0.0031959498000041  8.5279347062292654
  4.3057640529990229  1.5012901310072737  9.9179222218193726
  2.7814784993951878  2.8924882652903450  0.0630921766768614
  4.3115463234404805  4.2631239567063437  1.4199696506799175
  2.7877474323337008  2.8766943685487645  2.7688568673975666
  4.2489370812055647  4.2652221519987217  4.2491069338699656
  2.8452300838510181  2.8453383826649636  5.6877186046174550
  4.2549813131812639  4.2650251537391464  7.1146104355742823
  2.8486560228667446  2.8246112524596221  8.5505902558175055
  4.2521824152710144  4.2637339547085444  9.9716639731163443
  2.7938810407329027  5.6436162938896892  0.0509442599575226
  4.2569679389504573  7.1081888920588243  1.4233519286829346
  2.7934050310505967  5.6377094574772935  2.7897016521227544
  4.2481761055583904  7.0985032806450343  4.2480902942082572
  2.8475760800829635  5.6927653731957042  5.6897054607876898
  4.2618373344641833  7.1100509958891411  7.1146507458306845
  2.8475381113068345  5.6956176367335498  8.5325472419987456
  4.2522738628394947  7.1046445393200743  9.9713678996102590
  2.8473489791664828  8.5274425133409029 -0.0025064227518645
  4.3302498756661150  9.8928132016964554  1.4934305218368342
  2.8464419074588116  8.5564988293540765  2.8312915794213898
  4.2648077250475556  9.9581373932595625  4.2556643036169044
  2.8444664421566750  8.5353084489603344  5.6899887943459486
  4.2663714760706926  9.9590805034894654  7.1183839889716669
  2.8433689647176656  8.5515242565915575  8.5501558108610460
  4.3423421343831325  9.8846408239003889  9.8812829110657905
  5.6958935729992595 -0.0033083510525377 -0.0006005341916216
  7.1022800360913800  1.4284109220905474  1.4190154075492742
  5.6691957501979839  0.0029232527659288  2.8272995127243448
  7.1088532658189525  1.4269038005515464  4.2603349749367734
  5.6802231191215427  0.0110183076721617  5.6803073034715377
  7.1100360848171844  1.4259277802973229  7.1136172646081182
  5.6672976496553620  0.0108845178733107  8.5563845777285579
  7.1043561076041541  1.4268541086976683  9.9629584538012086
  5.6728618583725856  2.8244742091990314 -0.0036330622444916
  7.1094390482886789  4.2669970778897159  1.4200613732406511
  5.7080296191136899  2.8582113719896030  2.8637636469179206
  7.1162599293723607  4.2724121046762491  4.2646143019352332
  5.6918111610801461  2.8513978276823044  5.6890059399564912
  7.1175350896855925  4.2728402754816548  7.1061417145493930
  5.7042193429339996  2.8611191704789865  8.5194444180659108
  7.1090626614859715  4.2649690885662945  9.9687442514219988
  5.6912806766494279  5.6954627568005760 -0.0028795606360727
  7.1112358635480861  7.1061115104400097  1.4207339721865555
  5.6967506963882037  5.6943774461871826  2.8539000570945512
  7.1188295418435921  7.0998399432549473  4.2717319565483560
  5.6833826959416252  5.6871622952610057  5.6878255803723183
  7.1207483654979047  7.0997852830216992  7.1029594826597657
  5.6953657270019855  5.6889238690075867  8.5283737914452082
  7.1091176337195030  7.1100773020082295  9.9619113798271428
  5.6735935786443372  8.5514856825459447  0.0014292571167063
  7.1057605640528925  9.9602098331504330  1.4235772369217685
  5.7087733793270656  8.5175422294198349  2.8642270427437526
  7.1099236740410339  9.9624404177400567  4.2635540816020008
  5.6879319739157461  8.5224205595673101  5.6824296678193402
  7.1099643806878268  9.9626803510965338  7.1136898190144580
  5.7050076662759013  8.5072885441281034  8.5187292403373380
  7.1053049442436080  9.9589447854118056  9.9574479858217320
  8.5380000525924835  0.0003817641392410  0.0001031440649362
  9.9712493259238197  1.4355319987532853  1.4222615113657946
  8.5343789612108587  0.0032813048441130  2.8440844725467085
  9.9760659227871216  1.4428795449525709  4.2476722063406740
  8.5412767540833894  0.0109312028310611  5.6824365308867204
  9.9633881040373247  1.4268765439995659  7.1148901014216168
  8.5433747095181740  0.0109639109294040  8.5434605749296413
  9.9809056330243386  1.4433051844913518  9.9774182313335142
  8.5360156302925176  2.8453170123684410 -0.0006875313624069
  9.9197332993075342  4.2679524107270304  1.4201889954196825
  8.5335477000754523  2.8483322514941447  2.8505111953909577
  9.9616041784745377  4.2735489777814539  4.2620225352375742
  8.5352727040059602  2.8446175996126994  5.6883624466167833
  9.9591225974556927  4.2724625426873724  7.1074132595834563
  8.5346722838555227  2.8514467322332644  8.5317066233630516
  9.9746166073629201  4.2652046228547906  9.9746703290953427
  8.5340586437112016  5.6927517561057606 -0.0027180197851028
  9.9685825631922143  7.1033278080675908  1.4209576445372829
  8.5329930777570659  5.6908062975794875  2.8449032011163973
  9.9640629108365353  7.0899992327360062  4.2596288541677003
  8.5354665878327882  5.6847022426452112  5.6882869517594710
  9.9520370075645417  7.0997751960378785  7.1049411476021538
  8.5358394775476860  5.6871099978302198  8.5403782272494109
  9.9757331382514760  7.0984231193038196  9.9755802150672004
  8.5337245032298714  8.5353452607115745  0.0002572718703359
  9.9700633655232043  9.9585046827015571  1.4226104828037540
  8.5341124098957302  8.5299757299117402  2.8503089676589544
  9.9603090686578550  9.9617628161030254  4.2634060630022370
  8.5403417396008940  8.5322914784925050  5.6834263370715012
  9.9601423505777547  9.9624201072716847  7.1138462955659501
  8.5412645108971503  8.5223883489150172  8.5357985910227150
  9.9680334117969966  9.9581744543062971  9.9587876502113915
  2.8566870940637434 -0.0361933265332531 -0.0119666366351986
