Fe Zr
 1.0000000000000000
    11.3721048875133341    0.0000000000000000    0.0000000000000000
     0.0000000000000000   11.3721048794144188    0.0000000000000000
     0.0000000000000000    0.0000000000000000   11.3721048807367122
 Fe  Zr 
 126   1
Cartesian
 -0.1647560327521944 -0.0856916033012782 -0.0862210201482293
  0.0540035550142219 -0.0010192841263352  2.7885370983912297
  1.4548011327906341  1.3884748637922095  4.2282384920923333
  0.0110347852777263 -0.0105813672803145  5.6784030263801144
  1.4231011352798328  1.4199956341273212  7.1069097744773249
 -0.0061081487463867 -0.0206375952261028  8.5324675471171325
  1.3459129210205192  1.4965570763907863  9.7744745492599172
  0.0544891557613845  2.7890228135007065 -0.0010194028099913
  1.4545515849105568  4.2282385735707857  1.3882252482097284
  0.1077002325809355  2.7353259865423118  2.7353261826097479
  1.4346723179497896  4.2224964851801330  4.2222504177774072
  0.0152626221476471  2.8279287043406081  5.6667493508050484
  1.4300966725281601  4.2572327517959350  7.1010943769988577
 -0.0166740240222714  2.8597037317214271  8.4923718732188682
  1.4120152369293684  4.2494499596346138  9.9329717517226328
  0.0110579243242915  5.6785959177247145 -0.0106828476643894
  1.4230306878085559  7.1069097435786865  1.4199250980864768
  0.0150974532173142  5.6667492075460268  2.8277637257689108
  1.4300278124870731  7.1010219231781466  4.2572576106017443
  0.0162611748894540  5.6746868789424267  5.6745447926610968
  1.4289127896222749  7.1046696898309607  7.1048518892064019
 -0.0052897397984122  5.6801852142482625  8.5096480451121082
  1.4222315496982345  7.1036206284360466  9.9504676356728350
 -0.0061803932882352  8.5325980973663569 -0.0206040304095557
  1.3464692202906188  9.7744749567374480  1.4971132279088102
 -0.0166774145502817  8.4923718672183011  2.8597005462543748
  1.4120001891891889  9.9330616741955637  4.2495734656473072
 -0.0051059620853963  8.5097826110260293  5.6802371682768360
  1.4223390872535158  9.9504590258860510  7.1037982346671464
  0.0035406075142394  8.5327295359589801  8.5325550287994876
  1.4311971056549888  9.9932244847061789  9.9937039566875860
  4.4406565026426632  1.4971133652977908  1.4965567637734050
  2.9287177486004956 -0.0862211527820019  3.0077821840721599
  4.2821593139132128  1.4310110819330129  4.2494499626420721
  2.8527150601822386 -0.0096028212206652  5.6750073346543726
  4.2646636803257936  1.4207944513430073  7.1036205979052189
  2.8209082454291323  0.0223717390609837  8.5542823259554588
  4.2214271584600276  1.4118293267134108  9.9932244510719315
  2.9292469843921602  3.0077821623923091 -0.0856914805560935
  4.2820692522336765  4.2495735456738410  1.4310259429822014
  2.8440454160248505  2.7885371329617290  2.7890226736274366
  4.2724735495581436  4.2497181412437364  4.2495571648043686
  2.8537089194604333  2.8319682038734832  5.6785960231435855
  4.2811527559252465  4.2725052646780481  7.1022166009507943
  2.8636300770317185  2.8492066622712473  8.5325981689308374
  4.2923170077137929  4.2893452807444339  9.9227962332287731
  2.8526291668515329  5.6750074752913244 -0.0096888739138486
  4.2646719755364160  7.1037981468268860  1.4206870677520127
  2.8536074868884675  5.6784032230624355  2.8319911853553204
  4.2809744804222012  7.1021473148152090  4.2723833655491399
  2.8473091903345562  5.6775710179754819  5.6777656570117383
  4.2594296801717997  7.1081593829973482  7.1080165790469101
  2.8458511369762718  5.6810208519995893  8.5252206566545574
  4.2601279967512040  7.1156808362582984  9.9548254428296499
  2.8206543823371351  8.5542823571397886  0.0221180879417528
  4.2219065568371610  9.9937039479414977  1.4118292543858963
  2.8636635415731688  8.5324676939052413  2.8491344040803512
  4.2923350611314079  9.9228141253678714  4.2893454509532063
  2.8459358094078731  8.5252072853218372  5.6810901777753440
  4.2603056656336413  9.9550030223228543  7.1156808294148002
  2.8409865458313361  8.5605006041627654  8.5602405581164049
  4.1675931675887705 10.0475381018358920 10.0475380435098351
  5.6608487726996621  0.0221181188841221  0.0223718241175244
  7.1082211186929269  1.4199252081990603  1.4199956293812079
  5.6825331569857838 -0.0206041823943373  2.8492065547883381
  7.1140366880703345  1.4129294490216771  4.2572326300326413
  5.6899104524654796 -0.0028247580425897  5.6810206944346859
  7.1102791515206905  1.4141132413258255  7.1046696793004616
  5.6548908289864714  0.0020397564554034  8.5605005740325417
  7.1113330775490216  1.4206870940460243  9.9504591099650437
  5.6826635018912581  2.8491341606130236 -0.0206372108157415
  7.1141091704317452  4.2572573314766844  1.4129984003857408
  5.7227593138982211  2.8597003032658481  2.8597035506816701
  7.1345639205679818  4.2658974992804835  4.2656890327061232
  5.7054830303451247  2.8483159565869651  5.6801852209203032
  7.1112745484900550  4.2633954556910503  7.1038287333247565
  5.6825759772422879  2.8394855602875952  8.5327294400149984
  7.1129836651090903  4.2723833823705446  9.9341566751324741
  5.6899238334561453  5.6810900596602973 -0.0029096669775107
  7.1104613720459149  7.1048519521584543  1.4141133153634862
  5.7053484880477328  5.6802373167091922  2.8481321207492227
  7.1113024149878070  7.1038564563932640  4.2633955024661132
  5.6959089655201058  5.6787903457835300  5.6788332636801524
  7.1133480771916648  7.1017826404252631  7.1017828907616716
  5.6982502032091169  5.7017948120865443  8.5170881724091707
  7.1069717721239334  7.1080164661300573  9.9557012392847017
  5.6546306671883393  8.5602406073469357  0.0020398200623175
  7.1115104791018258  9.9504676918598101  1.4207945346980331
  5.6824015283875298  8.5325550847341791  2.8394856741235857
  7.1129143909266750  9.9339784215345883  4.2725052396023484
  5.6980432290631793  8.5168810026382236  5.7017947684668515
  7.1071146291191205  9.9557014653923641  7.1081594659968497
  5.6669038172798860  8.5482272546575544  8.5482273839953997
  7.0994502511259405  9.9548253049605488  9.9550030709608741
  8.5401239117879069 -0.0096887908296429 -0.0096028707651256
  9.9868925905725359  1.3882250868482140  1.3884745927744788
  8.5365350541989553 -0.0106828148307729  2.8319683648255944
  9.9928806318084025  1.4083539222072097  4.2224963149407833
  8.5373656372667277 -0.0042827829725075  5.6775711659235935
  9.9578736971060238  1.4129982785082160  7.1010218635513107
  8.5340409017226815 -0.0029095091113497  8.5252072179421301
  9.9655575899736029  1.4310260242152626  9.9330617724018069
  8.5367280320928369  2.8319913190670207 -0.0105813453688714
  9.9926347618591365  4.2222506057361917  1.4083539138314551
  8.5483816549466258  2.8277634882027844  2.8279288571389762
  9.9804291793745303  4.2347019827802290  4.2347019249647122
  8.5405861218974177  2.8267649377172002  5.6746867338588443
  9.9492337248115135  4.2656887574195466  7.0805673239616320
  8.5348938239518333  2.8481322951348638  8.5097828392425612
  9.9654128753212987  4.2495568956097127  9.9426576180313280
  8.5375599147046870  5.6777656522591275 -0.0042828604939418
  9.9578982850673494  7.1010943114978149  1.4129295574084333
  8.5404443332671498  5.6745450011552450  2.8267650754219087
  9.9494423043679827  7.0805670494127790  4.2658973775986597
  8.5339475362305173  5.6811838090493607  5.6811838158615018
  9.9517355940325860  7.1038285419364771  7.1038566587354044
  8.5363406281950294  5.6788330456686573  8.5192221553996390
  9.9426257807331506  7.1022164833293253  9.9339784684103805
  8.5341102158193216  8.5252206384245390 -0.0028248283844702
  9.9656811525864022  9.9329716896572400  1.4310107541386305
  8.5349458477085278  8.5096479554180124  2.8483159441777914
  9.9655740573967542  9.9426576358000265  4.2497183006421881
  8.5362978125625251  8.5192222703098803  5.6787901981793150
  9.9427477880220643  9.9341567911742743  7.1021473883304029
  8.5133362786795299  8.5170878228526892  8.5168809899125275
  9.9257858333168407  9.9227961336289425  9.9228141046957354
  2.1384776578386124  0.7045485875421692  0.7045487229954290
