Fe Mo
 1.0000000000000000
    11.3769110848687536    0.0000000000000000    0.0000000000000000
     0.0000000000000000   11.3769110852566602    0.0000000000000000
     0.0000000000000000    0.0000000000000000   11.3769110883950315
 Fe  Mo 
 126   1
Cartesian
  0.0409069393374779  0.0425880246614373  0.0426303238826527
  0.0552813016302974  0.0497387039951441  2.7889202292897419
  1.4247545720225534  1.4196492579886333  4.3082918419276721
  0.0026162340335171 -0.0014154789167655  5.6872710126080621
  1.4209697598649840  1.4232297587894900  7.1178599330319976
 -0.0110584471860263 -0.0066349029640303  8.5254528385095814
  1.3871826473198325  1.4571924329171229  9.8725035397354919
  0.0553075607410699  2.7889463997989958  0.0497386970359618
  1.4245786390517672  4.3082919841477683  1.4194732147528863
  0.0575026027047625  2.7867251098455337  2.7867250833202815
  1.4226140221262646  4.2507681003816984  4.2507585628654976
 -0.0044588833595541  2.8487459583714951  5.6895221169438219
  1.4227835086261578  4.2569277538433345  7.1111973264794486
 -0.0130094442670994  2.8572939629347549  8.5133201282768383
  1.4202744344443059  4.2540282976239583  9.9610536496004620
  0.0027483942887275  5.6872648872763021 -0.0014728220469731
  1.4209979702943585  7.1178600151970839  1.4232579532140444
 -0.0045182165754427  5.6895221137846379  2.8486866659045926
  1.4228003270787095  7.1113334701390833  4.2567229216311384
  0.0054083227902332  5.6868330887882914  5.6867162529404922
  1.4219879486394165  7.1130857006096786  7.1130783863728011
 -0.0054739972504268  5.6874489544979419  8.5277874690866593
  1.4216301066137094  7.1183468952930271  9.9622283339158919
 -0.0113922469590066  8.5253159267197631 -0.0067205906301421
  1.3870353676206764  9.8725035196937210  1.4570452643762168
 -0.0130662532684437  8.5133200792783601  2.8572373398680493
  1.4201434766426477  9.9611005031384963  4.2541263481602609
 -0.0054920885101986  8.5276901902699311  5.6874761762423107
  1.4216136782852584  9.9620686828728040  7.1182450226705720
 -0.0048968978445486  8.5298707743320783  8.5299497591093552
  1.3942339058106279  9.9450707859410112  9.9453273250811058
  4.3486353835942619  1.4570452299695111  1.4571924094604145
  2.8016398426083708  0.0426301041333952  2.8033209101170931
  4.2600852638615754  1.4239533288859108  4.2540284056076620
  2.8449333229932363 -0.0009148992427928  5.6828680148063597
  4.2589105675932517  1.4225976628865138  7.1183468518520376
  2.8411738952229588  0.0029013946109576  8.5238985953352806
  4.2758115202775162  1.4499938610233130  9.9450708931686069
  2.8015975003871127  2.8033208306860100  0.0425880695609249
  4.2600382585541645  4.2541263497164810  1.4240842022664773
  2.7944891958502822  2.7889202540360665  2.7889465097011565
  4.2474478072887472  4.2442933718575979  4.2442138616250098
  2.8457005854541699  2.8414794411547075  5.6872648303178250
  4.2655354075995620  4.2614915148623558  7.1129972706790117
  2.8509482770070838  2.8556200310105364  8.5253159638767375
  4.2539960560083774  4.2525942338803437  9.9671657428169951
  2.8451426490950809  5.6828679692966251 -0.0007055262101137
  4.2590701073639377  7.1182450426476978  1.4226142073161869
  2.8456431615579638  5.6872710779744189  2.8416114269690835
  4.2654859006189216  7.1130970341438573  4.2614322403560614
  2.8438148431644215  5.6859546963641554  5.6859627761309044
  4.2632507619153435  7.1128881699850162  7.1128464095296753
  2.8432518521940189  5.6853151134391782  8.5370493781197130
  4.2600714330648213  7.1211243573909035  9.9609641928883796
  2.8413263992477318  8.5238985695460716  0.0030539572625095
  4.2760680751665703  9.9453272675135533  1.4499939204473218
  2.8508625464470563  8.5254528463318362  2.8552862630789653
  4.2539731003187518  9.9671427025738630  4.2525941922848967
  2.8432977746627808  8.5369613651114786  5.6852413648641864
  4.2601746437885897  9.9610674018644882  7.1211244701500886
  2.8466698625057254  8.5359983836082804  8.5360196273977014
  4.2491440514262164  9.9719947482603715  9.9719947716685500
  5.6972402727172415  0.0030539354701077  0.0029014082430577
  7.1032789090444766  1.4232579634229714  1.4232297478440310
  5.6958228956977477 -0.0067205252944729  2.8556200954854822
  7.1099415422387500  1.4214441790157422  4.2569278263863106
  5.6840895779712657  0.0009756105458617  5.6853151406230840
  7.1080605680588951  1.4222398924485073  7.1130857370351261
  5.6851191984205389 -0.0024420664611213  8.5359984782489580
  7.1028939001942621  1.4226141750891117  9.9620686050998000
  5.6956859674100055  2.8552862028721564 -0.0066348278139242
  7.1098054190797582  4.2567229119420276  1.4214273627350120
  5.7078187551880450  2.8572371774040510  2.8572939549412002
  7.1185807806243426  4.2686697010145602  4.2686923807170398
  5.6933513691305562  2.8497018150967408  5.6874489748065562
  7.1147034105174480  4.2683194509622551  7.1063380344575897
  5.6911891696595820  2.8491245869235819  8.5298707960262377
  7.1080418051163399  4.2614323751521592  9.9556528863564697
  5.6841775450490948  5.6852415250419286  0.0009300904020562
  7.1080531825762172  7.1130784166644343  1.4222399262329828
  5.6934487512601839  5.6874762024524550  2.8497199459522919
  7.1148008213933265  7.1064355131735510  4.2683194850103696
  5.6766106679926525  5.6813162811138138  5.6812282957459388
  7.1141408972143676  7.1069978937543858  7.1069977889460967
  5.6865563147127958  5.6838756315255923  8.5345527782164083
  7.1082506632398683  7.1128465826017875  9.9578879675029359
  5.6851403663080218  8.5360194527980351 -0.0024420728679985
  7.1027920844746291  9.9622282392118002  1.4225976759425480
  5.6912681468448483  8.5299497745005990  2.8491246998382733
  7.1081416457117657  9.9556033747744141  4.2614914410003264
  5.6865860520550298  8.5345825174117849  5.6838757477162005
  7.1082924395464273  9.9578881339152332  7.1128882294440601
  5.6816937515823929  8.5394451084535312  8.5394451023708715
  7.1000143291669868  9.9609641948534886  9.9610674597496889
  8.5382708119037538 -0.0007054538121773 -0.0009149061894055
  9.9128467939236398  1.4194732447863170  1.4196492079378360
  8.5338739006658777 -0.0014728013658762  2.8414792580309038
  9.9703802861588251  1.4216137778997335  4.2507681088356302
  8.5351762319684372  0.0004128326042509  5.6859544929450205
  9.9644159299961998  1.4214273874967092  7.1113334567250730
  8.5358974798852589  0.0009299748503846  8.5369614112028032
  9.9670125817987554  1.4240843202194073  9.9611005440558156
  8.5338677026710972  2.8416114974068489 -0.0014155385746250
  9.9703707786496807  4.2507585422877643  1.4216136967825634
  8.5316166900711661  2.8486865099196361  2.8487460027629106
  9.9733670483190942  4.2477719248051136  4.2477716861962840
  8.5344227552749405  2.8388194355395706  5.6868331830989867
  9.9524691948992210  4.2686923600822420  7.1025581892530933
  8.5336627874892699  2.8497198947801849  8.5276903496266385
  9.9768456255616140  4.2442138426489793  9.9736910977432114
  8.5351843600162169  5.6859627202602772  0.0004128630521885
  9.9642111284213364  7.1111973662291295  1.4214443582620242
  8.5343058302775106  5.6867162035169514  2.8388194178655293
  9.9524464922277005  7.1025581610838469  4.2686699259356669
  8.5409099496011525  5.6802289602901386  5.6802289111314836
  9.9528193587136009  7.1063380804012217  7.1064355984791838
  8.5398225755568085  5.6812283181308612  8.5445281703178111
  9.9596474148373098  7.1129972908133992  9.9556034585236475
  8.5358239992904092  8.5370493944278767  0.0009758894626063
  9.9671106023401759  9.9610536187611327  1.4239534807933656
  8.5336899036760574  8.5277873807713398  2.8497018638962790
  9.9769249451709108  9.9736911309102734  4.2442932013113914
  8.5399105697263309  8.5445281597539342  5.6813163460673932
  9.9597064990622375  9.9556528292639523  7.1130968444967593
  8.5372633002802516  8.5345527831083547  8.5345825561247786
  9.9685445656761651  9.9671658443140103  9.9671428208349084
  2.7683028653566746  0.0759247531794654  0.0759248337520891
