Fe Re
 1.0000000000000000
    11.3823382595682698    0.0000000000000000    0.0000000000000000
     0.0000000000000000   11.4144863002051302    0.0000000000000000
     0.0000000000000000    0.0000000000000000   11.3823382606173116
 Fe  Re 
 126   1
Cartesian
  0.0539048931875855  0.0039146826080243  0.0000873130490370
  1.4681631390286032  1.4993037733814232  1.3778701720363224
  0.0338801544940920  0.0158766725235427  2.8118410508097207
  1.4329809821695974  1.4198099712943766  4.2613233548981730
  0.0074555429533270  0.0084220288694750  5.6912255614012439
  1.4330619753454759  1.4196502937850790  7.1212276889234074
  0.0337436318480564  0.0158765930592028  8.5706340102290284
  1.4677143102250920  1.4993037454931137 10.0049163278497417
 -0.0298309386902496  2.8546831457919759 -0.0001608008120785
  1.4732912616279117  4.2372320003294854  1.3721783032140493
  0.0101672100103787  2.8574147883713512  2.8354185928256319
  1.4155555462890048  4.2843410756780198  4.2678691822202461
  0.0098445327451377  2.8515827990669216  5.6912472246248047
  1.4156220453282500  4.2843219207598713  7.1144557576152074
  0.0101660152887500  2.8574147166555321  8.5469208515522084
  1.4734064749606308  4.2372318532649658 10.0100449027926324
  0.0090355274382055  5.7026719293128370 -0.0000519662932641
  1.4198621883917033  7.1460657105794763  1.4258210709944630
  0.0107456256573610  5.6961573892646360  2.8348182469871421
  1.4138963608533115  7.1337702137676819  4.2752282948384446
  0.0002696397635996  5.6989908005231218  5.6911736217277413
  1.4138837822297206  7.1337458707741890  7.1069524998473739
  0.0107662563739226  5.6961575612369773  8.5474995365362254
  1.4197635393167325  7.1460654401341639  9.9566159990022793
  0.0057596700982222  8.5637860003239119  0.0000027401676033
  1.3925616662120985  9.9328788261715957  1.4530596695290243
 -0.0053166332040561  8.5574063592864764  2.8508528134492868
  1.4291420791632443  9.9933691965601614  4.2597621120021918
 -0.0018934156607723  8.5656941719634929  5.6911044425163215
  1.4291779132756408  9.9932069618659405  7.1225543531681010
 -0.0052683659023840  8.5574064008496968  8.5314370191258639
  1.3925248082245665  9.9328789040069303  9.9293156652248680
  4.2234547180444570  1.4993035366443357  1.3774218055610783
  2.8456719202750422  0.0039149471644949  2.7916796993923416
  4.2581068756853400  1.4196502379544953  4.2611106917796686
  2.8455844167899458  0.0037471991394180  5.6911689903731837
  4.2581881138186013  1.4198099070452814  7.1210150884524612
  2.8454971983111910  0.0039149831773220  8.5906586147616366
  4.2230062517774867  1.4993036851163659 10.0044680339264644
  4.2177626851194372  4.2372321163682205  1.3722932736413214
  2.8454234947909858  2.8546830612530973  2.8754154707344779
  4.2755468629458635  4.2843220006028773  4.2678824474031227
  2.8455844223936615  2.8583305881372163  5.6911691185639954
  4.2756136843212689  4.2843413071588525  7.1144686836841418
  2.8457453161215267  2.8546830232579956  8.5069228931364158
  4.2178776169433103  4.2372320684752873 10.0101600617794944
  2.8455846805267773  5.7597364633912695 -0.0000002653663225
  4.2714057729137567  7.1460657271424664  1.4257222094137696
  2.8455327648357178  5.7026716029923508  2.8365488131223948
  4.2772852202982223  7.1337459073967988  4.2753855502393412
  2.8455844431104431  5.6990711987195448  5.6911691537357685
  4.2772727360087393  7.1337701071397452  7.1071096509800826
  2.8456364547694117  5.7026716493812879  8.5457895992965103
  4.2713068876927034  7.1460654085258533  9.9565171292539194
  2.8455842167956593  8.5931668733950044 -0.0000001314279730
  4.2986442681857602  9.9328789544287872  1.4530228744285265
  2.8455873563951659  8.5637861881788151  2.8398248845863456
  4.2619909995311316  9.9932070679096778  4.2597840028623004
  2.8455845641834325  8.5637729209518501  5.6911689655401965
  4.2620272469450233  9.9933691891831575  7.1225761041305038
  2.8455820049973162  8.5637859919766655  8.5425132566674584
  4.2986074302040640  9.9328788248661866  9.9292785859184747
  5.6372641809169917  0.0039147807885085 -0.0000873582206044
  7.1069079165295541  1.4198098662729652  1.4126035982829603
  5.6574256429290726  0.0158767058483448  2.8117040520695307
  7.1119139851920776  1.4332893672024289  4.2664521487644755
  5.6837135072774752  0.0084220303538918  5.6911127383274467
  7.1120366352906794  1.4332892960610881  7.1160087139531090
  5.6572888524214999  0.0158766444378964  8.5704972934772137
  7.1066951570073167  1.4196501796822212  9.9698156411687329
  5.7210001311624747  2.8546829839906063  0.0001608023853264
  7.1134540445614416  4.2843411778786580  1.4300291142228978
  5.6810031612737282  2.8574147880314893  2.8354176430845146
  7.1125214959850691  4.2741705456773591  4.2669351806587619
  5.6813245959614100  2.8515830927364090  5.6910910235267185
  7.1125196752108408  4.2741704832909218  7.1154012265126116
  5.6810020788392404  2.8574147375275616  8.5469197086043902
  7.1134670827930151  4.2843220394784955  9.9523759035999380
  5.6821333946053887  5.7026716080722641  0.0000517935243347
  7.1208129940797527  7.1337702769912044  1.4316882220454183
  5.6804026132223564  5.6961576489839345  2.8348390226084130
  7.1147250517791107  7.1258854247686045  4.2691406701596311
  5.6908995287657289  5.6989908359720882  5.6911645648913876
  7.1147254207584600  7.1258854260745172  7.1131976048803409
  5.6804233802787651  5.6961574100539627  8.5475199520453113
  7.1209702613835644  7.1337458353068959  9.9506376420847840
  5.6854093982965059  8.5637860560434742 -0.0000026361311220
  7.1053467090934221  9.9933693680942302  1.4164424956859942
  5.6964373215634749  8.5574064209483556  2.8509010188127815
  7.1051197239207298  9.9987741925956950  4.2594758021228962
  5.6930625592651678  8.5656943349968664  5.6912337472884298
  7.1050601932061284  9.9987742505687240  7.1228031847785767
  5.6964855219810691  8.5574065127165913  8.5314854976846348
  7.1053685536407736  9.9932069026674100  9.9659317775341716
  8.5367537438765471  0.0037473454462116  0.0000000387114028
  9.9668120229149419  1.4196502753460691  1.4125223195766263
  8.5368101078147589  0.0084219128648923  2.8381290147082225
  9.9614708313845881  1.4332893748799180  4.2663294558205900
  8.5367536197579366  0.0049814456106631  5.6911690416322624
  9.9615932344059583  1.4332893274301641  7.1158862491298489
  8.5366971263595897  0.0084220593446961  8.5442093812786659
  9.9665994101571389  1.4198098726014503  9.9697346246080603
  8.5367536041848453  2.8583305647531758 -0.0000001797436967
  9.9600402073199259  4.2843220209586006  1.4299623327965576
  8.5368318316176968  2.8515831168875607  2.8357397084449940
  9.9609879254266360  4.2741704389386337  4.2669367757846244
  8.5367537020135149  2.8508022949224334  5.6911691446802459
  9.9609859835590999  4.2741705191455939  7.1154032249828063
  8.5366755901721003  2.8515830600408401  8.5465984094312208
  9.9600534448985343  4.2843413514973019  9.9523090972019066
  8.5367537090963648  5.6990711473187821  0.0000000496851156
  9.9525371807731382  7.1337458568398775  1.4317006557053271
  8.5367583542083221  5.6989909029376848  2.8453150495015338
  9.9587819520014218  7.1258855636490654  4.2691406370388121
  8.5367535833642236  5.6938094390501623  5.6911692131262184
  9.9587822751805000  7.1258856614370298  7.1131974148420225
  8.5367490593940971  5.6989907050822213  8.5370233590744906
  9.9526944032155207  7.1337702934971787  9.9506501722126082
  8.5367538276561170  8.5637729153804720  0.0000001832427881
  9.9681387984384831  9.9932069494307498  1.4164063171780936
  8.5366890543398704  8.5656942538683776  2.8474778546632229
  9.9684469999457139  9.9987739730048535  4.2595350780990540
  8.5367537685778867  8.5752588961895757  5.6911689522470574
  9.9683876598441206  9.9987743749127809  7.1228624189896479
  8.5368185309435152  8.5656942128659370  8.5348603495197590
  9.9681609398454150  9.9933691803178100  9.9658956309066618
  2.8455846060281482 -0.1156538204480475 -0.0000000248060227
