Fe V 
 1.0000000000000000
    11.3823866898591746    0.0000000000000000    0.0000000000000000
     0.0000000000000000   11.3831598433011134    0.0000000000000000
     0.0000000000000000    0.0000000000000000   11.3823866913871647
 Fe  V  
 126   2
Cartesian
  0.0225472060333151 -0.0000000404496245  0.0225470086955809
  1.4227983199088654  1.4431296659035220  1.4227983415307615
  1.4389471577307869  1.4314041775766573  4.2690067610399121
  0.0044528505662385 -0.0000043834715342  5.6732439530826975
  1.4227982480838663  1.4211139740465359  7.1139916103096343
  0.0066133134004136 -0.0000695674771086  8.5398422991370548
  1.4066494654330857  1.4314041205563210  9.9589767256596549
  0.0062738345686092  2.8399377001481376  0.0061837163579209
  1.4227982862228818  4.2603209779923938  1.4227983545005767
 -0.0045008067552739  2.8340140412316881  2.8501147571436025
  1.4225816249091281  4.2688309182832862  4.2718053666237044
 -0.0003761182477383  2.8409294171022288  5.6872861419757959
  1.4227983005176514  4.2728642645594705  7.1139916659587836
 -0.0045211767175523  2.8478692748349972  8.5310327235957413
  1.4230150644480588  4.2688309208466384  9.9561779599510647
  0.0025620090970340  5.6915800631813926  0.0025619792755161
  1.4227983778573241  7.1228388530023974  1.4227982826600485
  0.0001139666713121  5.6915798717349455  2.8454824868569846
  1.4227895599712497  7.1144129881788833  4.2716836931609148
  0.0019490163638485  5.6916107204684891  5.6906121724171363
  1.4227984869226953  7.1102562565971663  7.1139916149808515
 -0.0016002531359392  5.6916000449959174  8.5356381827610761
  1.4228071479261395  7.1144130491737299  9.9562997187348117
  0.0061836883357162  8.5432222248716503  0.0062737735089894
  1.4227984745126505  9.9400302726615113  1.4227983326573763
 -0.0045181910720199  8.5491455447592095  2.8500973803023584
  1.4388254234955162  9.9517098387018841  4.2691918257628716
 -0.0004659715544728  8.5421953946004319  5.6873145366476408
  1.4227983264692732  9.9616018840516869  7.1139916569690067
 -0.0046000806222496  8.5352424018373476  8.5310324999156695
  1.4067712362784448  9.9517097636798404  9.9587914535697060
  4.2691918621953509  1.4314500604258871  1.4388253707577801
  2.8230497129363354  0.0000000481889852  2.8230495633945623
  4.2611489139849361  1.4189775666335573  4.2611020506833510
  2.8389834948237502 -0.0000695307105091  5.6881411261960571
  4.2687969484959378  1.4202225868358653  7.1195152795578576
  2.8411437803779340 -0.0000043380843687  8.5547395316506734
  4.2811728251417103  1.4295463029641569  9.9468331362073048
  2.8500973295772658  2.8340140623762151 -0.0045180850664395
  4.2716836960441622  4.2687469402462117  1.4227896593113869
  2.8393228688573386  2.8399377567045163  2.8394129711162428
  4.2703062869658366  4.2732013111810154  4.2703928358986776
  2.8501179363929832  2.8478691810643020  5.6969505776530722
  4.2690765545711775  4.2692978714399210  7.1118008270780040
  2.8459728189811107  2.8409293405293332  8.5406972855876973
  4.2688448778050372  4.2654366669574353  9.9592816567113438
  2.8454827028240666  5.6915798456271149  0.0001139756764129
  4.2718054148466296  7.1143290292085366  1.4225815489117561
  2.8430347876184321  5.6915798893508667  2.8430346863235210
  4.2703928299370215  7.1099584023942288  4.2703062413105890
  2.8471968373194891  5.6915999832248314  5.6923450454495814
  4.2691272664156950  7.1139059462511787  7.1117386142943690
  2.8436476175871448  5.6916107446792292  8.5373712008130251
  4.2687015084256918  7.1177232949182274  9.9591385051214019
  2.8501147104152231  8.5491455963000664 -0.0045006960691957
  4.2690064761363287  9.9517557760990893  1.4389470555388200
  2.8394130869189858  8.5432222496384789  2.8393228229818788
  4.2611018847711843  9.9641823347628762  4.2611489358720762
  2.8501967366205911  8.5352423778889310  5.6969507822739480
  4.2689271842172110  9.9630714039544177  7.1195411212268116
  2.8460627077324800  8.5421955421056808  8.5406687386333306
  4.2811504681775219  9.9536135890634334  9.9468106508415648
  5.6732438015080300  0.0000046297286052  0.0044529252064453
  7.1139918038909578  1.4215580192640163  1.4227983829458772
  5.6881411820429664  0.0000695327272803  2.8389833679036824
  7.1195411758333265  1.4200882900535032  4.2689273642758874
  5.6886098458258205  0.0000000550666119  5.6886097371290729
  7.1139918408749141  1.4216351504171429  7.1139916723630892
  5.6885922509769848 -0.0000000442583669  8.5393912714613904
  7.1084422328400070  1.4200883665324360  9.9590562087797370
  5.6873146660489482  2.8409643166014535 -0.0004659044129115
  7.1139917407730966  4.2729037172952262  1.4227983862693883
  5.6969507722893358  2.8479176578502594  2.8501968854494160
  7.1117383486353143  4.2692537980229277  4.2691271451022326
  5.6902754628238164  2.8431923945194959  5.6902948349203664
  7.1139916636828602  4.2655237978560416  7.1139915296880698
  5.6947753846079925  2.8441028946288043  8.5331862929963673
  7.1162449865803321  4.2692539543260297  9.9588561679027485
  5.6906122543986433  5.6915490406459801  0.0019491609337727
  7.1139916306657716  7.1102954906848916  1.4227983715865464
  5.6923452083078381  5.6915598078127907  2.8471969280913130
  7.1118009507728974  7.1138621491583365  4.2690765274546996
  5.6887384869022730  5.6915799294558500  5.6887384830361940
  7.1139916383145012  7.1176361663297314  7.1139916362170865
  5.6920516368296425  5.6915799876159241  8.5359317742861176
  7.1161823670000208  7.1138619373932368  9.9589068146090174
  5.6872859045391699  8.5422304768176147 -0.0003762137644014
  7.1139915015783339  9.9620458215013006  1.4227982998654285
  5.6969507164845536  8.5352906425379711  2.8501179242946342
  7.1195153710146108  9.9629372268755247  4.2687969149371616
  5.6902948650990339  8.5399673317245188  5.6902753727242601
  7.1139917481820643  9.9615246802904096  7.1139917086851758
  5.6947969207798108  8.5390568259585962  8.5332078947107686
  7.1084678356480770  9.9629372180846598  9.9591863599776911
  8.5398423574334821  0.0000694876777752  0.0066132540764836
  9.9587915319202942  1.4314500808090300  1.4067713703917819
  8.5547394940982269  0.0000043607716418  2.8411439705865806
  9.9468107033423809  1.4295462048709615  4.2811501476980300
  8.5393911458469844  0.0000001580687675  5.6885921659754075
  9.9591863363321416  1.4202227361564752  7.1084679246263560
  8.5393734652343323  0.0000001223201650  8.5393734441851343
  9.9668344419968218  1.4189776244972805  9.9668815017217121
  8.5310325472570572  2.8479173654239291 -0.0046001351120402
  9.9562996943111202  4.2687468621279185  1.4228070280461245
  8.5406687631357130  2.8409642229703080  2.8460626806085880
  9.9591386591380413  4.2654367187990481  4.2687015256386234
  8.5332078146443795  2.8441029016480459  5.6947971555965378
  9.9589068510323173  4.2692978119428151  7.1161825689244749
  8.5377078480444517  2.8431924245656846  8.5376884502489059
  9.9576769949286188  4.2732014121121535  9.9575905496010186
  8.5356383496682913  5.6915597512980582 -0.0016002399128972
  9.9561779691864238  7.1143289412478810  1.4230151452655100
  8.5373711823740646  5.6915490731960903  2.8436476405526756
  9.9592819034188906  7.1177230862519671  4.2688446897228483
  8.5359318354396052  5.6915798307214018  5.6920515620333783
  9.9588561262607946  7.1139060615461771  7.1162449025368009
  8.5392449504853332  5.6915799073371698  8.5392449613402857
  9.9575906425947256  7.1099585170890105  9.9576771140366986
  8.5310327288187739  8.5352907557730830 -0.0045212184952706
  9.9589767355375809  9.9517557979041875  1.4066495119988887
  8.5406972488807398  8.5422303264532946  2.8459728966987212
  9.9468330133893641  9.9536134666898146  4.2811727564445095
  8.5331862011310484  8.5390569107328140  5.6947755742792321
  9.9590561486342342  9.9630713233504959  7.1084420749309389
  8.5376884728523468  8.5399674098485274  8.5377079828785334
  9.9668813248322152  9.9641822748415603  9.9668344031827445
  2.8510915313782439 -0.0000001411313767 -0.0054947746730528
 -0.0054949826862729 -0.0000001992402911  2.8510914954983151
