Fe Ti
 1.0000000000000000
    11.3655591695624221    0.0000000000000000    0.0000000000000000
     0.0000000000000000   11.3655591659372561    0.0000000000000000
     0.0000000000000000    0.0000000000000000   11.3655591711465664
 Fe  Ti 
 126   1
Cartesian
 -0.0475594975191778 -0.0075136068433161 -0.0077446814482141
  0.1187965458013903  0.0678472802441699  2.7225220746780985
  1.4334161355582513  1.4082003464721899  4.2854035012920102
  0.0057939611489030 -0.0080811631855342  5.6841079380780117
  1.4222961199844839  1.4192046540536554  7.0969110171749614
  0.0001872450367064 -0.0110536710985628  8.5194609894731901
  1.3945587975225544  1.4464547363620182  9.8284739960759708
  0.1188677848700223  2.7225932706161950  0.0678472040995106
  1.4331893331921999  4.2854035776501354  1.4079736863678654
  0.0772791695755150  2.7641105028758544  2.7641105701329742
  1.4308425714486246  4.2326988691887575  4.2326182375993655
  0.0034943022856061  2.8379820113216390  5.6740236366127572
  1.4245109748974196  4.2538844974329484  7.0959873784293981
 -0.0100889128941451  2.8512907245832491  8.4996689702878854
  1.4128389774912329  4.2437625295830781  9.9453526280872957
  0.0058141862940924  5.6842266092829510 -0.0081404736400000
  1.4221850501713083  7.0969109231679859  1.4190936578315936
  0.0034078297333173  5.6740236113884439  2.8378956247831000
  1.4245052354523715  7.0959772648693784  4.2539524303762830
  0.0084439405533673  5.6746619258436732  5.6746215145231460
  1.4240796958711468  7.0988213069035995  7.0989455579841545
 -0.0031791826552164  5.6781209631226757  8.5180642461576461
  1.4203343374926709  7.1016475794857614  9.9517228686253070
 -0.0001223780260463  8.5194380657913804 -0.0110473985300576
  1.3949351016480673  9.8284740223805720  1.4468309386491911
 -0.0099008969324488  8.4996688742320661  2.8514786046703842
  1.4126583986940155  9.9454496380096948  4.2440438557624569
 -0.0030368092264137  8.5180929079256487  5.6781924893038607
  1.4204025493801959  9.9517649571547135  7.1017239250611528
  0.0005465681058420  8.5228096511038203  8.5228280233529627
  1.4227628564205086  9.9860114489956260  9.9862105857046259
  4.3784749145694866  1.4468309439882396  1.4464546878582289
  2.8489034631196151 -0.0077445630498206  2.8889491633887445
  4.2615963408496480  1.4285506320583374  4.2437624146895443
  2.8474827991962552 -0.0060236321623377  5.6815382396354623
  4.2552261724635301  1.4210554418772385  7.1016476081046465
  2.8319206185034869  0.0094780955077687  8.5348281451185635
  4.2207384413337632  1.4186269343779707  9.9860114805377904
  2.8491344122213578  2.8889492904429908 -0.0075136712277983
  4.2614993226278104  4.2440438212466409  1.4287316107334620
  2.7735425268703695  2.7225220156521464  2.7225933163449643
  4.2380249842643858  4.2260895972334156  4.2259381043084217
  2.8495302519887566  2.8355755386982886  5.6842266884704591
  4.2666213907449455  4.2635355697305428  7.0978486943598487
  2.8524371099697698  2.8415121904166392  8.5194381391327045
  4.2666024058221135  4.2619131533719816  9.9404356397331473
  2.8474133320980402  5.6815382760419828 -0.0060930579232078
  4.2551840357923707  7.1017239431660837  1.4209872445789813
  2.8494710453066445  5.6841078406487249  2.8355957939872738
  4.2664036921632222  7.0978241653493308  4.2634540793387217
  2.8461785697468285  5.6755528857620066  5.6756500928116598
  4.2601377297351641  7.1029593047618889  7.1029711719682807
  2.8403522275895372  5.6810231228958425  8.5233725071725406
  4.2579766637370540  7.1066652804448767  9.9487553570596603
  2.8319117753109078  8.5348281544797473  0.0094690766054914
  4.2209374696478354  9.9862105160169268  1.4186269782942358
  2.8524434781393753  8.5194611094704928  2.8412026403135062
  4.2665133626546412  9.9403466814526862  4.2619131766592160
  2.8405388777967033  8.5232824160220613  5.6811670517668000
  4.2581936289146869  9.9489722145813921  7.1066654280176289
  2.8373771171973403  8.5457916769921578  8.5456177836094724
  4.1848845175661129 10.0220645092321003 10.0220645562165345
  5.6721207442134469  0.0094691322693613  0.0094781539783701
  7.1100379625618864  1.4190937062896691  1.4192047891510409
  5.6875109183958550 -0.0110472697554000  2.8415121138649209
  7.1109615122756136  1.4168787834899426  4.2538844405558445
  5.6835764431054603  0.0010375025974782  5.6810228926986968
  7.1080034106925485  1.4173101590830071  7.0988212936188582
  5.6613311491301097  0.0040126145418721  8.5457917484686643
  7.1052250437129194  1.4209872219162856  9.9517648798778691
  5.6874878573272758  2.8412025216527077 -0.0110537054790339
  7.1109717357293043  4.2539523790608609  1.4168845374809815
  5.7072800688420120  2.8514786909740875  2.8512907517975004
  7.1146568649629414  4.2571246197400647  4.2569198398637829
  5.6888847936245837  2.8445689978307760  5.6781209819985570
  7.1054904614008798  4.2612239374919874  7.1014029645237047
  5.6841209324799458  2.8408431524531368  8.5228096172519443
  7.1091247683248371  4.2634539848431459  9.9405453471751652
  5.6836665782350853  5.6811671659900504  0.0008510089211247
  7.1081276823186359  7.0989453876004038  1.4173102604282997
  5.6888560658208025  5.6781924791216261  2.8444265432759321
  7.1055459761169564  7.1014586452339605  4.2612239064845943
  5.6787851727492171  5.6700233594948743  5.6700213715956709
  7.1062440253903194  7.1007050190760905  7.1007050525244555
  5.6823588067820126  5.6818406207588286  8.5247948884329023
  7.1039896819033581  7.1029711775623747  9.9468113035325221
  5.6611572550836291  8.5456178240893532  0.0040126153445648
  7.1053013629885662  9.9517228933483857  1.4210556071241842
  5.6841393505356601  8.5228279183006066  2.8408431177319717
  7.1091002614072547  9.9403275735656926  4.2635355673406909
  5.6821541060256004  8.5245901526180710  5.6818406196432871
  7.1039778423831113  9.9468112136888944  7.1029593091923555
  5.6678312543274307  8.5391176941316704  8.5391177791688477
  7.1002835844293202  9.9487553458127760  9.9489722801492189
  8.5254106903961784 -0.0060929683363309 -0.0060236154479854
  9.9215455158399273  1.4079737753118144  1.4082005177077965
  8.5227223238462759 -0.0081404417746381  2.8355755902131135
  9.9743307620904123  1.4105471916981243  4.2326987062387929
  8.5312987699296166 -0.0047887667413397  5.6755528316084911
  9.9529965494678070  1.4168845117031008  7.0959772746195267
  8.5257817532458962  0.0008509714842288  8.5232824574140764
  9.9629051155320312  1.4287314382834828  9.9454496883591759
  8.5228411015542012  2.8355959140737825 -0.0080811766857926
  9.9742501457600365  4.2326181624502519  1.4105472669541874
  8.5329253224876034  2.8378954976326880  2.8379818831230690
  9.9722648502857183  4.2346842417108741  4.2346841170949032
  8.5323273800772945  2.8329457825399449  5.6746619729888055
  9.9498241940788041  4.2569198912288746  7.0922919706017318
  8.5287565008438744  2.8444266708035584  8.5180928882650431
  9.9808593237451131  4.2259381414855373  9.9689240656016249
  8.5313960430145066  5.6756500021177221 -0.0047888513545307
  9.9530645097965689  7.0959873992297178  1.4168789140218210
  8.5322869825304188  5.6746216056257426  2.8329457691843309
  9.9500291038712998  7.0922920636980420  4.2571246829127150
  8.5320108409189341  5.6749380508999741  5.6749381160312007
  9.9457249268558741  7.1014028856846920  7.1014585821859599
  8.5369256600765127  5.6700214908234354  8.5281638045977566
  9.9434133100447983  7.0978486289304525  9.9403276032247430
  8.5259260002376109  8.5233724823539010  0.0010373832266385
  9.9631865227160077  9.9453525697463760  1.4285507080232296
  8.5288279954598671  8.5180641432674893  2.8445690127769763
  9.9810108511617592  9.9689240320997605  4.2260895661583664
  8.5369276773117893  8.5281637906422691  5.6700234083258572
  9.9434949285496295  9.9405452049060337  7.0978241906274731
  8.5251082699520264  8.5247948379601208  8.5245901353966715
  9.9450358108794674  9.9404355248957774  9.9403465811696421
  2.3669918053197154  0.4743978552978390  0.4743978991387927
