Fe W 
 1.0000000000000000
    11.4036007420652155    0.0000000000000000    0.0000000000000000
     0.0000000000000000   11.4210022131936988    0.0000000000000000
     0.0000000000000000    0.0000000000000000   11.4036007442090348
 Fe  W  
 126   2
Cartesian
  0.0097044625005042 -0.0000000539540843  0.0097045482833023
  1.4254500330161808  1.5073134247527085  1.4254500314361787
  1.4536339789465709  1.4674151117370009  4.2923098023220607
  0.0062830246291736 -0.0000476011032499  5.7074417088224907
  1.4254500387791988  1.4370273131204607  7.1272505903068550
  0.0037390097381667 -0.0000830809407849  8.5567014183639714
  1.3972661137016356  1.4674152155233011  9.9621911677392436
 -0.0012894223709647  2.8679941800485560 -0.0012876455156596
  1.4254500506531502  4.2844153226127357  1.4254500445938247
 -0.0159695558226131  2.8977177300824146  2.8669259095901114
  1.4330755111735796  4.2865189129599495  4.2857656376348858
 -0.0050367382719987  2.8637522482896340  5.7074635537050034
  1.4254502033671501  4.2819220236146291  7.1272505973154718
 -0.0123001311622393  2.8633129785117992  8.5366904157403471
  1.4178245007902648  4.2865188512160861  9.9687354430524913
  0.0044154249027518  5.7105010783512213  0.0044154699751562
  1.4254499931526170  7.1365868664546932  1.4254500779787900
 -0.0076140080397484  5.7105010771371427  2.8585143560170070
  1.4332773016799740  7.1344708475517224  4.2855071274031182
 -0.0003612564464334  5.7105332471288683  5.7002782188225698
  1.4254500045633365  7.1390270475783701  7.1272503529898179
 -0.0100098428749642  5.7104997201201959  8.5441255422831830
  1.4176226663475766  7.1344708701311834  9.9689939355632706
 -0.0012874845786706  8.5530079831688504 -0.0012893392121450
  1.4254502908553921  9.9136889466602991  1.4254500632702418
 -0.0160258408479058  8.5232844637145675  2.8668696436637546
  1.4534557079580925  9.9535093676454096  4.2924859506166371
 -0.0051142421106753  8.5570775238431924  5.7074945897603113
  1.4254500171218387  9.9833653974805330  7.1272504231947709
 -0.0123799837269659  8.5575412145248375  8.5367430958502926
  1.3974444095943541  9.9535093380212505  9.9620149946540284
  4.2924858922647822  1.4674928362560502  1.4534556014169444
  2.8411957586824568 -0.0000000204119593  2.8411957943570729
  4.2765460441360474  1.4347924337425455  4.2764023244644278
  2.8471612251234255 -0.0000830805507286  5.6977995988608274
  4.2787297758451786  1.4295733109851689  7.1239735589464583
  2.8446172806201169 -0.0000475728111959  8.5470592205210778
  4.3120077916549926  1.4649890393044025  9.9426157989728772
  2.8668695843767842  2.8977179496697163 -0.0160255564874294
  4.2855069515788973  4.2865312573158594  1.4332773680938851
  2.8521896047744764  2.8679942419490869  2.8521878431947627
  4.2753819876838604  4.2803187865832806  4.2754602809354871
  2.8632001849867890  2.8633129837503772  5.7178106108325748
  4.2832836854390282  4.2839036674949602  7.1339364779415471
  2.8559369133014632  2.8637522460353857  8.5470373125866601
  4.2930478299042507  4.2903089324635495  9.9616350269720719
  2.8585143557102950  5.7105011676956572 -0.0076140692164015
  4.2857655043761902  7.1344832080725524  1.4330755467996115
  2.8464846985257615  5.7105010850299269  2.8464846485727602
  4.2754603098261095  7.1406833322869412  4.2753820207800848
  2.8609101147782705  5.7104996743350567  5.7103754869957140
  4.2833274156601364  7.1370421205786059  7.1339028147130694
  2.8512615587459038  5.7105332069559465  8.5542227514079947
  4.2928660238938372  7.1306932326745480  9.9614531429212647
  2.8669258861399105  8.5232844270433379 -0.0159692609447663
  4.2923097563445634  9.9535872157609599  1.4536339071453375
  2.8521877070201520  8.5530080626632774  2.8521895147817728
  4.2764023609648891  9.9862098390098701  4.2765460187379265
  2.8632804050966212  8.5575412079101678  5.7177578979896415
  4.2788826532915643  9.9915582383026269  7.1239878785304844
  2.8560144211050495  8.5570774247412764  8.5470063701449455
  4.3118850029800200  9.9560133562410069  9.9424931517792867
  5.7074416320296288  0.0000476189974166  0.0062830293034108
  7.1272503380670900  1.4376368983275374  1.4254502735863495
  5.6977997025285037  0.0000832290567773  2.8471611847943552
  7.1239879011892562  1.4294440915038382  4.2788825820139413
  5.6949348577783780 -0.0000000921821818  5.6949346232617488
  7.1272503326891483  1.4232020836330421  7.1272505918225137
  5.7042587920491012 -0.0000001226670789  8.5502420189413026
  7.1305131788502054  1.4294440754560425  9.9756181495976914
  5.7074944290569416  2.8639249502820854 -0.0051143444712679
  7.1272506413578043  4.2819750964181678  1.4254501046151113
  5.7177577843838856  2.8634610122638211  2.8632803860794804
  7.1339025914308625  4.2839602174698364  4.2833274070078176
  5.7067912465924087  2.8618961787619890  5.7067661343786202
  7.1272504962755461  4.2887155678162516  7.1272504219962229
  5.7192634369494186  2.8639706766134507  8.5352474003185463
  7.1205982549926974  4.2839599752747173  9.9711736182274127
  5.7002781886907714  5.7104691007826212 -0.0003611838663782
  7.1272504569339548  7.1390802396907809  1.4254501625856280
  5.7103754451397233  5.7105025605395818  2.8609101046697112
  7.1339363829399005  7.1370987140567701  4.2832834882805582
  5.6999462211539607  5.7105011742405747  5.6999462812125854
  7.1272503728709200  7.1322866718530129  7.1272505340454888
  5.7100628307024586  5.7105011935456611  8.5444382017559253
  7.1205645903790806  7.1370986487066759  9.9712173561960622
  5.7074635848880995  8.5572500170042218 -0.0050368414925637
  7.1272506053533435  9.9839749211421651  1.4254501191545226
  5.7178107031002066  8.5576891900199303  2.8632002797910818
  7.1239735207406589  9.9914288544837326  4.2787297617954128
  5.7067663307174481  8.5591058809512575  5.7067913093946041
  7.1272505377845539  9.9977999880773734  7.1272506077049140
  5.7192534376828803  8.5570315329007229  8.5352374460819220
  7.1305272664279284  9.9914290799274301  9.9757712175432101
  8.5567013678915167  0.0000831341538324  0.0037392035761320
  9.9620151487215338  1.4674928414882751  1.3974446977350461
  8.5470593330210356  0.0000476465069547  2.8446171417995716
  9.9424930200025408  1.4649888639630169  4.3118850257636048
  8.5502420462829658  0.0000000131322144  5.7042589094350467
  9.9757711126682285  1.4295733705186904  7.1305273700853951
  8.5595661985179188  0.0000001739767584  8.5595662676121336
  9.9779550731277293  1.4347922565977040  9.9780985764843813
  8.5367429556013477  2.8634611491270610 -0.0123800282117426
  9.9689939274259132  4.2865311490220970  1.4176228733088871
  8.5470062444876245  2.8639248198308689  2.8560144619131407
  9.9614532117798209  4.2903089865890633  4.2928661427989496
  8.5352374216942302  2.8639707647572008  5.7192535001192315
  9.9712174251047099  4.2839037366457351  7.1205645246066949
  8.5477096289047125  2.8618961396028531  8.5477345785931984
  9.9791189270952412  4.2803188188629360  9.9790407043247633
  8.5441255893283934  5.7105024619256950 -0.0100099601913020
  9.9687353768602929  7.1344833774519092  1.4178246409426198
  8.5542226397110088  5.7104689359295735  2.8512615356100213
  9.9616350510503899  7.1306931575172561  4.2930477994332268
  8.5444378941389232  5.7105011318793393  5.7100628357067365
  9.9711735252510092  7.1370420141206470  7.1205981305432884
  8.5545546297478001  5.7105009989697093  8.5545545793520272
  9.9790406983580855  7.1406834449854104  9.9791189788268007
  8.5366903573232236  8.5576891526650467 -0.0123000340083209
  9.9621911286402263  9.9535871731367447  1.3972661754774944
  8.5470372201719655  8.5572500499640842  2.8559368963463352
  9.9426160751217942  9.9560132780979895  4.3120076745071216
  8.5352473055545737  8.5570314462962074  5.7192635113803849
  9.9756182651524270  9.9915579621767190  7.1305130775983692
  8.5477346703277615  8.5591059208216276  8.5477096711849363
  9.9780984979336189  9.9862099216152238  9.9779551362684291
  2.8687844846226640 -0.0000002233665326 -0.0178840386884441
 -0.0178843345655159  0.0000001413734499  2.8687843334787009
