Fe Mn
 1.0000000000000000
    11.3608603193458482    0.0000000000000000    0.0000000000000000
     0.0000000000000000   11.3608603271486093    0.0000000000000000
     0.0000000000000000    0.0000000000000000   11.3608603273465185
 Fe  Mn 
 126   1
Cartesian
  0.0213588854081611  0.0144481088130962  0.0143500980214202
  1.3891456366887469  1.4510696203210152  1.4510696232213320
  0.0133320174241857 -0.0432837392761089  2.8268673032755816
  1.3684262505732796  1.4717887585668643  4.1857665807351125
  0.0010949559182709  0.0132335536218039  5.6682621253593108
  1.4246811365859764  1.4153403951958174  7.1126128977382370
  0.0094087162443521  0.0089715490192904  8.5293080005105821
  1.4427051633420742  1.3977162907507044  9.9618612567413649
  0.0133477643472628  2.8268828858806385 -0.0432834665272923
  1.3684263922493674  4.1857664346325389  1.4717887337828648
  1.3683893276931065  4.2086208114096353  4.2085737506089611
  0.0050780854548772  2.8351508593496471  5.7215137193714405
  1.4218363888434165  4.2648289039059444  7.0998113358155335
  0.0059553039614142  2.8342608585537432  8.5264114162876066
  1.4264532048516421  4.2502609821873349  9.9416484652546409
  0.0011544224441546  5.6683124864449184  0.0132710612583411
  1.4248745079303695  7.1126128923820842  1.4155339763273285
  0.0050641976286057  5.7215138786488158  2.8351371095463844
  1.4217471112159801  7.0998433786515722  4.2649817672205161
  0.0011614808739255  5.6672660168097213  5.6672768246940697
  1.4191233171004991  7.0978834913488837  7.0979798852887557
  0.0059717209958700  5.6707859913387066  8.5267322432221686
  1.4240011167583158  7.1116363409298993  9.9460574594573696
  0.0094108852369404  8.5291838527056196  0.0089836232471145
  1.4424985848210294  9.9618613532162517  1.3975101690793590
  0.0059543598875219  8.5264112736315454  2.8342596919223362
  1.4263582692989030  9.9416975658948630  4.2501471825785240
  0.0059234074662315  8.5267011901462411  5.6707818175281082
  1.4240398668980585  9.9459298659440378  7.1115838796878252
  0.0074663527198779  8.5274646675714614  8.5274894663131100
  1.4374840132545490  9.9638603997826500  9.9638105064464728
  4.2392141350450512  1.3975101633276477  1.3977163089524260
  2.8257671230175436  0.0143501051050023  2.8188564446153297
  4.2594269035635826  1.4137616870524474  4.2502609401378342
  2.8188767668975494  0.0212568924479600  5.6581126824883929
  4.2550181080365945  1.4162138064316185  7.1116361384602023
  2.8340105833514579  0.0060734305816327  8.5317406617431235
  4.2372648122586201  1.4027310556348180  9.9638604300400662
  2.8258648280943652  2.8188562827736803  0.0144480548722361
  4.2593777735780396  4.2501472805365887  1.4138567022023631
  2.8834986490829859  2.8268673907712700  2.8268827485222077
  4.2620655537774716  4.2638151971286451  4.2638304972794225
  2.8269440996148130  2.8390603907726328  5.6683122383385172
  4.2600963764285211  4.2619337673444155  7.0976716670226834
  2.8312315847467611  2.8308039823098934  8.5291839631201043
  4.2543680787799598  4.2464435018064774  9.9467403673341916
  2.8189583490827728  5.6581127369682473  0.0213381659776156
  4.2551456303339865  7.1115838938345766  1.4161752016627345
  2.8269815285738220  5.6682620471246707  2.8391201100132437
  4.2600391581787687  7.0976777323757583  4.2618541747747933
  2.8224222796907563  5.6623540423855658  5.6623366893797273
  4.2511163481807346  7.0907134903258742  7.0906584025989874
  2.8350980765936429  5.6754019532932398  8.5215631605334607
  4.2466520524719948  7.1030021646171155  9.9543386282857877
  2.8341416211565540  8.5317406797758277  0.0062046835828396
  4.2372149489806281  9.9638106740439518  1.4027309525238536
  2.8312436742986677  8.5293080485286783  2.8308060594188880
  4.2543349931059637  9.9467073013780301  4.2464435754992085
  2.8350771298798829  8.5215712856737333  5.6753977967602536
  4.2467366707489083  9.9544233751529774  7.1030022640589134
  2.8374743486692720  8.5298319611816726  8.5298043850376590
  4.2311531884935887  9.9699222029555674  9.9699222763243167
  5.6693346750441957  0.0062046742658457  0.0060734436810533
  7.0884625438581219  1.4155339422119511  1.4153404618607406
  5.6718916056974287  0.0089835769610556  2.8308038738171861
  7.1012641056154475  1.4183788966273903  4.2648286959506239
  5.6795123316577838  0.0051170377153285  5.6754020503277234
  7.1030955953198447  1.4210916205018616  7.0978835057116303
  5.6712710496056271  0.0027404788830160  8.5298321313774981
  7.0894914166162790  1.4161751753926490  9.9459297841260437
  5.6717673353881519  2.8308061355193961  0.0089715045490714
  7.1012319952970744  4.2649818302782885  1.4184678389772538
  5.6746640907229189  2.8342595806605906  2.8342606927354725
  7.0940074811294984  4.2581811880086100  4.2582827232133180
  5.6743430999435258  2.8342431984776133  5.6707860340974072
  7.0952045404071011  4.2538266299636058  7.1058672645364309
  5.6735860733716388  2.8327486639229842  8.5274645747275386
  7.1033976845204849  4.2618541379906763  9.9410363731835290
  5.6795041490675917  5.6753977641629971  0.0051380452397943
  7.1031919303859761  7.0979800687928645  1.4210917869708544
  5.6743742892390143  5.6707818492324433  2.8342918875909318
  7.0952080406494513  7.1058710202814019  4.2538268544575191
  5.6778248332661523  5.6761196220050181  5.6760960610507469
  7.1024872197518860  7.0985879787389248  7.0985880182343681
  5.6742635560212813  5.6789685911525680  8.5268074409007575
  7.1103617492271498  7.0906584281008547  9.9499592156814920
  5.6712432688521108  8.5298045257220316  0.0027406040314280
  7.0894392575125007  9.9460572186488125  1.4162137464963713
  5.6736108868160731  8.5274895613987276  2.8327487139114194
  7.1034038642138952  9.9409790319621720  4.2619338100510369
  5.6742678175203567  8.5268117632382214  5.6789685361676510
  7.1104167914427423  9.9499592478101864  7.0907137769425761
  5.6720367058684156  8.5290386194901444  8.5290387970478569
  7.0980731886964739  9.9543387534649899  9.9544234144129309
  8.5429626621581818  0.0213382386472152  0.0212569552142673
 10.0153086612972917  1.4717887940210796  1.4717886823603434
  8.5327630167785848  0.0132710873720373  2.8390606034577832
  9.9925016050902045  1.4718256543807913  4.2086207320318083
  8.5387387857797457  0.0177928216236230  5.6623540578278524
  9.9360937546514112  1.4184679326150376  7.0998434156091683
  8.5256775277479431  0.0051379636247486  8.5215713608173456
  9.9509280879271813  1.4138565948003960  9.9416976245167241
  8.5328131822569997  2.8391201792296958  0.0132335670927629
  9.9924545652716290  4.2085738318115649  1.4718256546727364
  8.4795617055165398  2.8351369905923676  2.8351509974130602
 10.0015063665346453  4.1995689993471785  4.1995690834647936
  8.5337985610594824  2.8390537425632729  5.6672659609221236
  9.9428941292753255  4.2582829289443236  7.1070679642740702
  8.5302935617021607  2.8342919060720684  8.5267012775751869
  9.9372602463110180  4.2638304643998062  9.9390099596370813
  8.5387215255544486  5.6623365777054611  0.0177926737765357
  9.9362466518797117  7.0998112733279584  1.4183787457244854
  8.5338094227558443  5.6672767953610448  2.8390536050121136
  9.9427925296921273  7.1070681242872675  4.2581811819878181
  8.5384940016247288  5.6625813036115007  5.6625814254645768
  9.9472486428994618  7.1058673319959524  7.1058711139996369
  8.5249557276870078  5.6760959887402027  8.5232504321332847
  9.9391417922173719  7.0976715502507366  9.9409790315737894
  8.5256734462719859  8.5215629884495012  0.0051172866718211
  9.9508144435823613  9.9416484005153833  1.4137618301593158
  8.5302893854499526  8.5267320954863592  2.8342432947769285
  9.9372450255947911  9.9390098790554084  4.2638151611487771
  8.5249795368249934  8.5232504467941439  5.6761195711936976
  9.9392213072741917  9.9410363184011761  7.0976778596192869
  8.5221068849304089  8.5268075688475911  8.5268117180101068
  9.9546318467720987  9.9467404410818752  9.9467071687462276
  2.8253281034240323  0.0148868033932098  0.0148869335537692
