Fe Rh
 1.0000000000000000
    11.4166979435819336    0.0000000000000000    0.0000000000000000
     0.0000000000000000   11.4179217000807807    0.0000000000000000
     0.0000000000000000    0.0000000000000000   11.4166979421610169
 Fe  Rh 
 126   2
Cartesian
  0.0048596645493460 -0.0036191692952736 -0.0000106597534922
  1.3584222562449426  1.4272403699844847  1.4957521873604394
 -0.0258228813246544 -0.0166158721050473  2.8801048234337570
  1.4170229084478563  1.4273967593616408  4.2739718636886819
 -0.0025206638859141 -0.0099069840216461  5.7083518053237228
  1.4170229065891873  1.4270835754750837  7.1427260943840309
 -0.0259303259765527 -0.0166157543483522  8.5367006784344639
  1.3584222296519068  1.4272403293888900  9.9209456750935150
  0.0048596089619617  2.8580998129171302  0.0000104444639481
  1.4131256584309280  4.2859109795852017  1.4410159876811257
 -0.0259302131275455  2.8710961060152358  2.8799972665477442
  1.4222105416961393  4.2933483092750624  4.2845017693885739
 -0.0025207221544175  2.8643873734106697  5.7083460709808405
  1.4218897509030044  4.2933548536248161  7.1323446931622820
 -0.0258228017607136  2.8710960834215977  8.5365932750136988
  1.4131585494519672  4.2859109785018950  9.9756492676343544
 -0.0022834414587223  5.7079227797108620  0.0000705200568001
  1.4293648822351479  7.1362011389849762  1.4248095464953212
 -0.0142985755887457  5.7241138017178343  2.8685578280883113
  1.4194147010268410  7.1361249468865386  4.2892891363591730
  0.0042377614443394  5.7174424135957223  5.7083854061535488
  1.4194146116496249  7.1362772291567573  7.1274088854533915
 -0.0143835772315248  5.7241138397534197  8.5482245343311458
  1.4293648964259236  7.1362011755220438  9.9918882693734599
 -0.0022834856893340  8.5644793046863157 -0.0000706008870543
  1.4131585215565716  9.9864911492186561  1.4410485499167527
 -0.0143833116720520  8.5482882587809463  2.8684732139348776
  1.4218899066485833  9.9790473786432177  4.2843533289789830
  0.0042379981488059  8.5549599518513677  5.7083124086135122
  1.4222105516936152  9.9790536703790771  7.1321962389647942
 -0.0142987450349482  8.5482882855010018  8.5481399517364043
  1.4131255757623289  9.9864910824027575  9.9756818908299394
  4.3499268799859543  1.4272404970437327  1.4957522203300553
  2.8541639214088130 -0.0036192558504630  2.8493148253156586
  4.2913260713287222  1.4270834814759303  4.2739717166674023
  2.8541744163784513  0.0036970040421328  5.7083489181566502
  4.2913261298089420  1.4273968904330019  7.1427260487782567
  2.8541849153177585 -0.0036191849409809  8.5673831149858852
  4.3499270057365305  1.4272403605443036  9.9209457116018029
  4.2951904953659703  4.2859111227413154  1.4410487269802132
  2.8541851097242077  2.8580995773024842  2.8493147639045340
  4.2864591219240378  4.2933548632177860  4.2843532759920260
  2.8541744786716094  2.8507835624152884  5.7083490456235682
  4.2861384132231439  4.2933484627683383  7.1321961367291040
  2.8541640920725428  2.8580995386803933  8.5673832168203798
  4.2952232694623840  4.2859110506571252  9.9756819313041092
  2.8541744468431385  5.6485745328273218 -0.0000000359961029
  4.2789840701597868  7.1362009904950696  1.4248095815536788
  2.8542450477431913  5.7079227470198131  2.8564582291007006
  4.2889343814350154  7.1362772208281333  4.2892891196519711
  2.8541745048558109  5.7118929640627769  5.7083488483937224
  4.2889344702443140  7.1361248860831541  7.1274089608453997
  2.8541039722150177  5.7079226302441253  8.5602399388856121
  4.2789840508512613  7.1362010601008476  9.9918883201405233
  2.8541745251185331  8.6238274701362023  0.0000001113555320
  4.2952234019506328  9.9864910726299509  1.4410160803431986
  2.8541039069259644  8.5644792699427210  2.8564579928124250
  4.2861384667409981  9.9790537005301374  4.2845017838597208
  2.8541744124733874  8.5605092066941548  5.7083488141171088
  4.2864591957727862  9.9790472966135582  7.1323447649970717
  2.8542449807193173  8.5644793950086946  8.5602399258880872
  4.2951905481588337  9.9864910965558344  9.9756491639242544
  5.7034892951669738 -0.0036193485731149  0.0000106569309295
  7.1281464684138749  1.4273968754492894  1.4371515658746541
  5.7342791850529622 -0.0166157208379172  2.8799972162419509
  7.1516406466943456  1.4272401071279039  4.2974661216577292
  5.7108696871011793 -0.0099070288063985  5.7083460118041858
  7.1516405846035758  1.4272401642688823  7.1192318269561428
  5.7341717155808247 -0.0166156196436178  8.5365931307170921
  7.1281463213599014  1.4270834024506691  9.9795463370724100
  5.7034892883311255  2.8580994717804438 -0.0000105155719927
  7.1386762468509026  4.2933483099839869  1.4319639231546075
  5.7341717172348510  2.8710960412913296  2.8801046705695454
  7.1506277623950520  4.3052354244582123  4.2963688083266067
  5.7108695894822556  2.8643873213197679  5.7083517287383021
  7.1505433173062318  4.3052354508221544  7.1202443632216088
  5.7342792430555463  2.8710960727730916  8.5367006502699265
  7.1385277945964587  4.2933547618400221  9.9844133608904819
  5.7106325810878769  5.7079227457386059 -0.0000703980576319
  7.1434635482262330  7.1361248210983330  1.4347599386371230
  5.7227324140520137  5.7241137731082725  2.8684732228338725
  7.1418929215746534  7.1362011890817891  4.2877183130544756
  5.7041111053580504  5.7174423717539886  5.7083125740309146
  7.1418928085589961  7.1362009716932482  7.1289796435920154
  5.7226476817539025  5.7241137279079455  8.5481399645104705
  7.1434634183506560  7.1362771718379783  9.9819380575837346
  5.7106324877000523  8.5644793356128162  0.0000705298736338
  7.1385278432098795  9.9790473437947593  1.4322846137423924
  5.7226477304950629  8.5482883437710182  2.8685579040491596
  7.1505432276825527  9.9671666922110269  4.2964535032480722
  5.7041110134697037  8.5549598914365070  5.7083854443819417
  7.1506278030376329  9.9671667882992576  7.1203291361724776
  5.7227322129519314  8.5482883107637164  8.5482246376170430
  7.1386763430743239  9.9790538156079798  9.9847341263821150
  8.5625234504377250  0.0036968252435903 -0.0000000699024133
  9.9969005782203428  1.4270835541869815  1.4371515695921790
  8.5625263963233404 -0.0099070824508096  2.8566953074408938
  9.9734063767667216  1.4272403569886818  4.2974660769827659
  8.5625235338062069 -0.0058046624057704  5.7083489560445519
  9.9734063206978334  1.4272401671889610  7.1192318104030861
  8.5625204895596347 -0.0099071308026507  8.5600028043161132
  9.9969005805897027  1.4273967614893650  9.9795464422816273
  8.5625234095421909  2.8507834831054972 -0.0000000189905023
  9.9865191378250291  4.2933548120983103  1.4322848389027003
  8.5625205262773143  2.8643874259735815  2.8566950581096147
  9.9745036011078305  4.3052353151466614  4.2964533171051462
  8.5625235789208798  2.8602851942597725  5.7083490450043355
  9.9744189657774331  4.3052352640805847  7.1203292506317801
  8.5625264002357522  2.8643873150005348  8.5600026663623545
  9.9863705860698353  4.2933483104610612  9.9847340563610736
  8.5625234784153932  5.7118929155122435 -0.0000001990122108
  9.9815833691210969  7.1362772845492843  1.4347599184209128
  8.5625599495860296  5.7174423327903368  2.8499366367383785
  9.9831541365166139  7.1362011265224261  4.2877181964686857
  8.5625233627326960  5.7180343557867639  5.7083489300489543
  9.9831543492319472  7.1362010082625495  7.1289796832895842
  8.5624870248427634  5.7174424631941392  8.5667612350041686
  9.9815832697312334  7.1361250689221345  9.9819380870152976
  8.5625232854080675  8.5605091961219806  0.0000001352414103
  9.9863706689566580  9.9790538616037026  1.4319639015698182
  8.5624869037239950  8.5549596488148758  2.8499365420809433
  9.9744189911479566  9.9671668137255391  4.2963687727626221
  8.5625234657051870  8.5543677630273969  5.7083488939744820
  9.9745037142354818  9.9671667284648233  7.1202446023530266
  8.5625600025727344  8.5549597140293479  8.5667613996536023
  9.9865192131781200  9.9790474211065590  9.9844133954585548
  2.8541743711698184  0.0348491189603500 -0.0000000398500495
  2.8541744423826736  2.8196310939724314 -0.0000000612291324
