Fe Ni
 1.0000000000000000
    11.3709136000174773    0.0000000000000000    0.0000000000000000
     0.0000000000000000   11.3709135972227298    0.0000000000000000
     0.0000000000000000    0.0000000000000000   11.3709135944177024
 Fe  Ni 
 126   1
Cartesian
  0.0124821093287637  0.0112333176459577  0.0112508969239889
  1.3614424225503177  1.4812859388282258  1.4812860028135668
 -0.0056193975881866 -0.0473996995234958  2.8482384873175302
  1.3675580477179419  1.4750917249060695  4.2047548903288154
 -0.0005221893362489  0.0121431284412902  5.6746398075360611
  1.4206904587747498  1.4218651235795907  7.1145949284346797
 -0.0056024059204473  0.0112249766455826  8.5250924039894187
  1.4211362085043302  1.4216856960264888  9.9485452209032932
 -0.0055101164091060  2.8483477856069399 -0.0473996602518700
  1.3676366759871943  4.2047549224892853  1.4751702161637115
  1.3635396332986944  4.2090517982147935  4.2088922145884844
  0.0021222411807408  2.8407009900269826  5.7277811134457357
  1.4213469136596359  4.2699796015356446  7.1056704030519588
 -0.0124081080068171  2.8551797114101007  8.5169133270690374
  1.4201583088793996  4.2633291697442068  9.9446036113809928
 -0.0004496101485255  5.6745801953035002  0.0122263056450838
  1.4208632795752396  7.1145949641434196  1.4220379647231494
  0.0020273607750718  5.7277810020328079  2.8406061069846622
  1.4211941209399506  7.1057121137914496  4.2700643355662917
 -0.0019625942103008  5.6716912994955733  5.6716830742156832
  1.4180835458736547  7.1009513145981416  7.1010046123361787
  0.0007836644034698  5.6751503482344914  8.5294077874640237
  1.4185539292375864  7.1107808769598595  9.9493725643077635
 -0.0055486920860416  8.5250430231255034  0.0112632476545940
  1.4210427637251855  9.9485453739002416  1.4215921579360511
 -0.0124513153905301  8.5169133293520751  2.8551366304295516
  1.4202313902997439  9.9447050028393225  4.2631155228204696
  0.0007748042355117  8.5294297618291584  5.6751179678628230
  1.4185727022058541  9.9493117291679880  7.1107887352401322
 -0.0115437257655969  8.5171802970229411  8.5171820178545090
  1.4221948424337389  9.9531050775744259  9.9530539564276559
  4.2650967931157551  1.4215922412004569  1.4216857977105046
  2.8314951119536609  0.0112509259484196  2.8302462051099262
  4.2690384746763739  1.4225701052022119  4.2633290976554434
  2.8240061213134426  0.0186624802701132  5.6672298599836504
  4.2642694536746548  1.4241744926856132  7.1107807847513147
  2.8380429092301540  0.0046684506858629  8.5427949359498783
  4.2605881331737416  1.4205336650540670  9.9531050754021404
  2.8314774789729200  2.8302461665798941  0.0112333257186874
  4.2689370059854124  4.2631155254979127  1.4224970655582820
  2.8901280051804794  2.8482385048387022  2.8483477833581321
  4.2687606012454617  4.2712061711424383  4.2711676526288977
  2.8305021177777103  2.8431779984127563  5.6745800730050915
  4.2643249288987164  4.2683327444685437  7.1021846596954843
  2.8314651388692575  2.8482771245943526  8.5250429827642762
  4.2667258588108599  4.2624352700389601  9.9468442570089177
  2.8240659746771897  5.6672299559529389  0.0187222289967796
  4.2643302685780267  7.1107888073430168  1.4241558100667264
  2.8305851846882168  5.6746396110472377  2.8432505038622145
  4.2643238534637948  7.1021960829210791  4.2683003968477822
  2.8221334248421233  5.6652397670196555  5.6652113396024237
  4.2559478283989653  7.0941002461627560  7.0940528248108663
  2.8371133943885463  5.6813387413304577  8.5285689960002014
  4.2582406972167544  7.1022762313804977  9.9554146621380308
  2.8380599589209461  8.5427949120981630  0.0046855163508854
  4.2605367932987006  9.9530538971393785  1.4205335956233536
  2.8315034619972543  8.5250924767468845  2.8483308139938801
  4.2667977070627607  9.9469160808047761  4.2624353566063382
  2.8370727953707706  8.5286008392540786  5.6812988774229520
  4.2582273124821990  9.9554014102802686  7.1022762242376221
  2.8386203983350669  8.5230482877481730  8.5230554521941695
  4.2571717642733669  9.9564703789152258  9.9564702756243513
  5.6708471244165111  0.0046854431840665  0.0046684054066408
  7.0990471170351386  1.4220379228780062  1.4218651250744436
  5.6885989895233759  0.0112632391334417  2.8482771516990320
  7.1079716602520389  1.4213815372382519  4.2699795731125354
  5.6850729585578694  0.0056148945669136  5.6813386951037304
  7.1126373758432297  1.4246448706671722  7.1009512825071832
  5.6905865617464171  0.0041079091096084  8.5230482862804280
  7.1028531696522155  1.4241557532552003  9.9493117572255336
  5.6885496881719266  2.8483308245430661  0.0112248007110543
  7.1079299046637940  4.2700643194320218  1.4215342036751470
  5.6967286786325770  2.8551366035097119  2.8551796846489945
  7.1073969457959674  4.2679724231553919  4.2680930323244466
  5.6842342070208263  2.8419448613722791  5.6751503557239378
  7.1111772842248575  4.2652266168290458  7.1025050175175091
  5.6964600127045557  2.8542721789568009  8.5171803566059658
  7.1114459147658184  4.2683003842516998  9.9493180244979147
  5.6850412047622569  5.6812989148116344  0.0056555905973560
  7.1126906736584381  7.1010046928115713  1.4246447199433241
  5.6842122839483391  5.6751179428227010  2.8419535306734711
  7.1111370075918918  7.1024647258682876  4.2652266255978502
  5.6877287796899729  5.6803721968220504  5.6803694449612552
  7.1194450684302506  7.0941969348061216  7.0941970559176415
  5.6857327714081496  5.6846807860164468  8.5278875396152412
  7.1195416704005563  7.0940528262151981  9.9576940433203021
  5.6905937407098506  8.5230554122575217  0.0041079185547061
  7.1028612015586772  9.9493725346776909  1.4241744629155462
  5.6964616633498206  8.5171819547435366  2.8542722088958752
  7.1114572654173855  9.9493169735332891  4.2683328137290593
  5.6857543176689909  8.5279092286346341  5.6846808115664373
  7.1195891130834879  9.9576941680588256  7.0941002456412141
  5.6981982562431375  8.5154436997122041  8.5154436531963533
  7.1113656397182501  9.9554147259217274  9.9554013304522257
  8.5464119864148884  0.0187222039849330  0.0186625052784757
 10.0088871928203389  1.4751702340950001  1.4750917524202025
  8.5390617907396482  0.0122262887253189  2.8431779715188017
 10.0047496456216098  1.4791887939744577  4.2090518172955607
  8.5484306758808408  0.0205949189555909  5.6652396819482318
  9.9435776999861218  1.4215342616276021  7.1057122172225204
  8.5323431468547142  0.0056555791842036  8.5286008362768353
  9.9505264884417155  1.4224970326630433  9.9447049926411477
  8.5390023004301963  2.8432505307970768  0.0121430902439862
 10.0045900941767076  4.2088923901070476  1.4791887075369941
  8.4858609558192768  2.8406061288135747  2.8407010362206035
 10.0063904529966372  4.2072513896396879  4.2072513792061423
  8.5419589824140996  2.8446909704420462  5.6716912176034251
  9.9456696033702539  4.2680930196957503  7.1062450440921863
  8.5385240782562342  2.8419535432364413  8.5294297849581273
  9.9424358856292105  4.2711676713530746  9.9448813590264269
  8.5484022734596756  5.6652113591209829  0.0205948598109667
  9.9436623410968963  7.1056703927708469  1.4213814819569290
  8.5419507162002049  5.6716830334334958  2.8446909493105728
  9.9455488868187434  7.1062450788944922  4.2679724180782070
  8.5493149307979319  5.6643271365790406  5.6643271261360253
  9.9484154125334854  7.1025050351589378  7.1024647497637599
  8.5332698193192709  5.6803695003858525  8.5259131682452125
  9.9453092418197606  7.1021847878439859  9.9493169870619287
  8.5323033092540399  8.5285689954203381  0.0056149332119877
  9.9503128450728688  9.9446036352420659  1.4225700231092437
  8.5384917080401834  8.5294077403165680  2.8419448722422334
  9.9424743143658514  9.9448813256319806  4.2712061323588388
  8.5332725871236725  8.5259132212430639  5.6803721843911248
  9.9453416568305446  9.9493180712142752  7.1021960997627156
  8.5289611806459504  8.5278875382053450  8.5279092195944486
  9.9512066972454658  9.9468442549378739  9.9469160748287262
  2.8207483794314663  0.0219798979217559  0.0219801217618763
