Fe Ir
 1.0000000000000000
    11.3905789950802223    0.0000000000000000    0.0000000000000000
     0.0000000000000000   11.3911381355726427    0.0000000000000000
     0.0000000000000000    0.0000000000000000   11.3905931240573803
 Fe  Ir 
 126   1
Cartesian
  0.0235386450422490 -0.0049255101802312 -0.0004925646430079
  1.4076718747912951  1.4060818570206406  1.4401356043336759
 -0.0074111288315852 -0.0034290622504091  2.8550486978344476
  1.4210321628270113  1.4415283652960873  4.2620919267337110
  0.0046577960485137  0.0021406991927429  5.6944247446561684
  1.4217603307891731  1.4333256343547822  7.1209078580662055
 -0.0073261890478887  0.0020612999256081  8.5378771048439681
  1.4126149599000637  1.4465504560962914  9.9686823610072128
  0.0482824077788599  2.8960554020613323  0.0499568265624453
  0.0442982514209704  2.9201828697825483  2.8034065489558535
  1.4202069226445506  4.2809008959909054  4.3180141928061557
 -0.0051709719256808  2.8492506901403574  5.6964552040642280
  1.4180016387527576  4.2792896260126447  7.1106556121685234
 -0.0166203118106726  2.8644498815234702  8.5260971530338683
  1.4209871852877711  4.2725981161195925  9.9280538768106581
  0.0556358375434936  5.6500956264301658  0.0528167026138680
  1.4222809478381688  7.1791421402366877  1.4256181633632461
  0.0481949552453776  5.6505326529806608  2.7995557063777299
  1.4173934943509878  7.1023834885403589  4.2681194714204844
 -0.0028311890132714  5.6969814709996864  5.6961269945166704
  1.4173620702999292  7.1033623988112664  7.1106299354072657
 -0.0055675648321043  5.6957457464132792  8.5388964208918043
  1.4197739543401675  7.1118638072302129  9.9770102436440595
 -0.0104367807217908  8.5455239038673074 -0.0017838868338921
  1.4080129226413125  9.9527521456734576  1.4395284260954899
 -0.0230540532887078  8.5288228543225504  2.8706694798656631
  1.4181489829674916  9.9622915568768917  4.2619755319071215
 -0.0064190896492283  8.5373427255162735  5.6955428448737964
  1.4181240103393200  9.9640425685065139  7.1192715479456501
 -0.0197391780593811  8.5238822010772068  8.5229359531210598
  1.4045893090659065  9.9489571553622280  9.9517608377571012
  4.2698930487374076  1.4464469479307644  1.4348426451485634
  2.8481339599982487 -0.0049078627855814  2.8237851410765984
  4.2588112618395240  1.4448027349596066  4.2575337229942347
  2.8453107263511805  0.0002991277669761  5.6916818676641912
  4.2685045082990660  1.4302693922643461  7.1220179350440009
  2.8456715181700178 -0.0046618810406826  8.5724443302892972
  4.2711160409130846  1.4510872021494134  9.9669321207357484
  2.7953118838641657  2.8681473857796358  0.0523163728456209
  4.3099830248147821  4.2727134629700450  1.4269337108591371
  2.7974431661575987  2.8962644860139819  2.7994236119495977
  4.2617541201358087  4.2786769013052846  4.2654948284001204
  2.8495272648914818  2.8417767357284363  5.6955267806891889
  4.2669201268993389  4.2787475098745329  7.1128817996488127
  2.8481813380583567  2.8487410454955895  8.5377951676027113
  4.2599664968151787  4.2726429978386005  9.9785444794417213
  2.7924315197364891  5.6442526694585249  0.0552503175316638
  4.2613622407025131  7.1120159121821374  1.4275891399420972
  2.7949181192742047  5.6502252470808889  2.7922027101011002
  4.2609118732690092  7.0950945777508210  4.2613681535741534
  2.8497720000412046  5.6971281646659913  5.6960183777074622
  4.2733934715534652  7.1064192472244248  7.1125506939302410
  2.8469391187757882  5.6978878239281761  8.5440191282602616
  4.2561671992708323  7.1017818446666849  9.9819145915808516
  2.8490050028108853  8.5806146571951913 -0.0014107200548426
  4.2864577089736837  9.9489325481663204  1.4429702871376464
  2.8493870678091286  8.5455805328042818  2.8581888271326417
  4.2739175804154170  9.9655912498192265  4.2658365336597761
  2.8474013890451446  8.5470960247317649  5.6949282244665884
  4.2745583903904834  9.9641639809959450  7.1170997838930399
  2.8469510617197198  8.5377835979081009  8.5364501917919320
  4.2868323848964121  9.9507756953913287  9.9513662571661943
  5.6657892784685480 -0.0047301777960177  0.0018840205655215
  7.1173554790349884  1.4336264008420823  1.4256215256947249
  5.7003455023937342  0.0020731959819319  2.8549396300867023
  7.1265110605755160  1.4369138436922437  4.2742512663931338
  5.6857501508023267  0.0088347266195494  5.6893165377558024
  7.1279133111130957  1.4360147359451847  7.1103988459689802
  5.6988448481600278  0.0076976793156899  8.5394466292540319
  7.1161892148233168  1.4300211255453927  9.9693828277012546
  5.7004318057707355  2.8486769967998473 -0.0004000971083978
  7.1276621577848243  4.2791505398627292  1.4296765624185681
  5.7119750959759967  2.8645356047148383  2.8644358444823381
  7.1228523635855039  4.2767262191761670  4.2676200179281283
  5.6969409208638293  2.8544610419723582  5.6960371751062491
  7.1250213479835649  4.2780962556841704  7.1132179293747795
  5.7111754657361740  2.8683672510641673  8.5271130423635242
  7.1253224898090517  4.2788067199039794  9.9712701365103538
  5.6942601239725237  5.6977288586295751  0.0006070606252632
  7.1274766230481044  7.1032385030381731  1.4302536333479234
  5.6992894207365561  5.6959421916392028  2.8531833499757036
  7.1259872666382638  7.1053027778670002  4.2751731050000323
  5.6928005761983353  5.6922520518946245  5.6929403985525147
  7.1275127607892372  7.1059408591843738  7.1107460045567263
  5.6990803473645579  5.6929575109327315  8.5391614390591197
  7.1258498039895395  7.1064619138369789  9.9648560068170884
  5.7018592345318924  8.5377245757255036  0.0006928915455301
  7.1189924857590565  9.9642776973825562  1.4297063634057514
  5.7152906653305759  8.5239364864947742  2.8673129989862574
  7.1287294881314711  9.9628950720532536  4.2786221302895235
  5.6941703738194214  8.5306031924686572  5.6884291053700755
  7.1292647296158638  9.9605078869452033  7.1089017488730564
  5.7086442244594702  8.5162039454135670  8.5296549141085780
  7.1212059464378745  9.9639065924000505  9.9639251022669146
  8.5465155471177230  0.0004108220595731  0.0023156025085276
  9.9760883989749232  1.4414235268224560  1.4267811926751277
  8.5437633610535464  0.0021094560077681  2.8429792045510625
  9.9752569445771595  1.4509252697537931  4.2628579395924282
  8.5501355495854554  0.0115253037101824  5.6880602622290066
  9.9640293522520391  1.4369107722984680  7.1116034267192356
  8.5489290306518448  0.0088301961139926  8.5524588982266359
  9.9806758744704531  1.4450558786684675  9.9796104576916633
  8.5427109120733959  2.8418670329739455 -0.0020353192840850
  9.9204070250406957  4.2808249253769395  1.4274908340604020
  8.5416523582723567  2.8492015781851294  2.8527592253710252
  9.9769093249809568  4.2756459790872254  4.2613285945956516
  8.5447864758781069  2.8524492519223474  5.6933326529400814
  9.9706334188938346  4.2766898253318804  7.1153157246089052
  8.5422262847940278  2.8544613436706552  8.5411965091776256
  9.9727997425431933  4.2785047140978163  9.9764681440416556
  8.5422918585279906  5.6970900625763727 -0.0020401350992114
  9.9700983739015427  7.1024004254495097  1.4301763751780878
  8.5420957940542870  5.6968586645091515  2.8505433177451405
  9.9757854190760931  7.0940565021274278  4.2623965324879762
  8.5463795910512594  5.6883668980104112  5.6918945652712285
  9.9630597543785022  7.1053100074276205  7.1122599753254248
  8.5453396356218363  5.6921980553632858  8.5454684817226827
  9.9770453992831616  7.0949071756533053  9.9773590677082193
  8.5433973383501378  8.5470725661005673  0.0002690112848170
  9.9762110037710876  9.9620620495793304  1.4293076014393420
  8.5425886924172723  8.5372498050554828  2.8540203723722413
  9.9613641392055285  9.9640592354555029  4.2768989936621891
  8.5505081489117671  8.5336258342386593  5.6877131652594963
  9.9594999906268811  9.9628763634133026  7.1095638196377688
  8.5498632973580868  8.5305734180866555  8.5440713427826989
  9.9723799795383581  9.9657396737169588  9.9641534150509017
  2.8477519498796027 -0.0145503779755135 -0.0000528478789808
