Fe Ag
 1.0000000000000000
    11.4315459945308522    0.0000000000000000    0.0000000000000000
     0.0000000000000000   11.4350205827424425    0.0000000000000000
     0.0000000000000000    0.0000000000000000   11.4315459887383550
 Fe  Ag 
 126   2
Cartesian
  0.0004313807790095 -0.0000000938894990  0.0004314201837218
  1.4289433786812538  1.5201275878332752  1.4289430501151708
  1.4646499999408598  1.4745768293667705  4.3260752965516813
 -0.0084759523273823  0.0000023441635450  5.7053353775863176
  1.4289432260945767  1.4438118418612607  7.1447162183122996
 -0.0332249365562797 -0.0000029725955031  8.5426560882108102
  1.3932365042056787  1.4745765397134174  9.9633571487683916
 -0.0315452790131197  2.9334916792053010 -0.0316269463011343
  1.4289431332312319  4.3050182914545134  1.4289432475162502
 -0.0247481816309672  2.8919087413089564  2.8824379316189930
  1.4294982680598518  4.3000810180645326  4.3063824333026224
 -0.0114048904153603  2.8950012695675387  5.7406952927826040
  1.4289432849185713  4.3108783372091510  7.1447162066086793
 -0.0284592743854296  2.8971308880449627  8.5506404466780825
  1.4283882295935924  4.3000811215890415  9.9830499880534287
 -0.0166138591001913  5.7175102358341015 -0.0166140745119861
  1.4289432830593924  7.1300024010941394  1.4289431372613328
 -0.0134650431624589  5.7175102452507289  2.8713513751524582
  1.4295177613412533  7.1348560831548120  4.3064442422485518
  0.0010696077679571  5.7174890300544021  5.7258792588814220
  1.4289432779177436  7.1240765025589257  7.1447162548745276
 -0.0059760367498934  5.7174851421439152  8.5680705457638631
  1.4283686911257067  7.1348559144549313  9.9829882780810735
 -0.0316268092512730  8.5015290782456159 -0.0315451715791263
  1.4289432622146103  9.9148927541441498  1.4289431493811813
 -0.0245512880647147  8.5431118946548974  2.8826344810653493
  1.4647479158312287  9.9603054628346968  4.3260410529550244
 -0.0112491119312056  8.5400160470394795  5.7407384189041819
  1.4289434454632870  9.9909247864083390  7.1447159197423602
 -0.0284683181829278  8.5378495700622370  8.5507186786785621
  1.3931385876666491  9.9603057108366606  9.9633912112125920
  4.3260413670906255  1.4747148139285791  1.4647478886102696
  2.8574551435963342 -0.0000000111525577  2.8574550784326656
  4.2976666526211966  1.4473951068320883  4.2976427195666336
  2.8911115945522354 -0.0000029620188452  5.7467765704045535
  4.3055651186762010  1.4461131384708135  7.1607975647666260
  2.8663624768641855  0.0000023424153143  8.5840972280583614
  4.3349057867729170  1.4679620731905714  9.9547991865190735
  2.8826345087786169  2.8919086296922494 -0.0245513661418199
  4.3064443688705243  4.3001646254468007  1.4295177884626162
  2.8894315923593719  2.9334915738962679  2.8895134092808994
  4.3153620383043458  4.3186545761497692  4.3153229633228642
  2.8863458287590000  2.8971307733444802  5.7387921858276698
  4.3064876222526349  4.3137140564079761  7.1420446963390960
  2.8692913566243918  2.8950012496100066  8.5487371659047007
  4.3117961814622969  4.2980924568083534  9.9776550203625440
  2.8713512676247555  5.7175104267101649 -0.0134649352236551
  4.3063823100794707  7.1349395292804392  1.4294982984855207
  2.8745003576490031  5.7175103364887274  2.8745003097239641
  4.3153227185495826  7.1163661766051680  4.3153621654668290
  2.8638626804855174  5.7174854202493677  5.7213622200780323
  4.3064871692190767  7.1213223278887607  7.1420668880995590
  2.8568167697850413  5.7174890675787333  8.5635531487989986
  4.3117772594826755  7.1369281638429358  9.9776365731680343
  2.8824380587883955  8.5431118769812890 -0.0247481022797295
  4.3260751868868841  9.9604439271108518  1.4646498198839160
  2.8895132719814725  8.5015289243543535  2.8894320529919209
  4.2976427534428359  9.9876256219969939  4.2976668326053957
  2.8863547631398405  8.5378497926724748  5.7387138810842595
  4.3056216979231374  9.9887970129884120  7.1607024338507035
  2.8691356479985246  8.5400159282813384  8.5486941333125674
  4.3346333640239552  9.9670586331542790  9.9545268166770331
  5.7053352530861430 -0.0000024268479634 -0.0084759824110353
  7.1447163472930413  1.4440958205544492  1.4289431366027581
  5.7467764460419835  0.0000030000073419  2.8911114912457236
  7.1607026292347085  1.4462236916238040  4.3056216192062911
  5.7258990660273685  0.0000000104848285  5.7258989756758369
  7.1447160403499188  1.4432435598803410  7.1447162459335321
  5.7407353058866750  0.0000001201045853  8.5486972063027657
  7.1287298264951531  1.4462237769392481  9.9838106881574031
  5.7407385618162383  2.8950045398179047 -0.0112492334372640
  7.1447163631064878  4.3109440707562410  1.4289431821148251
  5.7387137729922797  2.8971706067074461  2.8863549868815830
  7.1420668742892230  4.3136982908540160  4.3064870450270760
  5.7242497242171204  2.8723549830232407  5.7243053623037525
  7.1447163255894344  4.3124707090953427  7.1447161648926629
  5.7430119886452333  2.8814558467987990  8.5463711453219435
  7.1473656173571509  4.3136986878198531  9.9829453375566555
  5.7258792239432941  5.7175315599455594  0.0010698465982367
  7.1447162329688325  7.1241424892702296  1.4289432843237420
  5.7213620951031290  5.7175352563979631  2.8638625984604045
  7.1420446968187425  7.1213065909959417  4.3064877505348598
  5.7190048135741325  5.7175104957992176  5.7190049196724724
  7.1447163541914769  7.1225501022511368  7.1447162832275337
  5.7234703852015416  5.7175102056630243  8.5659620890653017
  7.1473878240478843  7.1213066438689925  9.9829447521293737
  5.7406953025204395  8.5400192399898902 -0.0114048993528186
  7.1447163831817200  9.9912088201228197  1.4289431215097612
  5.7387923795467843  8.5378894550846613  2.8863457886366208
  7.1607975031819846  9.9889075922130868  4.3055651652283320
  5.7243053698820319  8.5626658589271702  5.7242498093200505
  7.1447162618864661  9.9917770691820671  7.1447163113356842
  5.7430614477374125  8.5535646551243136  8.5464202952764499
  7.1286350506290406  9.9889073331839668  9.9838670017725075
  8.5426559129289075  0.0000028194228697 -0.0332249241034253
  9.9633911152034482  1.4747149481316051  1.3931386183767311
  8.5840970898854554 -0.0000025080451983  2.8663624026399970
  9.9545268621728180  1.4679621572254424  4.3346334283088801
  8.5486973872273886 -0.0000001275835242  5.7407350896058951
  9.9838673080597289  1.4461130879127517  7.1286350001448984
  8.5635333885954754 -0.0000000757220107  8.5635337253326220
  9.9917658146894386  1.4473952032166730  9.9917897650464020
  8.5507187122154420  2.8971708543448771 -0.0284684569324473
  9.9829882057223607  4.3001646892088248  1.4283688376815160
  8.5486939292424733  2.8950046026324676  2.8691356348711858
  9.9776363797290681  4.2980925744277672  4.3117772546062030
  8.5464204693424701  2.8814559189085998  5.7430613580714747
  9.9829447592216667  4.3137141420953871  7.1473877670254167
  8.5651826366976351  2.8723546901866177  8.5651269751672086
  9.9740703514153708  4.3186544844603834  9.9741095728717060
  8.5680703959283608  5.7175353867771816 -0.0059759942955131
  9.9830498924053153  7.1349393991726258  1.4283881529854312
  8.5635532298161472  5.7175314784854878  2.8568168722111476
  9.9776550429606878  7.1369282148542252  4.3117960501363530
  8.5659621230143603  5.7175101856126025  5.7234705184395285
  9.9829449863476167  7.1213222827722165  7.1473656908188783
  8.5704276636514063  5.7175103612869602  8.5704274947187642
  9.9741097817595428  7.1163660354603273  9.9740701222776327
  8.5506401266097232  8.5378897620764729 -0.0284591578015515
  9.9633570363583779  9.9604437538958432  1.3932363625905460
  8.5487371725093144  8.5400193299790370  2.8692914788767672
  9.9547988698448453  9.9670584129465745  4.3349059931702669
  8.5463712933352642  8.5535647896246783  5.7430121107631118
  9.9838106997046836  9.9887968178921920  7.1287298559846937
  8.5651272498835720  8.5626657981093359  8.5651826771102169
  9.9917899498808431  9.9876256251687465  9.9917658183717766
  2.8890184037116180 -0.0000002829928219 -0.0311317436269742
 -0.0311318882980451  0.0000000239835083  2.8890184656779132
