Fe Ni
 1.0000000000000000
    11.3822442397713690    0.0000000000000000    0.0000000000000000
     0.0000000000000000   11.3822442397713690    0.0000000000000000
     0.0000000000000000    0.0000000000000000   11.3822442397713690
 Fe  Ni 
 126   1
Cartesian
  0.0000000000000000  0.0000000000000000  0.0000000000000000
  0.0000000000000000  0.0000000000000000  2.8455610599428423
  1.4227805299714211  1.4227805299714211  4.2683415899142636
  0.0000000000000000  0.0000000000000000  5.6911221198856836
  1.4227805299714211  1.4227805299714211  7.1139026498571054
  0.0000000000000000  0.0000000000000000  8.5366831798285272
  1.4227805299714211  1.4227805299714211  9.9594637097999481
  0.0000000000000000  2.8455610599428423  0.0000000000000000
  1.4227805299714211  4.2683415899142636  1.4227805299714211
  0.0000000000000000  2.8455610599428423  2.8455610599428423
  1.4227805299714211  4.2683415899142636  4.2683415899142636
  0.0000000000000000  2.8455610599428423  5.6911221198856836
  1.4227805299714211  4.2683415899142636  7.1139026498571054
  0.0000000000000000  2.8455610599428423  8.5366831798285272
  1.4227805299714211  4.2683415899142636  9.9594637097999481
  0.0000000000000000  5.6911221198856836  0.0000000000000000
  1.4227805299714211  7.1139026498571054  1.4227805299714211
  0.0000000000000000  5.6911221198856836  2.8455610599428423
  1.4227805299714211  7.1139026498571054  4.2683415899142636
  0.0000000000000000  5.6911221198856836  5.6911221198856836
  1.4227805299714211  7.1139026498571054  7.1139026498571054
  0.0000000000000000  5.6911221198856836  8.5366831798285272
  1.4227805299714211  7.1139026498571054  9.9594637097999481
  0.0000000000000000  8.5366831798285272  0.0000000000000000
  1.4227805299714211  9.9594637097999481  1.4227805299714211
  0.0000000000000000  8.5366831798285272  2.8455610599428423
  1.4227805299714211  9.9594637097999481  4.2683415899142636
  0.0000000000000000  8.5366831798285272  5.6911221198856836
  1.4227805299714211  9.9594637097999481  7.1139026498571054
  0.0000000000000000  8.5366831798285272  8.5366831798285272
  1.4227805299714211  9.9594637097999481  9.9594637097999481
  4.2683415899142636  1.4227805299714211  1.4227805299714211
  2.8455610599428423  0.0000000000000000  2.8455610599428423
  4.2683415899142636  1.4227805299714211  4.2683415899142636
  2.8455610599428423  0.0000000000000000  5.6911221198856836
  4.2683415899142636  1.4227805299714211  7.1139026498571054
  2.8455610599428423  0.0000000000000000  8.5366831798285272
  4.2683415899142636  1.4227805299714211  9.9594637097999481
  2.8455610599428423  2.8455610599428423  0.0000000000000000
  4.2683415899142636  4.2683415899142636  1.4227805299714211
  2.8455610599428423  2.8455610599428423  2.8455610599428423
  4.2683415899142636  4.2683415899142636  4.2683415899142636
  2.8455610599428423  2.8455610599428423  5.6911221198856836
  4.2683415899142636  4.2683415899142636  7.1139026498571054
  2.8455610599428423  2.8455610599428423  8.5366831798285272
  4.2683415899142636  4.2683415899142636  9.9594637097999481
  2.8455610599428423  5.6911221198856836  0.0000000000000000
  4.2683415899142636  7.1139026498571054  1.4227805299714211
  2.8455610599428423  5.6911221198856836  2.8455610599428423
  4.2683415899142636  7.1139026498571054  4.2683415899142636
  2.8455610599428423  5.6911221198856836  5.6911221198856836
  4.2683415899142636  7.1139026498571054  7.1139026498571054
  2.8455610599428423  5.6911221198856836  8.5366831798285272
  4.2683415899142636  7.1139026498571054  9.9594637097999481
  2.8455610599428423  8.5366831798285272  0.0000000000000000
  4.2683415899142636  9.9594637097999481  1.4227805299714211
  2.8455610599428423  8.5366831798285272  2.8455610599428423
  4.2683415899142636  9.9594637097999481  4.2683415899142636
  2.8455610599428423  8.5366831798285272  5.6911221198856836
  4.2683415899142636  9.9594637097999481  7.1139026498571054
  2.8455610599428423  8.5366831798285272  8.5366831798285272
  4.2683415899142636  9.9594637097999481  9.9594637097999481
  5.6911221198856836  0.0000000000000000  0.0000000000000000
  7.1139026498571054  1.4227805299714211  1.4227805299714211
  5.6911221198856836  0.0000000000000000  2.8455610599428423
  7.1139026498571054  1.4227805299714211  4.2683415899142636
  5.6911221198856836  0.0000000000000000  5.6911221198856836
  7.1139026498571054  1.4227805299714211  7.1139026498571054
  5.6911221198856836  0.0000000000000000  8.5366831798285272
  7.1139026498571054  1.4227805299714211  9.9594637097999481
  5.6911221198856836  2.8455610599428423  0.0000000000000000
  7.1139026498571054  4.2683415899142636  1.4227805299714211
  5.6911221198856836  2.8455610599428423  2.8455610599428423
  7.1139026498571054  4.2683415899142636  4.2683415899142636
  5.6911221198856836  2.8455610599428423  5.6911221198856836
  7.1139026498571054  4.2683415899142636  7.1139026498571054
  5.6911221198856836  2.8455610599428423  8.5366831798285272
  7.1139026498571054  4.2683415899142636  9.9594637097999481
  5.6911221198856836  5.6911221198856836  0.0000000000000000
  7.1139026498571054  7.1139026498571054  1.4227805299714211
  5.6911221198856836  5.6911221198856836  2.8455610599428423
  7.1139026498571054  7.1139026498571054  4.2683415899142636
  5.6911221198856836  5.6911221198856836  5.6911221198856836
  7.1139026498571054  7.1139026498571054  7.1139026498571054
  5.6911221198856836  5.6911221198856836  8.5366831798285272
  7.1139026498571054  7.1139026498571054  9.9594637097999481
  5.6911221198856836  8.5366831798285272  0.0000000000000000
  7.1139026498571054  9.9594637097999481  1.4227805299714211
  5.6911221198856836  8.5366831798285272  2.8455610599428423
  7.1139026498571054  9.9594637097999481  4.2683415899142636
  5.6911221198856836  8.5366831798285272  5.6911221198856836
  7.1139026498571054  9.9594637097999481  7.1139026498571054
  5.6911221198856836  8.5366831798285272  8.5366831798285272
  7.1139026498571054  9.9594637097999481  9.9594637097999481
  8.5366831798285272  0.0000000000000000  0.0000000000000000
  9.9594637097999481  1.4227805299714211  1.4227805299714211
  8.5366831798285272  0.0000000000000000  2.8455610599428423
  9.9594637097999481  1.4227805299714211  4.2683415899142636
  8.5366831798285272  0.0000000000000000  5.6911221198856836
  9.9594637097999481  1.4227805299714211  7.1139026498571054
  8.5366831798285272  0.0000000000000000  8.5366831798285272
  9.9594637097999481  1.4227805299714211  9.9594637097999481
  8.5366831798285272  2.8455610599428423  0.0000000000000000
  9.9594637097999481  4.2683415899142636  1.4227805299714211
  8.5366831798285272  2.8455610599428423  2.8455610599428423
  9.9594637097999481  4.2683415899142636  4.2683415899142636
  8.5366831798285272  2.8455610599428423  5.6911221198856836
  9.9594637097999481  4.2683415899142636  7.1139026498571054
  8.5366831798285272  2.8455610599428423  8.5366831798285272
  9.9594637097999481  4.2683415899142636  9.9594637097999481
  8.5366831798285272  5.6911221198856836  0.0000000000000000
  9.9594637097999481  7.1139026498571054  1.4227805299714211
  8.5366831798285272  5.6911221198856836  2.8455610599428423
  9.9594637097999481  7.1139026498571054  4.2683415899142636
  8.5366831798285272  5.6911221198856836  5.6911221198856836
  9.9594637097999481  7.1139026498571054  7.1139026498571054
  8.5366831798285272  5.6911221198856836  8.5366831798285272
  9.9594637097999481  7.1139026498571054  9.9594637097999481
  8.5366831798285272  8.5366831798285272  0.0000000000000000
  9.9594637097999481  9.9594637097999481  1.4227805299714211
  8.5366831798285272  8.5366831798285272  2.8455610599428423
  9.9594637097999481  9.9594637097999481  4.2683415899142636
  8.5366831798285272  8.5366831798285272  5.6911221198856836
  9.9594637097999481  9.9594637097999481  7.1139026498571054
  8.5366831798285272  8.5366831798285272  8.5366831798285272
  9.9594637097999481  9.9594637097999481  9.9594637097999481
  2.8455610599428423  0.0000000000000000  0.0000000000000000
