Fe C 
 1.0000000000000000
    11.3437756768382165    0.0000000000000000    0.0000000000000000
     0.0000000000000000   11.3437773062766745    0.0000000000000000
     0.0000000000000000    0.0000000000000000   11.3682949402324684
 Fe  C  
 127   1
Cartesian
  0.0670787271926817  0.0675594474139589  0.0417130082171169
  0.0320657625282303  0.0304647215139605  2.8278553230361707
  1.4179714724591896  1.4179730637887256  4.2900555933933404
 -0.0053858315517976 -0.0047267971151331  5.6783185672703240
  1.4179715868888805  1.4179721517858273  7.0727692231350874
 -0.0126230691159314 -0.0119201946457662  8.5018245516886513
  1.4179715625084668  1.4179704318721635  9.7375312348160730
  0.0680783080700358  2.7684211689893550  0.0404977492740204
  1.4178005646657519  4.2819713152100967  1.4314757806007263
  0.0314422721049844  2.8029416184446179  2.8280138002128057
  1.4167588161495690  4.2479877617503776  4.2558019798200535
 -0.0047686541606333  2.8411774412623716  5.6782570046268104
  1.4187131026025852  4.2597485395091059  7.0965848106816098
 -0.0121280623731595  2.8488016579615101  8.5020025167558373
  1.4189587608901391  4.2484021173395909  9.9435154086102546
  0.0024081172024376  5.6670215028479110 -0.0000553276003816
  1.4179715380412801  7.0898599884137754  1.4213475999838729
 -0.0014380364620741  5.6719674985578523  2.8438140762831812
  1.4179723974051566  7.0898620825030276  4.2639769194434631
 -0.0011347598395208  5.6740430264025257  5.6799932936182191
  1.4179718646630570  7.0898619971491028  7.1024082403403463
 -0.0020618107375438  5.6732578203601189  8.5246053291538324
  1.4179610197079644  7.0898612260422569  9.9475636482238787
  0.0011416637977016  8.5134880955876060  0.0000051965989328
  1.4181446565518210  9.8977513738381653  1.4314880646099111
 -0.0011277800761366  8.5087297889953835  2.8438710812250019
  1.4191849998827635  9.9317371561616596  4.2558025150525172
 -0.0012147282467153  8.5061081350370848  5.6802521801472112
  1.4172320946329584  9.9199749712011034  7.0965982353381998
 -0.0025109531190036  8.5064895779905694  8.5250100210652029
  1.4169969440206327  9.9313150191799853  9.9435941623051054
  2.7678830932312879  0.0675310246340240  0.0405109645789936
  4.2819111167682067  1.4182597581757419  1.4315185805616064
  2.8044996497855936  0.0330035810784256  2.8280104092436371
  4.2480072879599335  1.4193724953828422  4.2557744957573984
  2.8407131416753426 -0.0052282938146075  5.6782567861316577
  4.2597448283935559  1.4172137742360007  7.0965923547738523
  2.8480595743123329 -0.0128702974431075  8.5020160860605465
  4.2483338056652755  1.4171723221385384  9.9436607664004963
  2.7688503602400139  2.7683915486248480  0.0417044383686626
  4.2387624961457151  4.2378554227442402  1.4204642245413075
  2.8038792163703405  2.8054803543307405  2.8278593704911543
  4.2548553524351131  4.2543483225912295  4.2610358218341302
  2.8413295397887914  2.8406737908518891  5.6783201401711016
  4.2611768099840113  4.2607590396602895  7.1008529016395574
  2.8485825370258189  2.8478479112640414  8.5018111791620736
  4.2409956293847761  4.2402046224644501  9.9589164325930017
  2.8347848461499092  5.6662200982785951 -0.0000122043275230
  4.2523565059681596  7.0890456580497077  1.4208704064945965
  2.8370716227188701  5.6709949323750353  2.8438723002771580
  4.2576248244524262  7.0896244592151287  4.2624857766246649
  2.8371591449324534  5.6736134818726311  5.6802521934122803
  4.2556416820694167  7.0897523093699464  7.1047222000914534
  2.8384683416577339  5.6732561567560573  8.5249966945401479
  4.2524170069123208  7.0898529295590524  9.9501801793509266
  2.8335506711563032  8.5126723898664380 -0.0000426923606238
  4.2373470147447083  9.9413787259811226  1.4204404149375121
  2.8373822829234587  8.5077572075601644  2.8438120222114716
  4.2541607985233902  9.9249312098467097  4.2608445882207722
  2.8370780614444309  8.5056816271725353  5.6799904799056327
  4.2606787769801242  9.9185578982294462  7.1008674942456826
  2.8379895513959577  8.5064758036188586  8.5246179457618592
  4.2402124201949274  9.9386860568108268  9.9590252422327339
  5.6660939351649278  0.0012876462116968  0.0002680746420991
  7.0898593515013708  1.4179699858348283  1.4213572089788926
  5.6707116831614206 -0.0010030841625945  2.8439426370131362
  7.0898599529687534  1.4179737555860563  4.2642771219771447
  5.6734921887220482 -0.0011526284222304  5.6802026085891617
  7.0898584439414947  1.4179747651239112  7.1022653523074757
  5.6731036693415939 -0.0024824386881690  8.5251559054924932
  7.0898597209867260  1.4179708069100456  9.9473448867641867
  5.6668492091149352  2.8335962989187298 -0.0002590988518239
  7.0908015279348584  4.2523209779400810  1.4208177387880274
  5.6722454361047125  2.8374599479870035  2.8437089075077058
  7.0902981448361189  4.2575212223321675  4.2621667355444819
  5.6740765403405593  2.8373895624576555  5.6799668827318515
  7.0900252122906195  4.2555593165506354  7.1047441276000063
  5.6731447627514404  2.8379635779677401  8.5244352289126759
  7.0898225193727571  4.2522426315937434  9.9502193172408671
  5.6672781548442233  5.6668942808460336  0.0035281348479612
  7.0898605782453528  7.0898609715822545  1.4196585249780964
  5.6705562584006470  5.6702062146834402  2.8385525522740318
  7.0898596922014780  7.0898618567115657  4.2585041098475260
  5.6743204359247317  5.6739061088489189  5.6814266914095084
  7.0898601663854306  7.0898607200857722  7.1052202811853657
  5.6727044926695394  5.6727475559757803  8.5290813964328756
  7.0898591411717282  7.0898595980782018  9.9528073235482601
  5.6669217081889460  8.5127118326422142  0.0036702191326047
  7.0889186557021455  9.9273982562773746  1.4208155287286170
  5.6700509485487824  8.5092507588100528  2.8385441976244890
  7.0894220866003304  9.9222029770435256  4.2621654664209192
  5.6738359123570019  8.5056347371169210  5.6815230643744439
  7.0896940382721754  9.9241611834705168  7.1047417707504703
  5.6728956917822213  8.5071119180956600  8.5290537998782696
  7.0898971029852644  9.9274795408675747  9.9502183083927243
  8.5128700933356107  0.0023437601065334 -0.0002632149207750
  9.8978077087328717  1.4176826339705919  1.4315166834963686
  8.5074741607603102 -0.0015171631473395  2.8437070066786099
  9.9317119663251336  1.4165744336472503  4.2557738274805059
  8.5056421180035962 -0.0014407169783029  5.6799649919034296
  9.9199723711590728  1.4187334245372321  7.0965892952473446
  8.5065733044868939 -0.0020175933551134  8.5244322434549389
  9.9313860875708304  1.4187699834768110  9.9436577953860095
  8.5136259828766683  2.8346509766639438  0.0002700009091742
  9.9423736703165861  4.2383405241768060  1.4204442839451026
  8.5090079253262196  2.8369462892887705  2.8439437154616694
  9.9255587130119824  4.2547945811159016  4.2608487904235721
  8.5062264037950470  2.8371045599795046  5.6802039359720968
  9.9190417484117308  4.2611637982512001  7.1008722230620096
  8.5066169305487058  2.8384298120572549  8.5251642802278251
  9.9395110806314317  4.2410329280391270  9.9590349222409156
  8.5127983440960868  5.6670069279399264  0.0036733247921716
  9.9273637271000190  7.0906751608603438  1.4208714861716352
  8.5096693933517997  5.6704730319204835  2.8385457325831989
  9.9220948540445058  7.0900995185874720  4.2624870747661916
  8.5058841781339094  5.6740890261591552  5.6815252572378201
  9.9240772813323144  7.0899705404072710  7.1047260639888830
  8.5068243467358968  5.6726076873568729  8.5290511827290683
  9.9272991551029719  7.0898666382599824  9.9501831979285633
  8.5124407400751849  8.5128267979852446  0.0035263133875084
  9.9409560069850205  9.9418673145987935  1.4204609374502311
  8.5091639511007191  8.5095178611638058  2.8385517384101053
  9.9248642639824602  9.9253742472971496  4.2610331064442653
  8.5053995604919788  8.5058154168857953  5.6814268789894573
  9.9185435147939991  9.9189643453375034  7.1008497949526239
  8.5070144846592388  8.5069729463751305  8.5290799510906190
  9.9387244135737376  9.9395146752310133  9.9589071693219271
  1.4179729224215889  1.4179643007910590  0.2715757490907148
