Fe C 
 1.0000000000000000
    11.3549940568804306    0.0000000000000000    0.0000000000000000
     0.0000000000000000   11.3549927151260253    0.0000000000000000
     0.0000000000000000    0.0000000000000000   11.4240741397353496
 Fe  C  
 128   1
Cartesian
  0.0240486167468548  0.0240375085668385  0.0007340421067232
  1.4193743095737699  1.4193738128603184  1.7675559610174760
 -0.0279594894287048 -0.0290927567375617  2.9139273741318936
  1.4193740534263459  1.4193739496806330  4.3440008981309237
 -0.0164893265917534 -0.0164592699813342  5.7122600448715000
  1.4193743291972976  1.4193740225267251  7.0800736639559219
 -0.0289363549317554 -0.0277923967891623  8.5103842189922130
  1.4193742771580238  1.4193739865544144  9.6565166408500271
  0.0240487485055069  2.8147099418913162 -0.0007328546544309
  1.4190171567630143  4.2657486952185852  1.4532337085512961
 -0.0289363204601397  2.8665406905897877  2.9136899731539412
  1.4192326311274206  4.2753454362336942  4.3006770980894995
 -0.0164897889237945  2.8552065617929121  5.7118143282211804
  1.4195160191352336  4.2753448052361120  7.1233968946030037
 -0.0279595598148171  2.8678408516202079  8.5101466947437761
  1.4197315430831432  4.2657485261588288  9.9708397264096398
  0.0042175267025765  5.6727911774299207  0.0009054975883917
  1.4193741529202495  7.0968705683545901  1.4308286989150343
 -0.0069091736824989  5.6856314179875076  2.8629994319496972
  1.4193743386384490  7.0968709914178376  4.2865976062230766
 -0.0081903804004935  5.6894549947467086  5.7117191644466256
  1.4193739739345927  7.0968704593940197  7.1374760572974481
 -0.0066962031521088  5.6843872139922818  8.5611069534104001
  1.4193743690210912  7.0968702767215444  9.9932458224801035
  0.0042173656341218  8.5209493388258544 -0.0009046657030369
  1.4197320621620517  9.9279924638090886  1.4532331072391647
 -0.0066964041995335  8.5093525713588907  2.8629673954146977
  1.4195165234329223  9.9183952652077529  4.3006767127150729
 -0.0081914586185012  8.5042860646228799  5.7123550119295698
  1.4192329421433907  9.9183956370914768  7.1233968380493353
 -0.0069086458789261  8.5081101787547553  8.5610747287742797
  1.4190170023414379  9.9279927043427776  9.9708398885194516
  2.8147001262383071  0.0240376607368399 -0.0007333909313750
  4.2657372810602183  1.4196449664728608  1.4532542938434823
  2.8676849896242511 -0.0277927805726340  2.9136896294027022
  4.2753840208721394  1.4195712714039737  4.3006843634579806
  2.8552374614536080 -0.0164588090880508  5.7118140961879504
  4.2753846256819221  1.4191772952218324  7.1233891027540110
  2.8667081896878863 -0.0290916048177998  8.5101467353830405
  4.2657378200828084  1.4191030185581748  9.9708189587652267
  2.8147000229726076  2.8147101053092425  0.0007336673825610
  4.2541705954326527  4.2537307675373839  1.4290460930343740
  2.8667081820615321  2.8678404041676031  2.9139270269540809
  4.2765848185699413  4.2759268312464336  4.2943413121427199
  2.8552380643296424  2.8552064017197192  5.7122596701229540
  4.2759187184426963  4.2765553353179024  7.1298540373809827
  2.8676848688800400  2.8665409766149752  8.5103847294657200
  4.2536332432495447  4.2541002858759178  9.9951832714747635
  2.8345313959124647  5.6727911339959638 -0.0009052095049510
  4.2581015102735336  7.0960048359913133  1.4258085111215648
  2.8454445212451489  5.6843877059890033  2.8629672149350536
  4.2665967997812659  7.0965145800772103  4.2833339638103540
  2.8469390448218070  5.6894546479823678  5.7123553708882042
  4.2665973780646960  7.0972263661087371  7.1407408393336098
  2.8456571621896725  5.6856307581557246  8.5610739099412267
  4.2581015509822855  7.0977361042976010  9.9982658316944875
  2.8345311474011128  8.5209498774752976  0.0009055240753333
  4.2536329999136564  9.9396406593630235  1.4288908902121498
  2.8456573657786941  8.5081099275748375  2.8629997889460150
  4.2759187974239934  9.9171861693850154  4.2942200683790546
  2.8469396266727109  8.5042860045866373  5.7117192465394444
  4.2765848122755257  9.9178145716212676  7.1297328915005966
  2.8454446157853082  8.5093531810937613  8.5611073871867358
  4.2541701616126932  9.9400103535505302  9.9950282294444790
  5.6726668253317740  0.0042385459736112 -0.0007471052039124
  7.0968711290036355  1.4193736185005923  1.4307910100996362
  5.6843172728669868 -0.0066685985284299  2.8629502799168711
  7.0968712197640080  1.4193736634827496  4.2866134467697066
  5.6895843521685734 -0.0081967681457354  5.7123508806218801
  7.0968715063777932  1.4193735629655830  7.1374596373928227
  5.6857262182679547 -0.0069698783369182  8.5610912218481143
  7.0968714599304477  1.4193738137039547  9.9932828571634023
  5.6726668498687269  2.8345093301079016  0.0007471284527281
  7.0977307573465307  4.2580846153023995  1.4257363316929632
  5.6857263572438281  2.8457180578510575  2.8629829074052346
  7.0972474888445767  4.2666309930739112  4.2833129290039791
  5.6895843203368974  2.8469447343005871  5.7117232263220785
  7.0964952810204842  4.2666304279897949  7.1407615541138929
  5.6843174323298316  2.8454168425852258  8.5611230841250645
  7.0960121891399348  4.2580844399615723  9.9983378017902851
  5.6752628137124290  5.6752062592754386  0.0000554985733508
  7.0968709646795869  7.0968707734414362  1.4228212968031742
  5.6816554332673972  5.6810068320311284  2.8514042832313491
  7.0968720451552967  7.0968708644041145  4.2787556321001095
  5.6870825339591109  5.6871942454430435  5.7121100084770333
  7.0968709018401679  7.0968704035720647  7.1453197580022643
  5.6810370122498419  5.6816589075416610  8.5727513503748138
  7.0968714986852506  7.0968704589580938 10.0012532372908787
  5.6752622067323850  8.5185349905872521 -0.0000553379346242
  7.0960125097390678  9.9356567953186676  1.4257366063928139
  5.6810366124554603  8.5120829244706187  2.8513231062928104
  7.0964939978296275  9.9271096383686679  4.2833117802910330
  5.6870826694578751  8.5065469691532467  5.7119642821557903
  7.0972472210799644  9.9271100776093384  7.1407617886745429
  5.6816552700347840  8.5127337755645733  8.5726698462724560
  7.0977304721609258  9.9356567098694555  9.9983377582512780
  8.5210757428257562  0.0042379979945542  0.0007467221424745
  9.9280053612117189  1.4191034752342251  1.4532542797585699
  8.5080163872881851 -0.0069701677845398  2.8629829553669364
  9.9183581650807309  1.4191770573132845  4.3006851467823068
  8.5041581646329654 -0.0081966495855529  5.7117231426645629
  9.9183574176728069  1.4195711716513337  7.1233891468942980
  8.5094251196967292 -0.0066686096405864  8.5611237251729513
  9.9280046176377148  1.4196451753609711  9.9708192085459295
  8.5210761273118631  2.8345095430827776 -0.0007476680513510
  9.9401088482333062  4.2541005779127063  1.4288908596498813
  8.5094263585650953  2.8454169939309830  2.8629502380414760
  9.9178238873800080  4.2765549805958649  4.2942191478613809
  8.5041580104865684  2.8469441220208846  5.7123505966170933
  9.9171575724763805  4.2759265315228081  7.1297327343328316
  8.5080165805471726  2.8457182798797542  8.5610918216536387
  9.9395715991430098  4.2537305233078886  9.9950278839724191
  8.5184800618643948  5.6752063310415561 -0.0000551026846253
  9.9356405072744653  7.0977370283362964  1.4258086309431284
  8.5127054971614200  5.6816584308409572  2.8513228273528868
  9.9271449731136716  7.0972266895969547  4.2833339186454396
  8.5066602381729020  5.6871947378856094  5.7119636591102196
  9.9271453769289000  7.0965149082161094  7.1407402802825262
  8.5120863892930760  5.6810073298812993  8.5726704559105045
  9.9356398853650667  7.0960050066470819  9.9982657811306392
  8.5184805776917045  8.5185345891687216  0.0000542752768807
  9.9395718568341476  9.9400102076000785  1.4290457784344641
  8.5120869477846082  8.5127342844016951  2.8514045580997300
  9.9171576710700986  9.9178144030374771  4.2943413681180678
  8.5066607081356587  8.5065463895162416  5.7121103738189625
  9.9178240750920192  9.9171855555498887  7.1298546371956144
  8.5127061716492189  8.5120831336046674  8.5727517060760992
  9.9401094771048477  9.9396400100901534  9.9951834239195687
  1.4193743667976324  1.4193739035125468  0.0000013909102446
