Fe
 1.0000000000000000
    11.6755647324335303    0.0000000000000000    0.0000000000000000
     0.0000000000000000   10.0806539866632328    0.0000000000000000
     0.0000000000000000    0.0000000000000000   11.6755538879819891
 Fe 
 128
Cartesian
 -0.1984141190462895  0.0036209315937142 -0.2677181391102040
  1.1917243687617851  1.2564600981151157  1.2610252582552952
  0.2677199079761873 -0.0036213141332424  3.1173052045995333
  1.6578632701609177  1.2637027797955724  4.6460524747117304
 -0.1984152650030028  0.0036208264521676  5.5700581945469159
  1.1917259477591378  1.2564601523281504  7.0988042633530988
  0.2677210157447221 -0.0036214920201237  8.9550823126100383
  1.6578626533482803  1.2637027454389023 10.4838303876992640
 -0.1984133234787797  2.5237851248381791 -0.2677165485381959
  1.1917232510950442  3.7766240461444962  1.2610245369204185
  0.2677185410412268  2.5165422768622050  3.1173048383867270
  1.6578621624664709  3.7838672819274315  4.6460520843092619
 -0.1984179616801337  2.5237852664264464  5.5700568520105369
  1.1917244186619247  3.7766242342598053  7.0988039753676491
  0.2677182646589587  2.5165421635944756  8.9550798927307476
  1.6578627880316930  3.7838668294783857 10.4838307186603608
 -0.1984150499585071  5.0439486416372326 -0.2677176514464307
  1.1917262645047424  6.2967864538980498  1.2610286186022825
  0.2677207378216089  5.0367059047724085  3.1173053696883342
  1.6578605453470463  6.3040297353777000  4.6460510290927894
 -0.1984125439370139  5.0439483819368203  5.5700601219885355
  1.1917260435954029  6.2967865718500446  7.0988045223420384
  0.2677198153009113  5.0367057998136087  8.9550805992357798
  1.6578600347721730  6.3040297866660637 10.4838274343026026
 -0.1984182473083691  7.5641118123659092 -0.2677214682511017
  1.1917267271278322  8.8169515433388916  1.2610289069767906
  0.2677202646950707  7.5568692871286762  3.1173057044482189
  1.6578614539623822  8.8241938862839433  4.6460516636361096
 -0.1984167693698795  7.5641116958585641  5.5700567695045855
  1.1917254056162956  8.8169510840511052  7.0988034088327954
  0.2677219621504786  7.5568690605782738  8.9550852301887236
  1.6578599873609567  8.8241941605365426 10.4838271852536913
  3.1866096081397575 -0.0036214474841412  0.1984144264024716
  4.5767533856047891  1.2637033847782748  1.7271652196285543
  2.7204744313781735  0.0036213691212195  2.6511696033430039
  4.1106158641982846  1.2564606092456503  4.1799151423926819
  3.1866088780827497 -0.0036213262589471  6.0361903021869523
  4.5767542462272299  1.2637038010399215  7.5649422154060053
  2.7204744654031119  0.0036214308774789  8.4889475384373849
  4.1106173277290381  1.2564608152338030 10.0176943183716460
  3.1866098326820813  2.5165417864276036  0.1984127755443907
  4.5767547791647862  3.7838663872270484  1.7271645651324710
  2.7204776311551666  2.5237845561219188  2.6511721982877492
  4.1106166546008174  3.7766232995559355  4.1799163084833362
  3.1866109108933340  2.5165424810255321  6.0361922326451269
  4.5767553427380845  3.7838666030581138  7.5649417393206049
  2.7204750467826013  2.5237846534529296  8.4889467766568352
  4.1106179054080467  3.7766232252762943 10.0176953028186091
  3.1866093928971830  5.0367054279751091  0.1984141991377629
  4.5767536234499850  6.3040300250838532  1.7271635229993991
  2.7204740481543914  5.0439488009856781  2.6511701680588335
  4.1106179447921329  6.2967877893251547  4.1799174043929259
  3.1866091967741603  5.0367058620697147  6.0361918771098972
  4.5767540140235843  6.3040305440923214  7.5649410664278696
  2.7204727711870476  5.0439487927593225  8.4889455079263954
  4.1106192374524291  6.2967873159934129 10.0176957696988911
  3.1866129759991080  7.5568693226335020  0.1984165473251970
  4.5767529479451374  8.8241938006607974  1.7271635901241662
  2.7204736497659718  7.5641120240055200  2.6511685626137989
  4.1106185445220618  8.8169510614749100  4.1799181502862357
  3.1866124025118574  7.5568690040693776  6.0361935469133492
  4.5767539491470002  8.8241932086176682  7.5649403982985719
  2.7204735430226279  7.5641118584604019  8.4889462038264174
  4.1106188201580505  8.8169507778530569 10.0176952936644632
  5.6393645758703981  0.0036211914603053 -0.2677207478214316
  7.0295090957358850  1.2564598587723590  1.2610282619715256
  6.1055022041133098 -0.0036216453971440  3.1173053176110330
  7.4956433545217669  1.2637026586095061  4.6460512579906430
  5.6393666654487715  0.0036211744744990  5.5700569087719725
  7.0295089917223565  1.2564601001882041  7.0988053677506766
  6.1055019967298341 -0.0036215718630389  8.9550827246818674
  7.4956463364097745  1.2637030176726738 10.4838292800789148
  5.6393632541765539  2.5237850505228590 -0.2677211769907506
  7.0295065724614636  3.7766243021042096  1.2610259712199048
  6.1055014715320697  2.5165416903182165  3.1173059164541845
  7.4956444677547154  3.7838669177609314  4.6460521239873955
  5.6393644586642564  2.5237847545905585  5.5700557864499860
  7.0295085490465308  3.7766243574062841  7.0988059328794266
  6.1054997111053249  2.5165421533981469  8.9550801124236816
  7.4956459369303756  3.7838666418832334 10.4838299788176847
  5.6393664587276406  5.0439482668910003 -0.2677186668889786
  7.0295075388424246  6.2967867266423143  1.2610275936968558
  6.1055009958662101  5.0367057561311803  3.1173043289517754
  7.4956448528067705  6.3040296821638941  4.6460520355371600
  5.6393664751165620  5.0439486802103035  5.5700579079336690
  7.0295092335141316  6.2967867745384565  7.0988059513302675
  6.1055005690401538  5.0367057453120463  8.9550797866155349
  7.4956432961666692  6.3040296598699612 10.4838278969918708
  5.6393621458560581  7.5641116538633169 -0.2677225414564111
  7.0295099238944729  8.8169510012240355  1.2610297019173049
  6.1055016907098079  7.5568692463687119  3.1173054951894388
  7.4956442636261240  8.8241940701088950  4.6460521609571064
  5.6393628364634685  7.5641121696581770  5.5700552786014104
  7.0295092152933725  8.8169512290931582  7.0988049834238192
  6.1055010998004189  7.5568689377325295  8.9550826713683804
  7.4956442789982329  8.8241941075140229 10.4838281964476305
  9.0243921966600436 -0.0036208724736451  0.1984174315991887
 10.4145360804293077  1.2637036152430099  1.7271633906674106
  8.5582551881288094  0.0036211903364145  2.6511677460514997
  9.9484001978369410  1.2564607228186044  4.1799159548956135
  9.0243915020688465 -0.0036211562627216  6.0361930895339881
 10.4145349635360951  1.2637036147102521  7.5649418313649015
  8.5582581938662852  0.0036215817881576  8.4889460606880878
  9.9483966061283393  1.2564609430014613 10.0176887356836470
  9.0243934486485635  2.5165420844310096  0.1984177776541332
 10.4145342508015482  3.7838666024630543  1.7271625906450463
  8.5582585834400806  2.5237845874910398  2.6511695402591635
  9.9483981183098074  3.7766236358886438  4.1799138255119255
  9.0243946424170076  2.5165420803511656  6.0361951577996642
 10.4145370802754691  3.7838663536445463  7.5649415039488810
  8.5582589998752674  2.5237846047899968  8.4889459868960113
  9.9483977558465497  3.7766235676232274 10.0176903556553061
  9.0243945858237566  5.0367055921781496  0.1984191631226459
 10.4145342872665321  6.3040294881387862  1.7271630567251381
  8.5582599005537929  5.0439485944868458  2.6511704570949042
  9.9483977959926193  6.2967874171259934  4.1799134128090172
  9.0243910276410197  5.0367056986207341  6.0361935642151696
 10.4145341680508388  6.3040299580254526  7.5649395654160747
  8.5582565266329844  5.0439488360851783  8.4889451917370593
  9.9484001816509640  6.2967876753320891 10.0176924845411044
  9.0243950123982639  7.5568693872700274  0.1984194603837866
 10.4145350249468578  8.8241932964534477  1.7271630423727802
  8.5582574288742208  7.5641116262630366  2.6511684566132852
  9.9484001051099131  8.8169504448198364  4.1799163704580407
  9.0243944875201692  7.5568690449800489  6.0361952870323803
 10.4145332652137110  8.8241930841963843  7.5649396545038794
  8.5582578982666693  7.5641120231238688  8.4889454298553790
  9.9483985362965051  8.8169509247005493 10.0176914249502378
