Fe
 1.0000000000000000
    16.5117419929724960    0.0000000000000000    0.0000000000000000
     0.0000000000000000   14.2995880266484754    0.0000000000000000
     0.0000000000000000    0.0000000000000000   56.0096147978770773
 Fe 
 320
Cartesian
  0.0000000000000000  2.3832646711080789 20.0000000000000000
  4.1279354982431240  2.3832646711080789 20.0000000000000000
  8.2558709964862480  2.3832646711080789 20.0000000000000000
 12.3838064947293720  2.3832646711080789 20.0000000000000000
  2.0639677491215620  5.9581616777701978 20.0000000000000000
  6.1919032473646860  5.9581616777701978 20.0000000000000000
 10.3198387456078109  5.9581616777701978 20.0000000000000000
 14.4477742438509331  5.9581616777701978 20.0000000000000000
  0.0000000000000000  9.5330586844323157 20.0000000000000000
  4.1279354982431240  9.5330586844323157 20.0000000000000000
  8.2558709964862480  9.5330586844323157 20.0000000000000000
 12.3838064947293720  9.5330586844323157 20.0000000000000000
  2.0639677491215620 13.1079556910944355 20.0000000000000000
  6.1919032473646860 13.1079556910944355 20.0000000000000000
 10.3198387456078109 13.1079556910944355 20.0000000000000000
 14.4477742438509331 13.1079556910944355 20.0000000000000000
  0.0000000000000000  0.0000000000000000 20.8426113051514257
  4.1279354982431240  0.0000000000000000 20.8426113051514257
  8.2558709964862480  0.0000000000000000 20.8426113051514257
 12.3838064947293720  0.0000000000000000 20.8426113051514257
  2.0639677491215620  3.5748970066621188 20.8426113051514257
  6.1919032473646860  3.5748970066621188 20.8426113051514257
 10.3198387456078109  3.5748970066621188 20.8426113051514257
 14.4477742438509331  3.5748970066621188 20.8426113051514257
  0.0000000000000000  7.1497940133242377 20.8426113051514257
  4.1279354982431240  7.1497940133242377 20.8426113051514257
  8.2558709964862480  7.1497940133242377 20.8426113051514257
 12.3838064947293720  7.1497940133242377 20.8426113051514257
  2.0639677491215620 10.7246910199863557 20.8426113051514257
  6.1919032473646860 10.7246910199863557 20.8426113051514257
 10.3198387456078109 10.7246910199863557 20.8426113051514257
 14.4477742438509331 10.7246910199863557 20.8426113051514257
  2.0639677491215620  1.1916323355540395 21.6852226103028514
  6.1919032473646860  1.1916323355540395 21.6852226103028514
 10.3198387456078109  1.1916323355540395 21.6852226103028514
 14.4477742438509331  1.1916323355540395 21.6852226103028514
  0.0000000000000000  4.7665293422161579 21.6852226103028514
  4.1279354982431240  4.7665293422161579 21.6852226103028514
  8.2558709964862480  4.7665293422161579 21.6852226103028514
 12.3838064947293720  4.7665293422161579 21.6852226103028514
  2.0639677491215620  8.3414263488782776 21.6852226103028514
  6.1919032473646860  8.3414263488782776 21.6852226103028514
 10.3198387456078109  8.3414263488782776 21.6852226103028514
 14.4477742438509331  8.3414263488782776 21.6852226103028514
  0.0000000000000000 11.9163233555403973 21.6852226103028514
  4.1279354982431240 11.9163233555403973 21.6852226103028514
  8.2558709964862480 11.9163233555403973 21.6852226103028514
 12.3838064947293720 11.9163233555403973 21.6852226103028514
  0.0000000000000000  2.3832646711080789 22.5278339154542735
  4.1279354982431240  2.3832646711080789 22.5278339154542735
  8.2558709964862480  2.3832646711080789 22.5278339154542735
 12.3838064947293720  2.3832646711080789 22.5278339154542735
  2.0639677491215620  5.9581616777701978 22.5278339154542735
  6.1919032473646860  5.9581616777701978 22.5278339154542735
 10.3198387456078109  5.9581616777701978 22.5278339154542735
 14.4477742438509331  5.9581616777701978 22.5278339154542735
  0.0000000000000000  9.5330586844323157 22.5278339154542735
  4.1279354982431240  9.5330586844323157 22.5278339154542735
  8.2558709964862480  9.5330586844323157 22.5278339154542735
 12.3838064947293720  9.5330586844323157 22.5278339154542735
  2.0639677491215620 13.1079556910944355 22.5278339154542735
  6.1919032473646860 13.1079556910944355 22.5278339154542735
 10.3198387456078109 13.1079556910944355 22.5278339154542735
 14.4477742438509331 13.1079556910944355 22.5278339154542735
  0.0000000000000000  0.0000000000000000 23.3704452206056992
  4.1279354982431240  0.0000000000000000 23.3704452206056992
  8.2558709964862480  0.0000000000000000 23.3704452206056992
 12.3838064947293720  0.0000000000000000 23.3704452206056992
  2.0639677491215620  3.5748970066621188 23.3704452206056992
  6.1919032473646860  3.5748970066621188 23.3704452206056992
 10.3198387456078109  3.5748970066621188 23.3704452206056992
 14.4477742438509331  3.5748970066621188 23.3704452206056992
  0.0000000000000000  7.1497940133242377 23.3704452206056992
  4.1279354982431240  7.1497940133242377 23.3704452206056992
  8.2558709964862480  7.1497940133242377 23.3704452206056992
 12.3838064947293720  7.1497940133242377 23.3704452206056992
  2.0639677491215620 10.7246910199863557 23.3704452206056992
  6.1919032473646860 10.7246910199863557 23.3704452206056992
 10.3198387456078109 10.7246910199863557 23.3704452206056992
 14.4477742438509331 10.7246910199863557 23.3704452206056992
  2.0639677491215620  1.1916323355540395 24.2130565257571249
  6.1919032473646860  1.1916323355540395 24.2130565257571249
 10.3198387456078109  1.1916323355540395 24.2130565257571249
 14.4477742438509331  1.1916323355540395 24.2130565257571249
  0.0000000000000000  4.7665293422161579 24.2130565257571249
  4.1279354982431240  4.7665293422161579 24.2130565257571249
  8.2558709964862480  4.7665293422161579 24.2130565257571249
 12.3838064947293720  4.7665293422161579 24.2130565257571249
  2.0639677491215620  8.3414263488782776 24.2130565257571249
  6.1919032473646860  8.3414263488782776 24.2130565257571249
 10.3198387456078109  8.3414263488782776 24.2130565257571249
 14.4477742438509331  8.3414263488782776 24.2130565257571249
  0.0000000000000000 11.9163233555403973 24.2130565257571249
  4.1279354982431240 11.9163233555403973 24.2130565257571249
  8.2558709964862480 11.9163233555403973 24.2130565257571249
 12.3838064947293720 11.9163233555403973 24.2130565257571249
  0.0000000000000000  2.3832646711080789 25.0556678309085505
  4.1279354982431240  2.3832646711080789 25.0556678309085505
  8.2558709964862480  2.3832646711080789 25.0556678309085505
 12.3838064947293720  2.3832646711080789 25.0556678309085505
  2.0639677491215620  5.9581616777701978 25.0556678309085505
  6.1919032473646860  5.9581616777701978 25.0556678309085505
 10.3198387456078109  5.9581616777701978 25.0556678309085505
 14.4477742438509331  5.9581616777701978 25.0556678309085505
  0.0000000000000000  9.5330586844323157 25.0556678309085505
  4.1279354982431240  9.5330586844323157 25.0556678309085505
  8.2558709964862480  9.5330586844323157 25.0556678309085505
 12.3838064947293720  9.5330586844323157 25.0556678309085505
  2.0639677491215620 13.1079556910944355 25.0556678309085505
  6.1919032473646860 13.1079556910944355 25.0556678309085505
 10.3198387456078109 13.1079556910944355 25.0556678309085505
 14.4477742438509331 13.1079556910944355 25.0556678309085505
  0.0000000000000000  0.0000000000000000 25.8982791360599762
  4.1279354982431240  0.0000000000000000 25.8982791360599762
  8.2558709964862480  0.0000000000000000 25.8982791360599762
 12.3838064947293720  0.0000000000000000 25.8982791360599762
  2.0639677491215620  3.5748970066621188 25.8982791360599762
  6.1919032473646860  3.5748970066621188 25.8982791360599762
 10.3198387456078109  3.5748970066621188 25.8982791360599762
 14.4477742438509331  3.5748970066621188 25.8982791360599762
  0.0000000000000000  7.1497940133242377 25.8982791360599762
  4.1279354982431240  7.1497940133242377 25.8982791360599762
  8.2558709964862480  7.1497940133242377 25.8982791360599762
 12.3838064947293720  7.1497940133242377 25.8982791360599762
  2.0639677491215620 10.7246910199863557 25.8982791360599762
  6.1919032473646860 10.7246910199863557 25.8982791360599762
 10.3198387456078109 10.7246910199863557 25.8982791360599762
 14.4477742438509331 10.7246910199863557 25.8982791360599762
  2.0639677491215620  1.1916323355540395 26.7408904412113984
  6.1919032473646860  1.1916323355540395 26.7408904412113984
 10.3198387456078109  1.1916323355540395 26.7408904412113984
 14.4477742438509331  1.1916323355540395 26.7408904412113984
  0.0000000000000000  4.7665293422161579 26.7408904412113984
  4.1279354982431240  4.7665293422161579 26.7408904412113984
  8.2558709964862480  4.7665293422161579 26.7408904412113984
 12.3838064947293720  4.7665293422161579 26.7408904412113984
  2.0639677491215620  8.3414263488782776 26.7408904412113984
  6.1919032473646860  8.3414263488782776 26.7408904412113984
 10.3198387456078109  8.3414263488782776 26.7408904412113984
 14.4477742438509331  8.3414263488782776 26.7408904412113984
  0.0000000000000000 11.9163233555403973 26.7408904412113984
  4.1279354982431240 11.9163233555403973 26.7408904412113984
  8.2558709964862480 11.9163233555403973 26.7408904412113984
 12.3838064947293720 11.9163233555403973 26.7408904412113984
  0.0000000000000000  2.3832646711080789 27.5835017463628240
  4.1279354982431240  2.3832646711080789 27.5835017463628240
  8.2558709964862480  2.3832646711080789 27.5835017463628240
 12.3838064947293720  2.3832646711080789 27.5835017463628240
  2.0639677491215620  5.9581616777701978 27.5835017463628240
  6.1919032473646860  5.9581616777701978 27.5835017463628240
 10.3198387456078109  5.9581616777701978 27.5835017463628240
 14.4477742438509331  5.9581616777701978 27.5835017463628240
  0.0000000000000000  9.5330586844323157 27.5835017463628240
  4.1279354982431240  9.5330586844323157 27.5835017463628240
  8.2558709964862480  9.5330586844323157 27.5835017463628240
 12.3838064947293720  9.5330586844323157 27.5835017463628240
  2.0639677491215620 13.1079556910944355 27.5835017463628240
  6.1919032473646860 13.1079556910944355 27.5835017463628240
 10.3198387456078109 13.1079556910944355 27.5835017463628240
 14.4477742438509331 13.1079556910944355 27.5835017463628240
  0.0000000000000000  0.0000000000000000 28.4261130515142497
  4.1279354982431240  0.0000000000000000 28.4261130515142497
  8.2558709964862480  0.0000000000000000 28.4261130515142497
 12.3838064947293720  0.0000000000000000 28.4261130515142497
  2.0639677491215620  3.5748970066621188 28.4261130515142497
  6.1919032473646860  3.5748970066621188 28.4261130515142497
 10.3198387456078109  3.5748970066621188 28.4261130515142497
 14.4477742438509331  3.5748970066621188 28.4261130515142497
  0.0000000000000000  7.1497940133242377 28.4261130515142497
  4.1279354982431240  7.1497940133242377 28.4261130515142497
  8.2558709964862480  7.1497940133242377 28.4261130515142497
 12.3838064947293720  7.1497940133242377 28.4261130515142497
  2.0639677491215620 10.7246910199863557 28.4261130515142497
  6.1919032473646860 10.7246910199863557 28.4261130515142497
 10.3198387456078109 10.7246910199863557 28.4261130515142497
 14.4477742438509331 10.7246910199863557 28.4261130515142497
  2.0639677491215620  1.1916323355540395 29.2687243566656754
  6.1919032473646860  1.1916323355540395 29.2687243566656754
 10.3198387456078109  1.1916323355540395 29.2687243566656754
 14.4477742438509331  1.1916323355540395 29.2687243566656754
  0.0000000000000000  4.7665293422161579 29.2687243566656754
  4.1279354982431240  4.7665293422161579 29.2687243566656754
  8.2558709964862480  4.7665293422161579 29.2687243566656754
 12.3838064947293720  4.7665293422161579 29.2687243566656754
  2.0639677491215620  8.3414263488782776 29.2687243566656754
  6.1919032473646860  8.3414263488782776 29.2687243566656754
 10.3198387456078109  8.3414263488782776 29.2687243566656754
 14.4477742438509331  8.3414263488782776 29.2687243566656754
  0.0000000000000000 11.9163233555403973 29.2687243566656754
  4.1279354982431240 11.9163233555403973 29.2687243566656754
  8.2558709964862480 11.9163233555403973 29.2687243566656754
 12.3838064947293720 11.9163233555403973 29.2687243566656754
  0.0000000000000000  2.3832646711080789 30.1113356618171011
  4.1279354982431240  2.3832646711080789 30.1113356618171011
  8.2558709964862480  2.3832646711080789 30.1113356618171011
 12.3838064947293720  2.3832646711080789 30.1113356618171011
  2.0639677491215620  5.9581616777701978 30.1113356618171011
  6.1919032473646860  5.9581616777701978 30.1113356618171011
 10.3198387456078109  5.9581616777701978 30.1113356618171011
 14.4477742438509331  5.9581616777701978 30.1113356618171011
  0.0000000000000000  9.5330586844323157 30.1113356618171011
  4.1279354982431240  9.5330586844323157 30.1113356618171011
  8.2558709964862480  9.5330586844323157 30.1113356618171011
 12.3838064947293720  9.5330586844323157 30.1113356618171011
  2.0639677491215620 13.1079556910944355 30.1113356618171011
  6.1919032473646860 13.1079556910944355 30.1113356618171011
 10.3198387456078109 13.1079556910944355 30.1113356618171011
 14.4477742438509331 13.1079556910944355 30.1113356618171011
  0.0000000000000000  0.0000000000000000 30.9539469669685232
  4.1279354982431240  0.0000000000000000 30.9539469669685232
  8.2558709964862480  0.0000000000000000 30.9539469669685232
 12.3838064947293720  0.0000000000000000 30.9539469669685232
  2.0639677491215620  3.5748970066621188 30.9539469669685232
  6.1919032473646860  3.5748970066621188 30.9539469669685232
 10.3198387456078109  3.5748970066621188 30.9539469669685232
 14.4477742438509331  3.5748970066621188 30.9539469669685232
  0.0000000000000000  7.1497940133242377 30.9539469669685232
  4.1279354982431240  7.1497940133242377 30.9539469669685232
  8.2558709964862480  7.1497940133242377 30.9539469669685232
 12.3838064947293720  7.1497940133242377 30.9539469669685232
  2.0639677491215620 10.7246910199863557 30.9539469669685232
  6.1919032473646860 10.7246910199863557 30.9539469669685232
 10.3198387456078109 10.7246910199863557 30.9539469669685232
 14.4477742438509331 10.7246910199863557 30.9539469669685232
  2.0639677491215620  1.1916323355540395 31.7965582721199524
  6.1919032473646860  1.1916323355540395 31.7965582721199524
 10.3198387456078109  1.1916323355540395 31.7965582721199524
 14.4477742438509331  1.1916323355540395 31.7965582721199524
  0.0000000000000000  4.7665293422161579 31.7965582721199524
  4.1279354982431240  4.7665293422161579 31.7965582721199524
  8.2558709964862480  4.7665293422161579 31.7965582721199524
 12.3838064947293720  4.7665293422161579 31.7965582721199524
  2.0639677491215620  8.3414263488782776 31.7965582721199524
  6.1919032473646860  8.3414263488782776 31.7965582721199524
 10.3198387456078109  8.3414263488782776 31.7965582721199524
 14.4477742438509331  8.3414263488782776 31.7965582721199524
  0.0000000000000000 11.9163233555403973 31.7965582721199524
  4.1279354982431240 11.9163233555403973 31.7965582721199524
  8.2558709964862480 11.9163233555403973 31.7965582721199524
 12.3838064947293720 11.9163233555403973 31.7965582721199524
  0.0000000000000000  2.3832646711080789 32.6391695772713746
  4.1279354982431240  2.3832646711080789 32.6391695772713746
  8.2558709964862480  2.3832646711080789 32.6391695772713746
 12.3838064947293720  2.3832646711080789 32.6391695772713746
  2.0639677491215620  5.9581616777701978 32.6391695772713746
  6.1919032473646860  5.9581616777701978 32.6391695772713746
 10.3198387456078109  5.9581616777701978 32.6391695772713746
 14.4477742438509331  5.9581616777701978 32.6391695772713746
  0.0000000000000000  9.5330586844323157 32.6391695772713746
  4.1279354982431240  9.5330586844323157 32.6391695772713746
  8.2558709964862480  9.5330586844323157 32.6391695772713746
 12.3838064947293720  9.5330586844323157 32.6391695772713746
  2.0639677491215620 13.1079556910944355 32.6391695772713746
  6.1919032473646860 13.1079556910944355 32.6391695772713746
 10.3198387456078109 13.1079556910944355 32.6391695772713746
 14.4477742438509331 13.1079556910944355 32.6391695772713746
  0.0000000000000000  0.0000000000000000 33.4817808824227967
  4.1279354982431240  0.0000000000000000 33.4817808824227967
  8.2558709964862480  0.0000000000000000 33.4817808824227967
 12.3838064947293720  0.0000000000000000 33.4817808824227967
  2.0639677491215620  3.5748970066621188 33.4817808824227967
  6.1919032473646860  3.5748970066621188 33.4817808824227967
 10.3198387456078109  3.5748970066621188 33.4817808824227967
 14.4477742438509331  3.5748970066621188 33.4817808824227967
  0.0000000000000000  7.1497940133242377 33.4817808824227967
  4.1279354982431240  7.1497940133242377 33.4817808824227967
  8.2558709964862480  7.1497940133242377 33.4817808824227967
 12.3838064947293720  7.1497940133242377 33.4817808824227967
  2.0639677491215620 10.7246910199863557 33.4817808824227967
  6.1919032473646860 10.7246910199863557 33.4817808824227967
 10.3198387456078109 10.7246910199863557 33.4817808824227967
 14.4477742438509331 10.7246910199863557 33.4817808824227967
  2.0639677491215620  1.1916323355540395 34.3243921875742259
  6.1919032473646860  1.1916323355540395 34.3243921875742259
 10.3198387456078109  1.1916323355540395 34.3243921875742259
 14.4477742438509331  1.1916323355540395 34.3243921875742259
  0.0000000000000000  4.7665293422161579 34.3243921875742259
  4.1279354982431240  4.7665293422161579 34.3243921875742259
  8.2558709964862480  4.7665293422161579 34.3243921875742259
 12.3838064947293720  4.7665293422161579 34.3243921875742259
  2.0639677491215620  8.3414263488782776 34.3243921875742259
  6.1919032473646860  8.3414263488782776 34.3243921875742259
 10.3198387456078109  8.3414263488782776 34.3243921875742259
 14.4477742438509331  8.3414263488782776 34.3243921875742259
  0.0000000000000000 11.9163233555403973 34.3243921875742259
  4.1279354982431240 11.9163233555403973 34.3243921875742259
  8.2558709964862480 11.9163233555403973 34.3243921875742259
 12.3838064947293720 11.9163233555403973 34.3243921875742259
  0.0000000000000000  2.3832646711080789 35.1670034927256481
  4.1279354982431240  2.3832646711080789 35.1670034927256481
  8.2558709964862480  2.3832646711080789 35.1670034927256481
 12.3838064947293720  2.3832646711080789 35.1670034927256481
  2.0639677491215620  5.9581616777701978 35.1670034927256481
  6.1919032473646860  5.9581616777701978 35.1670034927256481
 10.3198387456078109  5.9581616777701978 35.1670034927256481
 14.4477742438509331  5.9581616777701978 35.1670034927256481
  0.0000000000000000  9.5330586844323157 35.1670034927256481
  4.1279354982431240  9.5330586844323157 35.1670034927256481
  8.2558709964862480  9.5330586844323157 35.1670034927256481
 12.3838064947293720  9.5330586844323157 35.1670034927256481
  2.0639677491215620 13.1079556910944355 35.1670034927256481
  6.1919032473646860 13.1079556910944355 35.1670034927256481
 10.3198387456078109 13.1079556910944355 35.1670034927256481
 14.4477742438509331 13.1079556910944355 35.1670034927256481
  0.0000000000000000  0.0000000000000000 36.0096147978770773
  4.1279354982431240  0.0000000000000000 36.0096147978770773
  8.2558709964862480  0.0000000000000000 36.0096147978770773
 12.3838064947293720  0.0000000000000000 36.0096147978770773
  2.0639677491215620  3.5748970066621188 36.0096147978770773
  6.1919032473646860  3.5748970066621188 36.0096147978770773
 10.3198387456078109  3.5748970066621188 36.0096147978770773
 14.4477742438509331  3.5748970066621188 36.0096147978770773
  0.0000000000000000  7.1497940133242377 36.0096147978770773
  4.1279354982431240  7.1497940133242377 36.0096147978770773
  8.2558709964862480  7.1497940133242377 36.0096147978770773
 12.3838064947293720  7.1497940133242377 36.0096147978770773
  2.0639677491215620 10.7246910199863557 36.0096147978770773
  6.1919032473646860 10.7246910199863557 36.0096147978770773
 10.3198387456078109 10.7246910199863557 36.0096147978770773
 14.4477742438509331 10.7246910199863557 36.0096147978770773
