Fe
 1.0000000000000000
    11.6755647324335303    0.0000000000000000    0.0000000000000000
     0.0000000000000000   11.6755647324335303    0.0000000000000000
     0.0000000000000000    0.0000000000000000   67.7294662395296427
 Fe 
 320
Cartesian
  1.4594455915541913  1.4594455915541913 20.0000000000000036
  4.3783367746625741  1.4594455915541913 20.0000000000000036
  7.2972279577709562  1.4594455915541913 20.0000000000000036
 10.2161191408793393  1.4594455915541913 20.0000000000000036
  1.4594455915541913  4.3783367746625741 20.0000000000000036
  4.3783367746625741  4.3783367746625741 20.0000000000000036
  7.2972279577709562  4.3783367746625741 20.0000000000000036
 10.2161191408793393  4.3783367746625741 20.0000000000000036
  1.4594455915541913  7.2972279577709562 20.0000000000000036
  4.3783367746625741  7.2972279577709562 20.0000000000000036
  7.2972279577709562  7.2972279577709562 20.0000000000000036
 10.2161191408793393  7.2972279577709562 20.0000000000000036
  1.4594455915541913 10.2161191408793393 20.0000000000000036
  4.3783367746625741 10.2161191408793393 20.0000000000000036
  7.2972279577709562 10.2161191408793393 20.0000000000000036
 10.2161191408793393 10.2161191408793393 20.0000000000000036
  0.0000000000000000  0.0000000000000000 21.4594455915541964
  2.9188911831083826  0.0000000000000000 21.4594455915541964
  5.8377823662167652  0.0000000000000000 21.4594455915541964
  8.7566735493251482  0.0000000000000000 21.4594455915541964
  0.0000000000000000  2.9188911831083826 21.4594455915541964
  2.9188911831083826  2.9188911831083826 21.4594455915541964
  5.8377823662167652  2.9188911831083826 21.4594455915541964
  8.7566735493251482  2.9188911831083826 21.4594455915541964
  0.0000000000000000  5.8377823662167652 21.4594455915541964
  2.9188911831083826  5.8377823662167652 21.4594455915541964
  5.8377823662167652  5.8377823662167652 21.4594455915541964
  8.7566735493251482  5.8377823662167652 21.4594455915541964
  0.0000000000000000  8.7566735493251482 21.4594455915541964
  2.9188911831083826  8.7566735493251482 21.4594455915541964
  5.8377823662167652  8.7566735493251482 21.4594455915541964
  8.7566735493251482  8.7566735493251482 21.4594455915541964
  1.4594455915541913  1.4594455915541913 22.9188911831083857
  4.3783367746625741  1.4594455915541913 22.9188911831083857
  7.2972279577709562  1.4594455915541913 22.9188911831083857
 10.2161191408793393  1.4594455915541913 22.9188911831083857
  1.4594455915541913  4.3783367746625741 22.9188911831083857
  4.3783367746625741  4.3783367746625741 22.9188911831083857
  7.2972279577709562  4.3783367746625741 22.9188911831083857
 10.2161191408793393  4.3783367746625741 22.9188911831083857
  1.4594455915541913  7.2972279577709562 22.9188911831083857
  4.3783367746625741  7.2972279577709562 22.9188911831083857
  7.2972279577709562  7.2972279577709562 22.9188911831083857
 10.2161191408793393  7.2972279577709562 22.9188911831083857
  1.4594455915541913 10.2161191408793393 22.9188911831083857
  4.3783367746625741 10.2161191408793393 22.9188911831083857
  7.2972279577709562 10.2161191408793393 22.9188911831083857
 10.2161191408793393 10.2161191408793393 22.9188911831083857
  0.0000000000000000  0.0000000000000000 24.3783367746625785
  2.9188911831083826  0.0000000000000000 24.3783367746625785
  5.8377823662167652  0.0000000000000000 24.3783367746625785
  8.7566735493251482  0.0000000000000000 24.3783367746625785
  0.0000000000000000  2.9188911831083826 24.3783367746625785
  2.9188911831083826  2.9188911831083826 24.3783367746625785
  5.8377823662167652  2.9188911831083826 24.3783367746625785
  8.7566735493251482  2.9188911831083826 24.3783367746625785
  0.0000000000000000  5.8377823662167652 24.3783367746625785
  2.9188911831083826  5.8377823662167652 24.3783367746625785
  5.8377823662167652  5.8377823662167652 24.3783367746625785
  8.7566735493251482  5.8377823662167652 24.3783367746625785
  0.0000000000000000  8.7566735493251482 24.3783367746625785
  2.9188911831083826  8.7566735493251482 24.3783367746625785
  5.8377823662167652  8.7566735493251482 24.3783367746625785
  8.7566735493251482  8.7566735493251482 24.3783367746625785
  1.4594455915541913  1.4594455915541913 25.8377823662167678
  4.3783367746625741  1.4594455915541913 25.8377823662167678
  7.2972279577709562  1.4594455915541913 25.8377823662167678
 10.2161191408793393  1.4594455915541913 25.8377823662167678
  1.4594455915541913  4.3783367746625741 25.8377823662167678
  4.3783367746625741  4.3783367746625741 25.8377823662167678
  7.2972279577709562  4.3783367746625741 25.8377823662167678
 10.2161191408793393  4.3783367746625741 25.8377823662167678
  1.4594455915541913  7.2972279577709562 25.8377823662167678
  4.3783367746625741  7.2972279577709562 25.8377823662167678
  7.2972279577709562  7.2972279577709562 25.8377823662167678
 10.2161191408793393  7.2972279577709562 25.8377823662167678
  1.4594455915541913 10.2161191408793393 25.8377823662167678
  4.3783367746625741 10.2161191408793393 25.8377823662167678
  7.2972279577709562 10.2161191408793393 25.8377823662167678
 10.2161191408793393 10.2161191408793393 25.8377823662167678
  0.0000000000000000  0.0000000000000000 27.2972279577709607
  2.9188911831083826  0.0000000000000000 27.2972279577709607
  5.8377823662167652  0.0000000000000000 27.2972279577709607
  8.7566735493251482  0.0000000000000000 27.2972279577709607
  0.0000000000000000  2.9188911831083826 27.2972279577709607
  2.9188911831083826  2.9188911831083826 27.2972279577709607
  5.8377823662167652  2.9188911831083826 27.2972279577709607
  8.7566735493251482  2.9188911831083826 27.2972279577709607
  0.0000000000000000  5.8377823662167652 27.2972279577709607
  2.9188911831083826  5.8377823662167652 27.2972279577709607
  5.8377823662167652  5.8377823662167652 27.2972279577709607
  8.7566735493251482  5.8377823662167652 27.2972279577709607
  0.0000000000000000  8.7566735493251482 27.2972279577709607
  2.9188911831083826  8.7566735493251482 27.2972279577709607
  5.8377823662167652  8.7566735493251482 27.2972279577709607
  8.7566735493251482  8.7566735493251482 27.2972279577709607
  1.4594455915541913  1.4594455915541913 28.7566735493251500
  4.3783367746625741  1.4594455915541913 28.7566735493251500
  7.2972279577709562  1.4594455915541913 28.7566735493251500
 10.2161191408793393  1.4594455915541913 28.7566735493251500
  1.4594455915541913  4.3783367746625741 28.7566735493251500
  4.3783367746625741  4.3783367746625741 28.7566735493251500
  7.2972279577709562  4.3783367746625741 28.7566735493251500
 10.2161191408793393  4.3783367746625741 28.7566735493251500
  1.4594455915541913  7.2972279577709562 28.7566735493251500
  4.3783367746625741  7.2972279577709562 28.7566735493251500
  7.2972279577709562  7.2972279577709562 28.7566735493251500
 10.2161191408793393  7.2972279577709562 28.7566735493251500
  1.4594455915541913 10.2161191408793393 28.7566735493251500
  4.3783367746625741 10.2161191408793393 28.7566735493251500
  7.2972279577709562 10.2161191408793393 28.7566735493251500
 10.2161191408793393 10.2161191408793393 28.7566735493251500
  0.0000000000000000  0.0000000000000000 30.2161191408793428
  2.9188911831083826  0.0000000000000000 30.2161191408793428
  5.8377823662167652  0.0000000000000000 30.2161191408793428
  8.7566735493251482  0.0000000000000000 30.2161191408793428
  0.0000000000000000  2.9188911831083826 30.2161191408793428
  2.9188911831083826  2.9188911831083826 30.2161191408793428
  5.8377823662167652  2.9188911831083826 30.2161191408793428
  8.7566735493251482  2.9188911831083826 30.2161191408793428
  0.0000000000000000  5.8377823662167652 30.2161191408793428
  2.9188911831083826  5.8377823662167652 30.2161191408793428
  5.8377823662167652  5.8377823662167652 30.2161191408793428
  8.7566735493251482  5.8377823662167652 30.2161191408793428
  0.0000000000000000  8.7566735493251482 30.2161191408793428
  2.9188911831083826  8.7566735493251482 30.2161191408793428
  5.8377823662167652  8.7566735493251482 30.2161191408793428
  8.7566735493251482  8.7566735493251482 30.2161191408793428
  1.4594455915541913  1.4594455915541913 31.6755647324335357
  4.3783367746625741  1.4594455915541913 31.6755647324335357
  7.2972279577709562  1.4594455915541913 31.6755647324335357
 10.2161191408793393  1.4594455915541913 31.6755647324335357
  1.4594455915541913  4.3783367746625741 31.6755647324335357
  4.3783367746625741  4.3783367746625741 31.6755647324335357
  7.2972279577709562  4.3783367746625741 31.6755647324335357
 10.2161191408793393  4.3783367746625741 31.6755647324335357
  1.4594455915541913  7.2972279577709562 31.6755647324335357
  4.3783367746625741  7.2972279577709562 31.6755647324335357
  7.2972279577709562  7.2972279577709562 31.6755647324335357
 10.2161191408793393  7.2972279577709562 31.6755647324335357
  1.4594455915541913 10.2161191408793393 31.6755647324335357
  4.3783367746625741 10.2161191408793393 31.6755647324335357
  7.2972279577709562 10.2161191408793393 31.6755647324335357
 10.2161191408793393 10.2161191408793393 31.6755647324335357
  0.0000000000000000  0.0000000000000000 33.1350103239877285
  2.9188911831083826  0.0000000000000000 33.1350103239877285
  5.8377823662167652  0.0000000000000000 33.1350103239877285
  8.7566735493251482  0.0000000000000000 33.1350103239877285
  0.0000000000000000  2.9188911831083826 33.1350103239877285
  2.9188911831083826  2.9188911831083826 33.1350103239877285
  5.8377823662167652  2.9188911831083826 33.1350103239877285
  8.7566735493251482  2.9188911831083826 33.1350103239877285
  0.0000000000000000  5.8377823662167652 33.1350103239877285
  2.9188911831083826  5.8377823662167652 33.1350103239877285
  5.8377823662167652  5.8377823662167652 33.1350103239877285
  8.7566735493251482  5.8377823662167652 33.1350103239877285
  0.0000000000000000  8.7566735493251482 33.1350103239877285
  2.9188911831083826  8.7566735493251482 33.1350103239877285
  5.8377823662167652  8.7566735493251482 33.1350103239877285
  8.7566735493251482  8.7566735493251482 33.1350103239877285
  1.4594455915541913  1.4594455915541913 34.5944559155419142
  4.3783367746625741  1.4594455915541913 34.5944559155419142
  7.2972279577709562  1.4594455915541913 34.5944559155419142
 10.2161191408793393  1.4594455915541913 34.5944559155419142
  1.4594455915541913  4.3783367746625741 34.5944559155419142
  4.3783367746625741  4.3783367746625741 34.5944559155419142
  7.2972279577709562  4.3783367746625741 34.5944559155419142
 10.2161191408793393  4.3783367746625741 34.5944559155419142
  1.4594455915541913  7.2972279577709562 34.5944559155419142
  4.3783367746625741  7.2972279577709562 34.5944559155419142
  7.2972279577709562  7.2972279577709562 34.5944559155419142
 10.2161191408793393  7.2972279577709562 34.5944559155419142
  1.4594455915541913 10.2161191408793393 34.5944559155419142
  4.3783367746625741 10.2161191408793393 34.5944559155419142
  7.2972279577709562 10.2161191408793393 34.5944559155419142
 10.2161191408793393 10.2161191408793393 34.5944559155419142
  0.0000000000000000  0.0000000000000000 36.0539015070961071
  2.9188911831083826  0.0000000000000000 36.0539015070961071
  5.8377823662167652  0.0000000000000000 36.0539015070961071
  8.7566735493251482  0.0000000000000000 36.0539015070961071
  0.0000000000000000  2.9188911831083826 36.0539015070961071
  2.9188911831083826  2.9188911831083826 36.0539015070961071
  5.8377823662167652  2.9188911831083826 36.0539015070961071
  8.7566735493251482  2.9188911831083826 36.0539015070961071
  0.0000000000000000  5.8377823662167652 36.0539015070961071
  2.9188911831083826  5.8377823662167652 36.0539015070961071
  5.8377823662167652  5.8377823662167652 36.0539015070961071
  8.7566735493251482  5.8377823662167652 36.0539015070961071
  0.0000000000000000  8.7566735493251482 36.0539015070961071
  2.9188911831083826  8.7566735493251482 36.0539015070961071
  5.8377823662167652  8.7566735493251482 36.0539015070961071
  8.7566735493251482  8.7566735493251482 36.0539015070961071
  1.4594455915541913  1.4594455915541913 37.5133470986502999
  4.3783367746625741  1.4594455915541913 37.5133470986502999
  7.2972279577709562  1.4594455915541913 37.5133470986502999
 10.2161191408793393  1.4594455915541913 37.5133470986502999
  1.4594455915541913  4.3783367746625741 37.5133470986502999
  4.3783367746625741  4.3783367746625741 37.5133470986502999
  7.2972279577709562  4.3783367746625741 37.5133470986502999
 10.2161191408793393  4.3783367746625741 37.5133470986502999
  1.4594455915541913  7.2972279577709562 37.5133470986502999
  4.3783367746625741  7.2972279577709562 37.5133470986502999
  7.2972279577709562  7.2972279577709562 37.5133470986502999
 10.2161191408793393  7.2972279577709562 37.5133470986502999
  1.4594455915541913 10.2161191408793393 37.5133470986502999
  4.3783367746625741 10.2161191408793393 37.5133470986502999
  7.2972279577709562 10.2161191408793393 37.5133470986502999
 10.2161191408793393 10.2161191408793393 37.5133470986502999
  0.0000000000000000  0.0000000000000000 38.9727926902044857
  2.9188911831083826  0.0000000000000000 38.9727926902044857
  5.8377823662167652  0.0000000000000000 38.9727926902044857
  8.7566735493251482  0.0000000000000000 38.9727926902044857
  0.0000000000000000  2.9188911831083826 38.9727926902044857
  2.9188911831083826  2.9188911831083826 38.9727926902044857
  5.8377823662167652  2.9188911831083826 38.9727926902044857
  8.7566735493251482  2.9188911831083826 38.9727926902044857
  0.0000000000000000  5.8377823662167652 38.9727926902044857
  2.9188911831083826  5.8377823662167652 38.9727926902044857
  5.8377823662167652  5.8377823662167652 38.9727926902044857
  8.7566735493251482  5.8377823662167652 38.9727926902044857
  0.0000000000000000  8.7566735493251482 38.9727926902044857
  2.9188911831083826  8.7566735493251482 38.9727926902044857
  5.8377823662167652  8.7566735493251482 38.9727926902044857
  8.7566735493251482  8.7566735493251482 38.9727926902044857
  1.4594455915541913  1.4594455915541913 40.4322382817586856
  4.3783367746625741  1.4594455915541913 40.4322382817586856
  7.2972279577709562  1.4594455915541913 40.4322382817586856
 10.2161191408793393  1.4594455915541913 40.4322382817586856
  1.4594455915541913  4.3783367746625741 40.4322382817586856
  4.3783367746625741  4.3783367746625741 40.4322382817586856
  7.2972279577709562  4.3783367746625741 40.4322382817586856
 10.2161191408793393  4.3783367746625741 40.4322382817586856
  1.4594455915541913  7.2972279577709562 40.4322382817586856
  4.3783367746625741  7.2972279577709562 40.4322382817586856
  7.2972279577709562  7.2972279577709562 40.4322382817586856
 10.2161191408793393  7.2972279577709562 40.4322382817586856
  1.4594455915541913 10.2161191408793393 40.4322382817586856
  4.3783367746625741 10.2161191408793393 40.4322382817586856
  7.2972279577709562 10.2161191408793393 40.4322382817586856
 10.2161191408793393 10.2161191408793393 40.4322382817586856
  0.0000000000000000  0.0000000000000000 41.8916838733128714
  2.9188911831083826  0.0000000000000000 41.8916838733128714
  5.8377823662167652  0.0000000000000000 41.8916838733128714
  8.7566735493251482  0.0000000000000000 41.8916838733128714
  0.0000000000000000  2.9188911831083826 41.8916838733128714
  2.9188911831083826  2.9188911831083826 41.8916838733128714
  5.8377823662167652  2.9188911831083826 41.8916838733128714
  8.7566735493251482  2.9188911831083826 41.8916838733128714
  0.0000000000000000  5.8377823662167652 41.8916838733128714
  2.9188911831083826  5.8377823662167652 41.8916838733128714
  5.8377823662167652  5.8377823662167652 41.8916838733128714
  8.7566735493251482  5.8377823662167652 41.8916838733128714
  0.0000000000000000  8.7566735493251482 41.8916838733128714
  2.9188911831083826  8.7566735493251482 41.8916838733128714
  5.8377823662167652  8.7566735493251482 41.8916838733128714
  8.7566735493251482  8.7566735493251482 41.8916838733128714
  1.4594455915541913  1.4594455915541913 43.3511294648670642
  4.3783367746625741  1.4594455915541913 43.3511294648670642
  7.2972279577709562  1.4594455915541913 43.3511294648670642
 10.2161191408793393  1.4594455915541913 43.3511294648670642
  1.4594455915541913  4.3783367746625741 43.3511294648670642
  4.3783367746625741  4.3783367746625741 43.3511294648670642
  7.2972279577709562  4.3783367746625741 43.3511294648670642
 10.2161191408793393  4.3783367746625741 43.3511294648670642
  1.4594455915541913  7.2972279577709562 43.3511294648670642
  4.3783367746625741  7.2972279577709562 43.3511294648670642
  7.2972279577709562  7.2972279577709562 43.3511294648670642
 10.2161191408793393  7.2972279577709562 43.3511294648670642
  1.4594455915541913 10.2161191408793393 43.3511294648670642
  4.3783367746625741 10.2161191408793393 43.3511294648670642
  7.2972279577709562 10.2161191408793393 43.3511294648670642
 10.2161191408793393 10.2161191408793393 43.3511294648670642
  0.0000000000000000  0.0000000000000000 44.8105750564212570
  2.9188911831083826  0.0000000000000000 44.8105750564212570
  5.8377823662167652  0.0000000000000000 44.8105750564212570
  8.7566735493251482  0.0000000000000000 44.8105750564212570
  0.0000000000000000  2.9188911831083826 44.8105750564212570
  2.9188911831083826  2.9188911831083826 44.8105750564212570
  5.8377823662167652  2.9188911831083826 44.8105750564212570
  8.7566735493251482  2.9188911831083826 44.8105750564212570
  0.0000000000000000  5.8377823662167652 44.8105750564212570
  2.9188911831083826  5.8377823662167652 44.8105750564212570
  5.8377823662167652  5.8377823662167652 44.8105750564212570
  8.7566735493251482  5.8377823662167652 44.8105750564212570
  0.0000000000000000  8.7566735493251482 44.8105750564212570
  2.9188911831083826  8.7566735493251482 44.8105750564212570
  5.8377823662167652  8.7566735493251482 44.8105750564212570
  8.7566735493251482  8.7566735493251482 44.8105750564212570
  1.4594455915541913  1.4594455915541913 46.2700206479754428
  4.3783367746625741  1.4594455915541913 46.2700206479754428
  7.2972279577709562  1.4594455915541913 46.2700206479754428
 10.2161191408793393  1.4594455915541913 46.2700206479754428
  1.4594455915541913  4.3783367746625741 46.2700206479754428
  4.3783367746625741  4.3783367746625741 46.2700206479754428
  7.2972279577709562  4.3783367746625741 46.2700206479754428
 10.2161191408793393  4.3783367746625741 46.2700206479754428
  1.4594455915541913  7.2972279577709562 46.2700206479754428
  4.3783367746625741  7.2972279577709562 46.2700206479754428
  7.2972279577709562  7.2972279577709562 46.2700206479754428
 10.2161191408793393  7.2972279577709562 46.2700206479754428
  1.4594455915541913 10.2161191408793393 46.2700206479754428
  4.3783367746625741 10.2161191408793393 46.2700206479754428
  7.2972279577709562 10.2161191408793393 46.2700206479754428
 10.2161191408793393 10.2161191408793393 46.2700206479754428
  0.0000000000000000  0.0000000000000000 47.7294662395296427
  2.9188911831083826  0.0000000000000000 47.7294662395296427
  5.8377823662167652  0.0000000000000000 47.7294662395296427
  8.7566735493251482  0.0000000000000000 47.7294662395296427
  0.0000000000000000  2.9188911831083826 47.7294662395296427
  2.9188911831083826  2.9188911831083826 47.7294662395296427
  5.8377823662167652  2.9188911831083826 47.7294662395296427
  8.7566735493251482  2.9188911831083826 47.7294662395296427
  0.0000000000000000  5.8377823662167652 47.7294662395296427
  2.9188911831083826  5.8377823662167652 47.7294662395296427
  5.8377823662167652  5.8377823662167652 47.7294662395296427
  8.7566735493251482  5.8377823662167652 47.7294662395296427
  0.0000000000000000  8.7566735493251482 47.7294662395296427
  2.9188911831083826  8.7566735493251482 47.7294662395296427
  5.8377823662167652  8.7566735493251482 47.7294662395296427
  8.7566735493251482  8.7566735493251482 47.7294662395296427
