Fe
 1.0000000000000000
    11.6755647324335303    0.0000000000000000    0.0000000000000000
     0.0000000000000000    8.2558709964862480    0.0000000000000000
     0.0000000000000000    0.0000000000000000   79.2153872333096842
 Fe 
 320
Cartesian
  0.0000000000000000  2.0639677491215620 20.0000000000000000
  2.9188911831083826  2.0639677491215620 20.0000000000000000
  5.8377823662167652  2.0639677491215620 20.0000000000000000
  8.7566735493251482  2.0639677491215620 20.0000000000000000
  1.4594455915541913  4.1279354982431240 20.0000000000000000
  4.3783367746625741  4.1279354982431240 20.0000000000000000
  7.2972279577709562  4.1279354982431240 20.0000000000000000
 10.2161191408793393  4.1279354982431240 20.0000000000000000
  0.0000000000000000  6.1919032473646860 20.0000000000000000
  2.9188911831083826  6.1919032473646860 20.0000000000000000
  5.8377823662167652  6.1919032473646860 20.0000000000000000
  8.7566735493251482  6.1919032473646860 20.0000000000000000
  1.4594455915541913  8.2558709964862480 20.0000000000000000
  4.3783367746625741  8.2558709964862480 20.0000000000000000
  7.2972279577709562  8.2558709964862480 20.0000000000000000
 10.2161191408793393  8.2558709964862480 20.0000000000000000
  0.0000000000000000  0.0000000000000000 22.0639677491215629
  2.9188911831083826  0.0000000000000000 22.0639677491215629
  5.8377823662167652  0.0000000000000000 22.0639677491215629
  8.7566735493251482  0.0000000000000000 22.0639677491215629
  1.4594455915541913  2.0639677491215620 22.0639677491215629
  4.3783367746625741  2.0639677491215620 22.0639677491215629
  7.2972279577709562  2.0639677491215620 22.0639677491215629
 10.2161191408793393  2.0639677491215620 22.0639677491215629
  0.0000000000000000  4.1279354982431240 22.0639677491215629
  2.9188911831083826  4.1279354982431240 22.0639677491215629
  5.8377823662167652  4.1279354982431240 22.0639677491215629
  8.7566735493251482  4.1279354982431240 22.0639677491215629
  1.4594455915541913  6.1919032473646860 22.0639677491215629
  4.3783367746625741  6.1919032473646860 22.0639677491215629
  7.2972279577709562  6.1919032473646860 22.0639677491215629
 10.2161191408793393  6.1919032473646860 22.0639677491215629
  0.0000000000000000  2.0639677491215620 24.1279354982431258
  2.9188911831083826  2.0639677491215620 24.1279354982431258
  5.8377823662167652  2.0639677491215620 24.1279354982431258
  8.7566735493251482  2.0639677491215620 24.1279354982431258
  1.4594455915541913  4.1279354982431240 24.1279354982431258
  4.3783367746625741  4.1279354982431240 24.1279354982431258
  7.2972279577709562  4.1279354982431240 24.1279354982431258
 10.2161191408793393  4.1279354982431240 24.1279354982431258
  0.0000000000000000  6.1919032473646860 24.1279354982431258
  2.9188911831083826  6.1919032473646860 24.1279354982431258
  5.8377823662167652  6.1919032473646860 24.1279354982431258
  8.7566735493251482  6.1919032473646860 24.1279354982431258
  1.4594455915541913  8.2558709964862480 24.1279354982431258
  4.3783367746625741  8.2558709964862480 24.1279354982431258
  7.2972279577709562  8.2558709964862480 24.1279354982431258
 10.2161191408793393  8.2558709964862480 24.1279354982431258
  0.0000000000000000  0.0000000000000000 26.1919032473646851
  2.9188911831083826  0.0000000000000000 26.1919032473646851
  5.8377823662167652  0.0000000000000000 26.1919032473646851
  8.7566735493251482  0.0000000000000000 26.1919032473646851
  1.4594455915541913  2.0639677491215620 26.1919032473646851
  4.3783367746625741  2.0639677491215620 26.1919032473646851
  7.2972279577709562  2.0639677491215620 26.1919032473646851
 10.2161191408793393  2.0639677491215620 26.1919032473646851
  0.0000000000000000  4.1279354982431240 26.1919032473646851
  2.9188911831083826  4.1279354982431240 26.1919032473646851
  5.8377823662167652  4.1279354982431240 26.1919032473646851
  8.7566735493251482  4.1279354982431240 26.1919032473646851
  1.4594455915541913  6.1919032473646860 26.1919032473646851
  4.3783367746625741  6.1919032473646860 26.1919032473646851
  7.2972279577709562  6.1919032473646860 26.1919032473646851
 10.2161191408793393  6.1919032473646860 26.1919032473646851
  0.0000000000000000  2.0639677491215620 28.2558709964862516
  2.9188911831083826  2.0639677491215620 28.2558709964862516
  5.8377823662167652  2.0639677491215620 28.2558709964862516
  8.7566735493251482  2.0639677491215620 28.2558709964862516
  1.4594455915541913  4.1279354982431240 28.2558709964862516
  4.3783367746625741  4.1279354982431240 28.2558709964862516
  7.2972279577709562  4.1279354982431240 28.2558709964862516
 10.2161191408793393  4.1279354982431240 28.2558709964862516
  0.0000000000000000  6.1919032473646860 28.2558709964862516
  2.9188911831083826  6.1919032473646860 28.2558709964862516
  5.8377823662167652  6.1919032473646860 28.2558709964862516
  8.7566735493251482  6.1919032473646860 28.2558709964862516
  1.4594455915541913  8.2558709964862480 28.2558709964862516
  4.3783367746625741  8.2558709964862480 28.2558709964862516
  7.2972279577709562  8.2558709964862480 28.2558709964862516
 10.2161191408793393  8.2558709964862480 28.2558709964862516
  0.0000000000000000  0.0000000000000000 30.3198387456078109
  2.9188911831083826  0.0000000000000000 30.3198387456078109
  5.8377823662167652  0.0000000000000000 30.3198387456078109
  8.7566735493251482  0.0000000000000000 30.3198387456078109
  1.4594455915541913  2.0639677491215620 30.3198387456078109
  4.3783367746625741  2.0639677491215620 30.3198387456078109
  7.2972279577709562  2.0639677491215620 30.3198387456078109
 10.2161191408793393  2.0639677491215620 30.3198387456078109
  0.0000000000000000  4.1279354982431240 30.3198387456078109
  2.9188911831083826  4.1279354982431240 30.3198387456078109
  5.8377823662167652  4.1279354982431240 30.3198387456078109
  8.7566735493251482  4.1279354982431240 30.3198387456078109
  1.4594455915541913  6.1919032473646860 30.3198387456078109
  4.3783367746625741  6.1919032473646860 30.3198387456078109
  7.2972279577709562  6.1919032473646860 30.3198387456078109
 10.2161191408793393  6.1919032473646860 30.3198387456078109
  0.0000000000000000  2.0639677491215620 32.3838064947293702
  2.9188911831083826  2.0639677491215620 32.3838064947293702
  5.8377823662167652  2.0639677491215620 32.3838064947293702
  8.7566735493251482  2.0639677491215620 32.3838064947293702
  1.4594455915541913  4.1279354982431240 32.3838064947293702
  4.3783367746625741  4.1279354982431240 32.3838064947293702
  7.2972279577709562  4.1279354982431240 32.3838064947293702
 10.2161191408793393  4.1279354982431240 32.3838064947293702
  0.0000000000000000  6.1919032473646860 32.3838064947293702
  2.9188911831083826  6.1919032473646860 32.3838064947293702
  5.8377823662167652  6.1919032473646860 32.3838064947293702
  8.7566735493251482  6.1919032473646860 32.3838064947293702
  1.4594455915541913  8.2558709964862480 32.3838064947293702
  4.3783367746625741  8.2558709964862480 32.3838064947293702
  7.2972279577709562  8.2558709964862480 32.3838064947293702
 10.2161191408793393  8.2558709964862480 32.3838064947293702
  0.0000000000000000  0.0000000000000000 34.4477742438509367
  2.9188911831083826  0.0000000000000000 34.4477742438509367
  5.8377823662167652  0.0000000000000000 34.4477742438509367
  8.7566735493251482  0.0000000000000000 34.4477742438509367
  1.4594455915541913  2.0639677491215620 34.4477742438509367
  4.3783367746625741  2.0639677491215620 34.4477742438509367
  7.2972279577709562  2.0639677491215620 34.4477742438509367
 10.2161191408793393  2.0639677491215620 34.4477742438509367
  0.0000000000000000  4.1279354982431240 34.4477742438509367
  2.9188911831083826  4.1279354982431240 34.4477742438509367
  5.8377823662167652  4.1279354982431240 34.4477742438509367
  8.7566735493251482  4.1279354982431240 34.4477742438509367
  1.4594455915541913  6.1919032473646860 34.4477742438509367
  4.3783367746625741  6.1919032473646860 34.4477742438509367
  7.2972279577709562  6.1919032473646860 34.4477742438509367
 10.2161191408793393  6.1919032473646860 34.4477742438509367
  0.0000000000000000  2.0639677491215620 36.5117419929725031
  2.9188911831083826  2.0639677491215620 36.5117419929725031
  5.8377823662167652  2.0639677491215620 36.5117419929725031
  8.7566735493251482  2.0639677491215620 36.5117419929725031
  1.4594455915541913  4.1279354982431240 36.5117419929725031
  4.3783367746625741  4.1279354982431240 36.5117419929725031
  7.2972279577709562  4.1279354982431240 36.5117419929725031
 10.2161191408793393  4.1279354982431240 36.5117419929725031
  0.0000000000000000  6.1919032473646860 36.5117419929725031
  2.9188911831083826  6.1919032473646860 36.5117419929725031
  5.8377823662167652  6.1919032473646860 36.5117419929725031
  8.7566735493251482  6.1919032473646860 36.5117419929725031
  1.4594455915541913  8.2558709964862480 36.5117419929725031
  4.3783367746625741  8.2558709964862480 36.5117419929725031
  7.2972279577709562  8.2558709964862480 36.5117419929725031
 10.2161191408793393  8.2558709964862480 36.5117419929725031
  0.0000000000000000  0.0000000000000000 38.5757097420940624
  2.9188911831083826  0.0000000000000000 38.5757097420940624
  5.8377823662167652  0.0000000000000000 38.5757097420940624
  8.7566735493251482  0.0000000000000000 38.5757097420940624
  1.4594455915541913  2.0639677491215620 38.5757097420940624
  4.3783367746625741  2.0639677491215620 38.5757097420940624
  7.2972279577709562  2.0639677491215620 38.5757097420940624
 10.2161191408793393  2.0639677491215620 38.5757097420940624
  0.0000000000000000  4.1279354982431240 38.5757097420940624
  2.9188911831083826  4.1279354982431240 38.5757097420940624
  5.8377823662167652  4.1279354982431240 38.5757097420940624
  8.7566735493251482  4.1279354982431240 38.5757097420940624
  1.4594455915541913  6.1919032473646860 38.5757097420940624
  4.3783367746625741  6.1919032473646860 38.5757097420940624
  7.2972279577709562  6.1919032473646860 38.5757097420940624
 10.2161191408793393  6.1919032473646860 38.5757097420940624
  0.0000000000000000  2.0639677491215620 40.6396774912156218
  2.9188911831083826  2.0639677491215620 40.6396774912156218
  5.8377823662167652  2.0639677491215620 40.6396774912156218
  8.7566735493251482  2.0639677491215620 40.6396774912156218
  1.4594455915541913  4.1279354982431240 40.6396774912156218
  4.3783367746625741  4.1279354982431240 40.6396774912156218
  7.2972279577709562  4.1279354982431240 40.6396774912156218
 10.2161191408793393  4.1279354982431240 40.6396774912156218
  0.0000000000000000  6.1919032473646860 40.6396774912156218
  2.9188911831083826  6.1919032473646860 40.6396774912156218
  5.8377823662167652  6.1919032473646860 40.6396774912156218
  8.7566735493251482  6.1919032473646860 40.6396774912156218
  1.4594455915541913  8.2558709964862480 40.6396774912156218
  4.3783367746625741  8.2558709964862480 40.6396774912156218
  7.2972279577709562  8.2558709964862480 40.6396774912156218
 10.2161191408793393  8.2558709964862480 40.6396774912156218
  0.0000000000000000  0.0000000000000000 42.7036452403371882
  2.9188911831083826  0.0000000000000000 42.7036452403371882
  5.8377823662167652  0.0000000000000000 42.7036452403371882
  8.7566735493251482  0.0000000000000000 42.7036452403371882
  1.4594455915541913  2.0639677491215620 42.7036452403371882
  4.3783367746625741  2.0639677491215620 42.7036452403371882
  7.2972279577709562  2.0639677491215620 42.7036452403371882
 10.2161191408793393  2.0639677491215620 42.7036452403371882
  0.0000000000000000  4.1279354982431240 42.7036452403371882
  2.9188911831083826  4.1279354982431240 42.7036452403371882
  5.8377823662167652  4.1279354982431240 42.7036452403371882
  8.7566735493251482  4.1279354982431240 42.7036452403371882
  1.4594455915541913  6.1919032473646860 42.7036452403371882
  4.3783367746625741  6.1919032473646860 42.7036452403371882
  7.2972279577709562  6.1919032473646860 42.7036452403371882
 10.2161191408793393  6.1919032473646860 42.7036452403371882
  0.0000000000000000  2.0639677491215620 44.7676129894587476
  2.9188911831083826  2.0639677491215620 44.7676129894587476
  5.8377823662167652  2.0639677491215620 44.7676129894587476
  8.7566735493251482  2.0639677491215620 44.7676129894587476
  1.4594455915541913  4.1279354982431240 44.7676129894587476
  4.3783367746625741  4.1279354982431240 44.7676129894587476
  7.2972279577709562  4.1279354982431240 44.7676129894587476
 10.2161191408793393  4.1279354982431240 44.7676129894587476
  0.0000000000000000  6.1919032473646860 44.7676129894587476
  2.9188911831083826  6.1919032473646860 44.7676129894587476
  5.8377823662167652  6.1919032473646860 44.7676129894587476
  8.7566735493251482  6.1919032473646860 44.7676129894587476
  1.4594455915541913  8.2558709964862480 44.7676129894587476
  4.3783367746625741  8.2558709964862480 44.7676129894587476
  7.2972279577709562  8.2558709964862480 44.7676129894587476
 10.2161191408793393  8.2558709964862480 44.7676129894587476
  0.0000000000000000  0.0000000000000000 46.8315807385803140
  2.9188911831083826  0.0000000000000000 46.8315807385803140
  5.8377823662167652  0.0000000000000000 46.8315807385803140
  8.7566735493251482  0.0000000000000000 46.8315807385803140
  1.4594455915541913  2.0639677491215620 46.8315807385803140
  4.3783367746625741  2.0639677491215620 46.8315807385803140
  7.2972279577709562  2.0639677491215620 46.8315807385803140
 10.2161191408793393  2.0639677491215620 46.8315807385803140
  0.0000000000000000  4.1279354982431240 46.8315807385803140
  2.9188911831083826  4.1279354982431240 46.8315807385803140
  5.8377823662167652  4.1279354982431240 46.8315807385803140
  8.7566735493251482  4.1279354982431240 46.8315807385803140
  1.4594455915541913  6.1919032473646860 46.8315807385803140
  4.3783367746625741  6.1919032473646860 46.8315807385803140
  7.2972279577709562  6.1919032473646860 46.8315807385803140
 10.2161191408793393  6.1919032473646860 46.8315807385803140
  0.0000000000000000  2.0639677491215620 48.8955484877018733
  2.9188911831083826  2.0639677491215620 48.8955484877018733
  5.8377823662167652  2.0639677491215620 48.8955484877018733
  8.7566735493251482  2.0639677491215620 48.8955484877018733
  1.4594455915541913  4.1279354982431240 48.8955484877018733
  4.3783367746625741  4.1279354982431240 48.8955484877018733
  7.2972279577709562  4.1279354982431240 48.8955484877018733
 10.2161191408793393  4.1279354982431240 48.8955484877018733
  0.0000000000000000  6.1919032473646860 48.8955484877018733
  2.9188911831083826  6.1919032473646860 48.8955484877018733
  5.8377823662167652  6.1919032473646860 48.8955484877018733
  8.7566735493251482  6.1919032473646860 48.8955484877018733
  1.4594455915541913  8.2558709964862480 48.8955484877018733
  4.3783367746625741  8.2558709964862480 48.8955484877018733
  7.2972279577709562  8.2558709964862480 48.8955484877018733
 10.2161191408793393  8.2558709964862480 48.8955484877018733
  0.0000000000000000  0.0000000000000000 50.9595162368234327
  2.9188911831083826  0.0000000000000000 50.9595162368234327
  5.8377823662167652  0.0000000000000000 50.9595162368234327
  8.7566735493251482  0.0000000000000000 50.9595162368234327
  1.4594455915541913  2.0639677491215620 50.9595162368234327
  4.3783367746625741  2.0639677491215620 50.9595162368234327
  7.2972279577709562  2.0639677491215620 50.9595162368234327
 10.2161191408793393  2.0639677491215620 50.9595162368234327
  0.0000000000000000  4.1279354982431240 50.9595162368234327
  2.9188911831083826  4.1279354982431240 50.9595162368234327
  5.8377823662167652  4.1279354982431240 50.9595162368234327
  8.7566735493251482  4.1279354982431240 50.9595162368234327
  1.4594455915541913  6.1919032473646860 50.9595162368234327
  4.3783367746625741  6.1919032473646860 50.9595162368234327
  7.2972279577709562  6.1919032473646860 50.9595162368234327
 10.2161191408793393  6.1919032473646860 50.9595162368234327
  0.0000000000000000  2.0639677491215620 53.0234839859449991
  2.9188911831083826  2.0639677491215620 53.0234839859449991
  5.8377823662167652  2.0639677491215620 53.0234839859449991
  8.7566735493251482  2.0639677491215620 53.0234839859449991
  1.4594455915541913  4.1279354982431240 53.0234839859449991
  4.3783367746625741  4.1279354982431240 53.0234839859449991
  7.2972279577709562  4.1279354982431240 53.0234839859449991
 10.2161191408793393  4.1279354982431240 53.0234839859449991
  0.0000000000000000  6.1919032473646860 53.0234839859449991
  2.9188911831083826  6.1919032473646860 53.0234839859449991
  5.8377823662167652  6.1919032473646860 53.0234839859449991
  8.7566735493251482  6.1919032473646860 53.0234839859449991
  1.4594455915541913  8.2558709964862480 53.0234839859449991
  4.3783367746625741  8.2558709964862480 53.0234839859449991
  7.2972279577709562  8.2558709964862480 53.0234839859449991
 10.2161191408793393  8.2558709964862480 53.0234839859449991
  0.0000000000000000  0.0000000000000000 55.0874517350665585
  2.9188911831083826  0.0000000000000000 55.0874517350665585
  5.8377823662167652  0.0000000000000000 55.0874517350665585
  8.7566735493251482  0.0000000000000000 55.0874517350665585
  1.4594455915541913  2.0639677491215620 55.0874517350665585
  4.3783367746625741  2.0639677491215620 55.0874517350665585
  7.2972279577709562  2.0639677491215620 55.0874517350665585
 10.2161191408793393  2.0639677491215620 55.0874517350665585
  0.0000000000000000  4.1279354982431240 55.0874517350665585
  2.9188911831083826  4.1279354982431240 55.0874517350665585
  5.8377823662167652  4.1279354982431240 55.0874517350665585
  8.7566735493251482  4.1279354982431240 55.0874517350665585
  1.4594455915541913  6.1919032473646860 55.0874517350665585
  4.3783367746625741  6.1919032473646860 55.0874517350665585
  7.2972279577709562  6.1919032473646860 55.0874517350665585
 10.2161191408793393  6.1919032473646860 55.0874517350665585
  0.0000000000000000  2.0639677491215620 57.1514194841881249
  2.9188911831083826  2.0639677491215620 57.1514194841881249
  5.8377823662167652  2.0639677491215620 57.1514194841881249
  8.7566735493251482  2.0639677491215620 57.1514194841881249
  1.4594455915541913  4.1279354982431240 57.1514194841881249
  4.3783367746625741  4.1279354982431240 57.1514194841881249
  7.2972279577709562  4.1279354982431240 57.1514194841881249
 10.2161191408793393  4.1279354982431240 57.1514194841881249
  0.0000000000000000  6.1919032473646860 57.1514194841881249
  2.9188911831083826  6.1919032473646860 57.1514194841881249
  5.8377823662167652  6.1919032473646860 57.1514194841881249
  8.7566735493251482  6.1919032473646860 57.1514194841881249
  1.4594455915541913  8.2558709964862480 57.1514194841881249
  4.3783367746625741  8.2558709964862480 57.1514194841881249
  7.2972279577709562  8.2558709964862480 57.1514194841881249
 10.2161191408793393  8.2558709964862480 57.1514194841881249
  0.0000000000000000  0.0000000000000000 59.2153872333096842
  2.9188911831083826  0.0000000000000000 59.2153872333096842
  5.8377823662167652  0.0000000000000000 59.2153872333096842
  8.7566735493251482  0.0000000000000000 59.2153872333096842
  1.4594455915541913  2.0639677491215620 59.2153872333096842
  4.3783367746625741  2.0639677491215620 59.2153872333096842
  7.2972279577709562  2.0639677491215620 59.2153872333096842
 10.2161191408793393  2.0639677491215620 59.2153872333096842
  0.0000000000000000  4.1279354982431240 59.2153872333096842
  2.9188911831083826  4.1279354982431240 59.2153872333096842
  5.8377823662167652  4.1279354982431240 59.2153872333096842
  8.7566735493251482  4.1279354982431240 59.2153872333096842
  1.4594455915541913  6.1919032473646860 59.2153872333096842
  4.3783367746625741  6.1919032473646860 59.2153872333096842
  7.2972279577709562  6.1919032473646860 59.2153872333096842
 10.2161191408793393  6.1919032473646860 59.2153872333096842
